LAMMPS (27 Oct 2021)
OMP_NUM_THREADS environment is not set. Defaulting to 1 thread. (src/comm.cpp:98)
  using 1 OpenMP thread(s) per MPI task
package gpu 0
package gpu 2 neigh no pair/only on
#Lammps gcmc code for electrolytes

## ----- Simulation times ----- ##
    variable t_nve      equal 50000             #nve/limit
    variable t_deform 	equal 50000            #nvt
    variable t_pressed 	equal 50000            #nvt
    variable t_relaxed 	equal 100000            #nvt
    variable t_eq 	equal 10000000           #nvt

    variable smallc	equal 10
    variable bigc	equal -80
    variable numB	equal 256
    variable numS	equal ${numB}*8
    variable numS	equal 256*8
#    variable numCl	equal ${numS}*${smallc}+${bigc}*${numB}

## ----- Environment setting ----- ##
    boundary p p p
    atom_style full

## ----- System Variables  ----- ##
    variable    ttemp       equal   $b          	#reduced temperature
    variable    ttemp       equal   1.64          	
    variable    ppress      equal   0			#osmetic pressure
    variable    cutoff_pppm equal   27.8	        #cutoff for the real part of pppm
    variable	ipress      equal   0.1

    variable    bigd        equal   10                      #LJ sigmas
    variable    smalld      equal   2
#    variable    Cl_d        equal   0.4
    variable    d_bs        equal   0.5*(${bigd}+${smalld})
    variable    d_bs        equal   0.5*(10+${smalld})
    variable    d_bs        equal   0.5*(10+2)
#    variable    d_sNa       equal   0.5*(v_smalld+v_Na_d)
#    variable    d_sCl       equal   0.5*(v_smalld+v_Cl_d)
#    variable    d_bNa       equal   0.5*(v_bigd+v_Na_d)
#    variable    d_bCl       equal   0.5*(v_bigd+v_Cl_d)
#    variable    d_NaCl      equal   0.5*(v_Na_d+v_Cl_d)

    variable    cut_small   equal   ${smalld}*1.122462	    #cutoffs for LJ
    variable    cut_small   equal   2*1.122462	    
    variable    cut_big     equal   ${bigd}*1.122462
    variable    cut_big     equal   10*1.122462
#    variable    cut_Na_d    equal   ${Na_d}*1.122462
#    variable    cut_Cl_d    equal   ${Cl_d}*1.122462
    variable    cut_bs      equal   ${d_bs}*1.122462
    variable    cut_bs      equal   6*1.122462
#    variable    cut_bNa     equal   ${d_bNa}*1.122462
#    variable    cut_bCl     equal   ${d_bCl}*1.122462
#    variable    cut_sNa     equal   ${d_sNa}*1.122462
#    variable    cut_sCl     equal   ${d_sCl}*1.122462
#    variable    cut_NaCl    equal   ${d_NaCl}*1.122462

## ----- Initialization and grouping ----- ##
    read_data config_fcc8.dat
Reading data file ...
  orthogonal box = (-80.000000 -80.000000 -80.000000) to (80.000000 80.000000 80.000000)
  2 by 2 by 2 MPI processor grid
  reading atoms ...
  2304 atoms
Finding 1-2 1-3 1-4 neighbors ...
  special bond factors lj:    0        0        0       
  special bond factors coul:  0        0        0       
     0 = max # of 1-2 neighbors
     0 = max # of 1-3 neighbors
     0 = max # of 1-4 neighbors
     1 = max # of special neighbors
  special bonds CPU = 0.002 seconds
  read_data CPU = 0.073 seconds

    set type 1 charge   ${bigc}    	#large NPs
    set type 1 charge   -80    	
Setting atom values ...
  256 settings made for charge
    set type 2 charge   ${smallc}       #small NPs
    set type 2 charge   10       
Setting atom values ...
  2048 settings made for charge
#    set type 3 charge   1       #Na+
#    set type 3 charge   -1      #Cl-

    mass    *   0.2
    mass    1   25.0

    group big       type 1
256 atoms in group big
    group small     type 2
2048 atoms in group small
#    group cation    type 3
#    group anion     type 3

## ----- Interaction setting ----- ##
    pair_style lj/cut/coul/long ${cut_big} ${cutoff_pppm} #lj/cut/coul/long/soft 2.0 0.5 5.0 ${cut_small} ${cutoff_pppm}
    pair_style lj/cut/coul/long 11.22462 ${cutoff_pppm} 
    pair_style lj/cut/coul/long 11.22462 27.8 
    #Between regular particles (4*5/2=10)
    pair_coeff  1   1   2.0     ${bigd}     ${cut_big}	        # big-big
    pair_coeff  1   1   2.0     10     ${cut_big}	        
    pair_coeff  1   1   2.0     10     11.22462	        
    pair_coeff  2   2   2.0     ${smalld}   ${cut_small}	    # small-small
    pair_coeff  2   2   2.0     2   ${cut_small}	    
    pair_coeff  2   2   2.0     2   2.244924	    
#    pair_coeff  3   3   2.0     ${Na_d}     ${cut_Na_d}		    # Na-Na
#    pair_coeff  3   3   2.0     ${Cl_d}     ${cut_Cl_d}       	# Cl-Cl
    pair_coeff  1   2   2.0     ${d_bs}     ${cut_bs}	        # big-small
    pair_coeff  1   2   2.0     6     ${cut_bs}	        
    pair_coeff  1   2   2.0     6     6.734772	        
#    pair_coeff  1   3   2.0     ${d_bNa}    ${cut_bNa}	        # big-Na
#    pair_coeff  1   3   2.0     ${d_bCl}    ${cut_bCl}	        # big-Cl
#    pair_coeff  2   3   2.0     ${d_sNa}    ${cut_sNa}       	# small-Na
#    pair_coeff  2   3   2.0     ${d_sCl}    ${cut_sCl}       	# small-Cl
#    pair_coeff  3   4   2.0     ${d_NaCl}   ${cut_NaCl}       	# Na-Cl
#    pair_modify pair lj/cut/coul/long shift yes
    pair_modify shift yes
    kspace_style	pppm	5.0e-4

## ----- Simulation setup ----- ##
    neighbor 1.2 bin
    neigh_modify delay 0 every 1 check yes #one 2000

    compute temp all temp
    compute press all pressure temp

    thermo 5000
    thermo_style custom step pe temp c_press lx cpu
    thermo_modify norm no flush yes

   # dump moldump all custom 50000 ${xyzname} id type q x y z

## ----- Thermalization of system ----- ##
    timestep 0.0002

    fix 1 all nve/limit 0.05
    fix 2 big langevin ${ttemp} ${ttemp} 0.2 1234567
    fix 2 big langevin 1.64 ${ttemp} 0.2 1234567
    fix 2 big langevin 1.64 1.64 0.2 1234567
    fix 3 small langevin ${ttemp} ${ttemp} 0.008 123456
    fix 3 small langevin 1.64 ${ttemp} 0.008 123456
    fix 3 small langevin 1.64 1.64 0.008 123456

    fix freeze big setforce 0.0 0.0 0.0
    fix zeromom all momentum 1 linear 1 1 1 angular
    run ${t_nve}
    run 50000

CITE-CITE-CITE-CITE-CITE-CITE-CITE-CITE-CITE-CITE-CITE-CITE-CITE

Your simulation uses code contributions which should be cited:

- GPU package (short-range, long-range and three-body potentials):

@Article{Brown11,
 author = {W. M. Brown, P. Wang, S. J. Plimpton, A. N. Tharrington},
 title = {Implementing Molecular Dynamics on Hybrid High Performance Computers - Short Range Forces},
 journal = {Comp.~Phys.~Comm.},
 year =    2011,
 volume =  182,
 pages =   {898--911}
}

@Article{Brown12,
 author = {W. M. Brown, A. Kohlmeyer, S. J. Plimpton, A. N. Tharrington},
 title = {Implementing Molecular Dynamics on Hybrid High Performance Computers - Particle-Particle Particle-Mesh},
 journal = {Comp.~Phys.~Comm.},
 year =    2012,
 volume =  183,
 pages =   {449--459}
}

@Article{Brown13,
 author = {W. M. Brown, Y. Masako},
 title = {Implementing Molecular Dynamics on Hybrid High Performance Computers â€“ Three-Body Potentials},
 journal = {Comp.~Phys.~Comm.},
 year =    2013,
 volume =  184,
 pages =   {2785--2793}
}

@Article{Trung15,
 author = {T. D. Nguyen, S. J. Plimpton},
 title = {Accelerating dissipative particle dynamics simulations for soft matter systems},
 journal = {Comput.~Mater.~Sci.},
 year =    2015,
 volume =  100,
 pages =   {173--180}
}

@Article{Trung17,
 author = {T. D. Nguyen},
 title = {GPU-accelerated Tersoff potentials for massively parallel Molecular Dynamics simulations},
 journal = {Comp.~Phys.~Comm.},
 year =    2017,
 volume =  212,
 pages =   {113--122}
}

@Article{Nikolskiy19,
 author = {V. Nikolskiy, V. Stegailov},
 title = {GPU acceleration of four-site water models in LAMMPS},
 journal = {Proceeding of the International Conference on Parallel Computing (ParCo 2019), Prague, Czech Republic},
 year =    2019
}

CITE-CITE-CITE-CITE-CITE-CITE-CITE-CITE-CITE-CITE-CITE-CITE-CITE

PPPM initialization ...
  using 12-bit tables for long-range coulomb (src/kspace.cpp:340)
  G vector (1/distance) = 0.11438956
  grid = 60 60 60
  stencil order = 5
  estimated absolute RMS force accuracy = 0.00041211524
  estimated relative force accuracy = 0.00041211524
  using double precision KISS FFT
  3d grid and FFT values/proc = 42875 28800
  generated 0 of 1 mixed pair_coeff terms from geometric mixing rule
Neighbor list info ...
  update every 1 steps, delay 0 steps, check yes
  max neighbors/atom: 2000, page size: 100000
  master list distance cutoff = 29
  ghost atom cutoff = 29
  binsize = 14.5, bins = 12 12 12
  1 neighbor lists, perpetual/occasional/extra = 1 0 0
  (1) pair lj/cut/coul/long/gpu, perpetual
      attributes: full, newton off
      pair build: full/bin
      stencil: full/bin/3d
      bin: standard
Per MPI rank memory allocation (min/avg/max) = 11.45 | 11.54 | 11.62 Mbytes
Step PotEng Temp c_press Lx CPU 
       0 1.7992005e+08            0    175.78446          160            0 
    5000   -68352.886    1.4658933 -0.0043341307          160    39.410999 
   10000   -73834.755    1.5280015 -0.0043895541          160    78.623644 
   15000   -78370.746    1.4290393 -0.0044453306          160     117.8887 
   20000   -82581.076    1.4997992 -0.0044221065          160    157.06615 
   25000   -86208.483    1.4798674 -0.0043121992          160      196.322 
   30000   -89657.922    1.4666874 -0.0043833476          160    235.50262 
   35000    -92826.49    1.4794329 -0.0043123435          160    274.62383 
   40000   -95731.518    1.4854746 -0.004328177          160    313.79745 
   45000   -98499.595     1.503502 -0.0043437438          160    352.98125 
   50000   -100958.35    1.4378285 -0.0042361044          160    392.15375 
Loop time of 392.154 on 8 procs for 50000 steps with 2304 atoms

Performance: 2203.217 tau/day, 127.501 timesteps/s
99.6% CPU use with 8 MPI tasks x 1 OpenMP threads

MPI task timing breakdown:
Section |  min time  |  avg time  |  max time  |%varavg| %total
---------------------------------------------------------------
Pair    | 8.9283     | 9.3954     | 9.8488     |  13.3 |  2.40
Bond    | 0.0044137  | 0.0088512  | 0.011535   |   2.1 |  0.00
Kspace  | 376.02     | 376.7      | 377.28     |   2.3 | 96.06
Neigh   | 0.057688   | 0.065557   | 0.073672   |   2.1 |  0.02
Comm    | 2.4466     | 2.6919     | 3.0382     |  12.6 |  0.69
Output  | 0.00035638 | 0.0005868  | 0.0021844  |   0.0 |  0.00
Modify  | 2.7495     | 2.7961     | 2.8639     |   2.6 |  0.71
Other   |            | 0.4906     |            |       |  0.13

Nlocal:        288.000 ave         313 max         260 min
Histogram: 2 0 0 1 0 2 1 0 0 2
Nghost:        1337.00 ave        1358 max        1308 min
Histogram: 1 1 0 0 1 1 1 0 0 3
Neighs:         0.00000 ave           0 max           0 min
Histogram: 8 0 0 0 0 0 0 0 0 0
FullNghs:      16564.0 ave       18893 max       14142 min
Histogram: 2 0 0 1 0 3 0 0 0 2

Total # of neighbors = 132512
Ave neighs/atom = 57.513889
Ave special neighs/atom = 0.0000000
Neighbor list builds = 70
Dangerous builds = 0

#    compute     peatom      all     pe/atom
#    variable    exppe       atom    exp(2*c_peatom/${ttemp})
#    compute     aveS        small   reduce ave v_exppe
#    compute     aveCl       anion   reduce ave v_exppe
#    compute     aveNa       cation  reduce ave v_exppe
#    thermo ${every}
#    thermo_style custom step pe temp lx vol c_aveS c_aveCl c_aveNa cpu
#    thermo_modify norm no flush yes
#    variable    chempNP     equal   temp*(ln(2304/vol)+ln(18300/vol)*10+ln(c_aveS)+ln(c_aveCl)*10)
#    variable    chempS      equal   temp*(ln(5500/vol)+ln(18300/vol)+ln(c_aveNa)+ln(c_aveCl))
#    label checking
#    run ${every}
#    if "${chempNP}>${mu_np}" then 'print "ChempNP=${chempNP}; expel"' "jump gcmc.in checking" else 'print "done!"'

    fix deforming all deform 10 x final -33 33 y final -33 33 z final -33 33 remap x
    run ${t_deform}
    run 50000
PPPM initialization ...
  using 12-bit tables for long-range coulomb (src/kspace.cpp:340)
  G vector (1/distance) = 0.11438956
  grid = 60 60 60
  stencil order = 5
  estimated absolute RMS force accuracy = 0.00041211524
  estimated relative force accuracy = 0.00041211524
  using double precision KISS FFT
  3d grid and FFT values/proc = 42875 28800
  generated 0 of 1 mixed pair_coeff terms from geometric mixing rule
Per MPI rank memory allocation (min/avg/max) = 11.45 | 11.54 | 11.62 Mbytes
Step PotEng Temp c_press Lx CPU 
   50000   -100958.35    1.4378285 -0.0042361044          160            0 
   55000   -107573.19    1.5192642 -0.0036849721        150.6    41.986571 
   60000   -114193.74    1.4720163 -0.0038013509        141.2    84.110288 
   65000   -121731.71     1.484804 -0.0040684829        131.8    126.23577 
   70000   -129894.04    1.4692886 -0.0045498892        122.4    168.38859 
   75000   -138203.73    1.4926488 -0.0017513432          113    210.61686 
   80000   -146788.12    1.4270634 0.0021131681        103.6    252.91026 
   85000   -155305.54    1.4438828  0.011343265         94.2    295.26683 
   90000   -163901.48    1.5074765   0.03182406         84.8    337.77558 
   95000   -172122.16     1.459437  0.075447108         75.4    380.52318 
  100000   -181553.22     1.468507   0.17633084           66    423.61402 
Loop time of 423.614 on 8 procs for 50000 steps with 2304 atoms

Performance: 2039.592 tau/day, 118.032 timesteps/s
99.6% CPU use with 8 MPI tasks x 1 OpenMP threads

MPI task timing breakdown:
Section |  min time  |  avg time  |  max time  |%varavg| %total
---------------------------------------------------------------
Pair    | 9.6737     | 10.145     | 10.536     |  11.8 |  2.39
Bond    | 0.0056868  | 0.0092228  | 0.01172    |   1.9 |  0.00
Kspace  | 376.92     | 377.56     | 378.14     |   2.3 | 89.13
Neigh   | 0.77569    | 0.86207    | 0.95726    |   6.4 |  0.20
Comm    | 3.7135     | 4.1196     | 4.4996     |  12.5 |  0.97
Output  | 0.00041371 | 0.0051146  | 0.011916   |   5.7 |  0.00
Modify  | 25.351     | 27.997     | 30.234     |  35.6 |  6.61
Other   |            | 2.912      |            |       |  0.69

Nlocal:        288.000 ave         307 max         267 min
Histogram: 2 0 0 0 0 3 1 0 1 1
Nghost:        5881.25 ave        5908 max        5840 min
Histogram: 1 0 1 0 1 0 2 0 0 3
Neighs:         0.00000 ave           0 max           0 min
Histogram: 8 0 0 0 0 0 0 0 0 0
FullNghs:      235246.0 ave      252755 max      216773 min
Histogram: 1 1 0 0 2 1 1 0 1 1

Total # of neighbors = 1881972
Ave neighs/atom = 816.82812
Ave special neighs/atom = 0.0000000
Neighbor list builds = 331
Dangerous builds = 0

    unfix 1
#    unfix 2
    unfix freeze
    unfix deforming

    timestep 0.002

    fix 1 all   nph	            iso ${ipress} ${ipress} 1.0
    fix 1 all   nph	            iso 0.1 ${ipress} 1.0
    fix 1 all   nph	            iso 0.1 0.1 1.0
    run ${t_pressed}
    run 50000
PPPM initialization ...
  using 12-bit tables for long-range coulomb (src/kspace.cpp:340)
  G vector (1/distance) = 0.1206864
  grid = 32 32 32
  stencil order = 5
  estimated absolute RMS force accuracy = 0.00049681107
  estimated relative force accuracy = 0.00049681107
  using double precision KISS FFT
  3d grid and FFT values/proc = 9261 4096
  generated 0 of 1 mixed pair_coeff terms from geometric mixing rule
Per MPI rank memory allocation (min/avg/max) = 9.331 | 9.334 | 9.337 Mbytes
Step PotEng Temp c_press Lx CPU 
  100000   -181512.96     1.468507   0.17796702           66            0 
  105000   -200550.57    1.6268007  0.094688821     61.81766    14.225412 
  110000   -202463.16    1.6039672  0.097900568    60.703967    28.703536 
  115000    -203601.6    1.6618518   0.09910648    60.305245    43.333397 
  120000   -204221.35     1.622571   0.10073662    60.092057    58.054856 
  125000   -204602.88    1.6521348  0.099547455    59.999259    72.777676 
  130000   -204986.13    1.6588014   0.10333737    59.961925    87.489728 
  135000   -205350.08    1.6172448  0.097860243    59.982237    102.19924 
  140000   -205332.48    1.6250147   0.10423022    59.926671    116.91484 
  145000    -205348.4    1.6666725   0.10337182    59.919742    131.61423 
  150000   -205555.89    1.6266901    0.1099639    59.828013    146.37271 
Loop time of 146.373 on 8 procs for 50000 steps with 2304 atoms

Performance: 59027.340 tau/day, 341.593 timesteps/s
97.5% CPU use with 8 MPI tasks x 1 OpenMP threads

MPI task timing breakdown:
Section |  min time  |  avg time  |  max time  |%varavg| %total
---------------------------------------------------------------
Pair    | 15.378     | 17.624     | 19.215     |  27.9 | 12.04
Bond    | 0.004418   | 0.005549   | 0.0072856  |   1.2 |  0.00
Kspace  | 66.703     | 67.394     | 68.204     |   6.5 | 46.04
Neigh   | 6.2946     | 6.5185     | 6.8463     |   7.7 |  4.45
Comm    | 6.106      | 6.1559     | 6.2226     |   1.5 |  4.21
Output  | 0.00031239 | 0.00052312 | 0.0019839  |   0.0 |  0.00
Modify  | 44.374     | 45.717     | 47.966     |  16.0 | 31.23
Other   |            | 2.957      |            |       |  2.02

Nlocal:        288.000 ave         293 max         281 min
Histogram: 1 0 0 0 1 3 1 0 0 2
Nghost:        7262.00 ave        7284 max        7248 min
Histogram: 1 1 2 1 0 1 1 0 0 1
Neighs:         0.00000 ave           0 max           0 min
Histogram: 8 0 0 0 0 0 0 0 0 0
FullNghs:      315766.0 ave      321193 max      307418 min
Histogram: 1 0 0 0 1 3 0 1 0 2

Total # of neighbors = 2526126
Ave neighs/atom = 1096.4089
Ave special neighs/atom = 0.0000000
Neighbor list builds = 709
Dangerous builds = 0
    unfix 1
    fix 1 all   nph	            iso ${ipress} ${ppress} 1.0
    fix 1 all   nph	            iso 0.1 ${ppress} 1.0
    fix 1 all   nph	            iso 0.1 0 1.0
    run ${t_relaxed}
    run 100000
PPPM initialization ...
  using 12-bit tables for long-range coulomb (src/kspace.cpp:340)
  G vector (1/distance) = 0.12148093
  grid = 30 30 30
  stencil order = 5
  estimated absolute RMS force accuracy = 0.00049629349
  estimated relative force accuracy = 0.00049629349
  using double precision KISS FFT
  3d grid and FFT values/proc = 8000 3600
  generated 0 of 1 mixed pair_coeff terms from geometric mixing rule
Per MPI rank memory allocation (min/avg/max) = 9.788 | 9.806 | 9.816 Mbytes
Step PotEng Temp c_press Lx CPU 
  150000   -205555.75    1.6266901   0.10996908    59.828013            0 
  155000   -205695.53    1.6209118  0.086321136    60.027548    14.279462 
  160000   -205826.54    1.6483791  0.087704528    59.999187    28.550383 
  165000   -205662.21    1.6187166  0.088243505    60.081904     42.82775 
  170000   -205974.39    1.6428149   0.08189758    60.075912    57.055925 
  175000   -205945.68    1.6310476  0.074797439    60.212563    71.317813 
  180000   -205804.34    1.6343217  0.068190272    60.292352     85.50931 
  185000    -205884.1      1.65821  0.068081621    60.337442    99.742291 
  190000   -205705.16    1.6541042  0.055326309    60.446278    113.94034 
  195000   -205987.01    1.6195716  0.049785741    60.496437    128.15373 
  200000   -205777.14    1.6313093  0.047474202    60.563718    142.31965 
  205000   -205828.98    1.6553612   0.04291507    60.614949    156.50315 
  210000   -205858.03     1.642805  0.032275289    60.709085    170.64194 
  215000   -205611.66    1.6231593  0.039268092    60.725347    184.77702 
  220000   -205520.59    1.6542875  0.029710123    60.900148    198.92539 
  225000   -205382.16    1.5916218  0.022964995    61.020975    213.05588 
  230000   -205623.54    1.6414181  0.020818225    60.953849    227.16661 
  235000   -205303.67    1.6314229  0.019553968    61.056466    241.29335 
  240000    -205184.1    1.6622829 0.0093015207    61.261917    255.41064 
  245000   -205185.31    1.6170346 0.0011559447    61.356159    269.50936 
  250000   -205070.97    1.6074715 0.0073066831     61.33667    283.55218 
Loop time of 283.552 on 8 procs for 100000 steps with 2304 atoms

Performance: 60941.133 tau/day, 352.669 timesteps/s
94.5% CPU use with 8 MPI tasks x 1 OpenMP threads

MPI task timing breakdown:
Section |  min time  |  avg time  |  max time  |%varavg| %total
---------------------------------------------------------------
Pair    | 54.417     | 58.545     | 61.29      |  31.9 | 20.65
Bond    | 0.0089751  | 0.011469   | 0.014143   |   1.7 |  0.00
Kspace  | 108.91     | 110.36     | 111.8      |  10.3 | 38.92
Neigh   | 12.922     | 13.205     | 13.857     |   9.5 |  4.66
Comm    | 12.286     | 12.38      | 12.486     |   1.7 |  4.37
Output  | 0.00063181 | 0.00097134 | 0.0033264  |   0.0 |  0.00
Modify  | 65.082     | 79.273     | 85.473     |  91.5 | 27.96
Other   |            | 9.775      |            |       |  3.45

Nlocal:        288.000 ave         292 max         281 min
Histogram: 1 0 0 0 1 1 1 1 1 2
Nghost:        7077.12 ave        7098 max        7053 min
Histogram: 1 1 1 0 1 0 0 0 3 1
Neighs:         0.00000 ave           0 max           0 min
Histogram: 8 0 0 0 0 0 0 0 0 0
FullNghs:      293924.0 ave      298024 max      285999 min
Histogram: 1 0 0 0 1 1 1 1 1 2

Total # of neighbors = 2351396
Ave neighs/atom = 1020.5712
Ave special neighs/atom = 0.0000000
Neighbor list builds = 1434
Dangerous builds = 0
    unfix 1

    timestep 0.001
    dump moldump all custom 10000 ${xyzname} id type q x y z
    dump moldump all custom 10000 r8f0_coulombic_1.64.lammpstrj id type q x y z
    fix 1 all   nph                 iso ${ppress} ${ppress} 1.0
    fix 1 all   nph                 iso 0 ${ppress} 1.0
    fix 1 all   nph                 iso 0 0 1.0
    run ${t_eq}
    run 10000000
PPPM initialization ...
  using 12-bit tables for long-range coulomb (src/kspace.cpp:340)
  G vector (1/distance) = 0.12089547
  grid = 30 30 30
  stencil order = 5
  estimated absolute RMS force accuracy = 0.00053348526
  estimated relative force accuracy = 0.00053348526
  using double precision KISS FFT
  3d grid and FFT values/proc = 8000 3600
  generated 0 of 1 mixed pair_coeff terms from geometric mixing rule
Per MPI rank memory allocation (min/avg/max) = 11.05 | 11.07 | 11.08 Mbytes
Step PotEng Temp c_press Lx CPU 
  250000   -205071.03    1.6074715  0.007304311     61.33667            0 
  255000   -204938.45    1.6445412 -0.0017528278    61.444809    13.626092 
  260000   -205029.42    1.5823277 -0.0060747826    61.535981    27.244828 
  265000   -205121.84    1.5926706 -0.0010220347    61.435367    40.848774 
  270000   -204983.24    1.6564113 -0.00058061707    61.496191    54.456648 
  275000   -204986.33      1.66763 -3.6118011e-06    61.497827    68.093958 
  280000   -204884.28    1.6392608  6.49831e-05    61.519799    81.711538 
  285000   -204657.66    1.6476754 -0.00037135692    61.548078    95.345485 
  290000   -204985.28    1.6457239 0.0020942686    61.445112    108.97069 
  295000   -205012.54    1.6146317 -0.0029046565    61.517625    122.56245 
  300000    -204709.6    1.6249359 0.0038289156    61.529639    136.15224 
  305000   -204688.42    1.6708286 -0.0035391209    61.677981    149.76341 
  310000   -204802.34    1.6822753 0.0064639176    61.495558     163.3532 
  315000   -204786.96    1.6849907 -0.0085845532    61.661718    176.93699 
  320000   -204607.73     1.655847 0.0042024885    61.551305    190.54399 
  325000   -204614.53    1.6343351 0.00022982981    61.599182    204.14398 
  330000   -204691.43    1.6521916 -0.0018869223    61.623602     217.7417 
  335000   -204536.81    1.6235931 2.1599774e-06    61.581361    231.31317 
  340000   -204661.79    1.6322093 0.0065995049     61.50081    244.90285 
  345000   -204621.88    1.6447897 -0.0045065173    61.697049     258.5226 
  350000    -204423.6    1.6667304 -0.0070080587    61.761193    272.08771 
  355000   -204433.11    1.6556221 0.0031699212    61.567958    285.65628 
  360000   -204392.53    1.6730619 -0.00057522825    61.667395    299.24745 
  365000    -204710.4    1.6170522 0.0020204539    61.582911    312.82332 
  370000   -204694.74    1.5821916 0.0046163012    61.588925    326.39382 
  375000   -204463.57    1.6962893   0.00366707    61.699963    339.94887 
  380000    -204347.2    1.6073693 -0.0030531663    61.732442    353.50579 
  385000   -204557.82    1.6423625 -0.0043720917    61.732859    367.06424 
  390000   -204308.61    1.6629072 0.0040175214    61.607593    380.66152 
  395000   -204459.04    1.6544696 -0.0047571676    61.728923    394.22976 
  400000   -204444.66    1.6015444  0.001908919    61.642703    407.80566 
  405000   -204406.23    1.6168816 9.0993435e-06    61.662767    421.36146 
  410000   -204275.48    1.6423082 0.0014526635    61.669179    434.92124 
  415000   -204317.02    1.6469555 0.0018839616    61.714791    448.51025 
  420000   -204355.73    1.6779568 -0.00053181663    61.744409    462.07975 
  425000   -204257.61    1.6001396 0.00095763613    61.736917    475.64364 
  430000   -204550.12    1.6197333 0.0001720189    61.659741    489.20217 
  435000   -204374.12    1.6407768 0.0042523488    61.689843    502.76657 
  440000   -204449.42    1.6410068 -0.0045300214    61.777859    516.33502 
  445000   -204351.01    1.6398751 -0.00096967029    61.786596    529.90062 
  450000   -204398.19    1.6282227 -0.00012916409    61.711545    543.43673 
  455000   -204529.77     1.621882 0.0034090116    61.643528    556.97506 
  460000   -204521.26    1.6577126 0.00024028151    61.664049     570.5669 
  465000   -204514.86    1.6683382 -0.001027238    61.665015    584.17257 
  470000   -204536.36    1.6181657 -0.00044181822     61.63277    597.74545 
  475000   -204462.71     1.641363 -0.0049129637    61.687753    611.31909 
  480000   -204295.51    1.6442862 -0.003840833     61.80714    624.87018 
  485000   -204441.32    1.6427509 -0.0023081327    61.721743    638.42864 
  490000   -204518.18    1.6346121 0.0030685241    61.662705    651.99094 
  495000   -204312.72    1.6561304 -0.003558388    61.770324    665.53474 
  500000   -204470.16    1.6249583 -0.0015600153    61.739237    679.09703 
  505000    -204259.2    1.6269576 0.0012642778    61.689886     692.6038 
  510000   -204349.53    1.6945029 -0.0055065463    61.788393    706.15295 
  515000   -204399.06    1.6198862 -0.0018228941     61.69072    719.72429 
  520000   -204404.34    1.5925773 0.0024255035    61.643792    733.28898 
  525000   -204766.84    1.6778609 -0.0034942376    61.622396    746.84524 
  530000   -204517.01     1.641745 0.0011391989    61.565126    760.44988 
  535000   -204370.88     1.629147 -0.0018505045    61.668407    774.01662 
  540000   -204543.12    1.6398275 0.00016992778    61.668765    787.58489 
  545000   -204463.69    1.6339099 -0.00031732818    61.690584    801.13054 
  550000   -204327.11    1.6301274 -0.0017968638    61.695396    814.69253 
  555000   -204265.91    1.5857201 -0.0029998633    61.768724    828.29004 
  560000   -204240.62    1.6552876 0.0064351684    61.679864    841.84158 
  565000   -204430.63    1.6474049 -0.0049004857    61.742945    855.38143 
  570000   -204372.63    1.6029127 -0.0010481701    61.697634     868.9406 
  575000   -204322.58     1.632247 -0.0036609095    61.787976    882.51333 
  580000   -204431.88    1.6318326 -0.00049079552    61.707857    896.05082 
  585000   -204525.88    1.6340157 -0.0019532474     61.69616    909.60576 
  590000   -204523.63    1.6311782 -0.0041816887    61.676404    923.20855 
  595000   -204482.61    1.6399106 0.0035156581     61.63681    936.81537 
  600000   -204539.77    1.6687588 0.00033928897    61.611313    950.41186 
  605000   -204520.24    1.6131895 6.9740675e-05    61.636836    963.97307 
  610000   -204534.24    1.6625922 -0.0034194138    61.668843      977.569 
  615000   -204672.54    1.5941457 -0.0028748228    61.604911     991.1526 
  620000   -204492.62    1.6778027 3.7489047e-05    61.642259    1004.7476 
  625000   -204377.21    1.6450171 0.0028213964    61.680421    1018.2987 
  630000   -204742.48    1.6458873 0.0010712697    61.596405    1031.8624 
  635000   -204574.94    1.6145094 -0.0044961495    61.660786     1045.404 
  640000   -204703.88    1.6335573 -0.0025270602    61.617379     1058.995 
  645000   -204587.24    1.6528553 0.00065364357    61.659863    1072.5731 
  650000   -204757.65    1.6538356 0.0034015931    61.595213    1086.1781 
  655000   -204538.84    1.6284934 0.0011931823    61.653397    1099.7681 
  660000   -204462.93    1.6229079 0.0081611565    61.624066    1113.3265 
  665000    -204482.2     1.684684 -0.0016857061    61.712203     1126.878 
  670000   -204548.66    1.6546476 -0.002618428    61.741845    1140.4635 
  675000   -204570.97    1.5959556 -0.0025820469    61.724311    1154.0311 
  680000   -204652.24    1.6312336 0.0082226921    61.556714    1167.6043 
  685000   -204509.74    1.6341418 -0.0035508662    61.745205    1181.1891 
  690000   -204372.82      1.62902 -0.00070208864    61.760539    1194.7482 
  695000   -204239.75    1.6922146 -0.0061938971    61.805674    1208.2973 
  700000   -204515.65    1.5636111 0.0025866547    61.606453    1221.8908 
  705000   -204519.16    1.6820238 -0.00014720822    61.634638    1235.4409 
  710000   -204601.61    1.6159541  0.001780505    61.653627    1249.0389 
  715000   -204707.45     1.662998 0.0011690052    61.552015    1262.6176 
  720000   -204613.26    1.5906939 -0.0035548163    61.600699    1276.2255 
  725000   -204651.12    1.6420975 -0.0044501222    61.609203    1289.7998 
  730000   -204657.08    1.6724467 -0.0021567059    61.646202    1303.3768 
  735000   -204685.68    1.5979724 0.0026312654    61.575569    1316.9468 
  740000    -204436.6    1.6268197 0.0043645173    61.592161    1330.5308 
  745000   -204720.11       1.6823 0.00044730064    61.603399    1344.0864 
  750000   -204650.11     1.647128 0.0067872977    61.571249    1357.7062 
  755000   -204556.13    1.6767731 0.00068740793     61.65348    1371.2989 
  760000    -204586.6    1.6356419 0.0057614902    61.554586    1384.8876 
  765000   -204766.37    1.6391175 0.0013929859      61.5852    1398.4811 
  770000   -204494.49    1.6455049 0.0057083451    61.517397    1412.0723 
  775000   -204625.97    1.6810274 0.0056740762    61.513863    1425.6334 
  780000   -204386.45    1.6783324 -0.0036224542    61.656225    1439.2568 
  785000   -204481.52    1.6027062 -0.0046091488    61.650701    1452.8134 
  790000   -204519.35    1.6109498 0.0037676717    61.587225    1466.3716 
  795000   -204348.59    1.6628359 0.0051763047    61.603965    1479.9927 
  800000   -204697.26    1.6498246 -0.0022537826    61.593758    1493.5757 
  805000   -204443.02    1.6191914 -0.0011065723    61.688339    1507.1976 
  810000      -204462    1.6321222 0.00026190968    61.637791    1520.7914 
  815000   -204417.71    1.6224981 -0.0037125877    61.768571    1534.3626 
  820000   -204403.74    1.5912944 3.2380649e-05    61.673754    1547.9282 
  825000   -204554.58     1.636019 -0.0023466642    61.656845    1561.5324 
  830000   -204460.18    1.6671485 0.0035270585    61.585726    1575.1005 
  835000    -204596.3     1.632873 -0.0077725402    61.677499    1588.6989 
  840000   -204698.42    1.6576228 0.0029066691    61.507906    1602.2961 
  845000   -204330.32     1.629483 -0.0051454454     61.70613    1615.9371 
  850000   -204335.58    1.6576572 -0.0030467061    61.757368    1629.5342 
  855000   -204402.23    1.6232712 0.0020493385    61.700703    1643.0946 
  860000   -204502.76     1.644781 0.0039647619    61.621534    1656.6635 
  865000   -204464.59    1.6639408 -0.0030518545    61.712423    1670.2314 
  870000   -204493.02    1.6237865 -0.00030910558    61.641277    1683.7675 
  875000   -204235.07    1.6369483 -0.00042974605     61.73055    1697.3186 
  880000   -204525.15    1.6960446 0.0062006612    61.552043     1710.901 
  885000    -204474.9    1.6143887 -0.0018280877    61.634786    1724.4615 
  890000   -204399.07    1.6698128 0.0019378379    61.583681    1738.0466 
  895000    -204477.5    1.6167507 -0.0020628435    61.684067     1751.592 
  900000   -204403.82    1.6636427 0.0011577036    61.672887     1765.123 
  905000   -204356.01    1.6381779 0.0020385491    61.643532    1778.6992 
  910000   -204535.69    1.6300319 -0.0015369291    61.633458    1792.2589 
  915000   -204424.46    1.6420545 -0.0047789468    61.688313    1805.8262 
  920000   -204482.87    1.6424658 0.00084464676    61.626475    1819.3831 
  925000   -204313.02    1.6306606  0.004606027     61.65785    1832.9372 
  930000   -204345.07    1.5864415 0.00057349169    61.632772    1846.4644 
  935000   -204454.76    1.6279541 -0.0050454041    61.678014    1860.0193 
  940000   -204439.32    1.6563958 0.0039239973    61.609782    1873.5887 
  945000   -204325.84    1.6300894 0.0036536422    61.626012    1887.1926 
  950000   -204496.91    1.6033537 0.0020062328    61.606632    1900.7663 
  955000   -204309.14    1.6672517 0.0028855003    61.683262    1914.3395 
  960000   -204344.93    1.6584954 0.0046980668    61.648043    1927.9094 
  965000   -204506.58     1.649688 -0.0016275578     61.72135    1941.4477 
  970000   -204458.15    1.6994262 0.0052333974    61.619133    1955.0306 
  975000   -204397.93    1.6618455 -0.001327357    61.707685    1968.5863 
  980000   -204541.63     1.628938 0.0022861844    61.615489    1982.1593 
  985000   -204441.89    1.6479389 -0.0019689598    61.648887    1995.7226 
  990000   -204650.55    1.6273084 -0.00079202641    61.593773    2009.3198 
  995000   -204507.59    1.6250174 -0.0040503925    61.688251    2022.8902 
 1000000   -204702.53    1.6247756 -0.0014968361    61.582546    2036.4698 
 1005000   -204445.81    1.6801703 0.00026304738    61.694111     2050.052 
 1010000   -204569.11     1.602561   0.00441538    61.577103     2063.659 
 1015000   -204565.78    1.6318225 0.0046488393     61.53331    2077.2623 
 1020000   -204611.79    1.6306859 -6.6067994e-07    61.585954    2090.9039 
 1025000   -204682.65    1.6406191 -0.0014943058    61.604241    2104.4862 
 1030000   -204655.31    1.6419532 0.00028748815    61.604675    2118.0791 
 1035000   -204634.82     1.647004 0.0041772718    61.587638    2131.6309 
 1040000   -204821.51    1.6156579 -0.0041972537    61.621624    2145.2073 
 1045000   -204708.98    1.6697897 -0.0033209775     61.59427    2158.8017 
 1050000   -204737.13    1.6493375 0.0028713756    61.557336     2172.386 
 1055000   -204559.38    1.6397381 -0.0057516107    61.621397    2185.9697 
 1060000   -204734.26    1.6672625 0.0049628759    61.518915    2199.5734 
 1065000   -204604.24    1.6399731 0.00042215299    61.632364    2213.1723 
 1070000   -204821.14    1.6892416 0.0023484339     61.51745    2226.7622 
 1075000   -204646.92    1.6345821 0.00068453386    61.586301    2240.3198 
 1080000      -204787    1.6874133 0.0024213437    61.516388    2253.9154 
 1085000   -204496.67    1.6226817 -0.0052355195    61.640794    2267.5262 
 1090000   -204597.75    1.6021546 0.0037576446    61.589135    2281.0957 
 1095000   -204475.86    1.6422264 0.0021163814    61.619741    2294.6473 
 1100000   -204582.49    1.6742759 0.0012718267    61.607293    2308.2245 
 1105000   -204697.37    1.6701699 0.0017494353    61.587755     2321.747 
 1110000   -204414.49    1.6827876 5.9375461e-05    61.697258    2335.3322 
 1115000   -204353.86    1.6076245 -0.0038545683    61.770116    2348.8901 
 1120000   -204430.96    1.6309014 0.00074964709    61.723876    2362.4426 
 1125000    -204141.8    1.6106798 -0.006998727    61.851292    2375.9791 
 1130000    -204456.3     1.611116 0.0043444528    61.613672     2389.531 
 1135000   -204512.75    1.6424681 -0.0002454281    61.643853    2403.0866 
 1140000   -204436.69    1.6388715 -0.0065028609    61.742933    2416.6623 
 1145000   -204482.93    1.6454814 -0.0018090294    61.674422    2430.2372 
 1150000   -204526.01    1.6331179 0.0011142748    61.630921    2443.8208 
 1155000    -204434.6    1.6294312 -0.0022763867     61.70673     2457.413 
 1160000   -204421.93    1.6752031 -0.0039550083    61.773917    2470.9603 
 1165000   -204246.28    1.6209241 -0.005642375    61.828115    2484.4921 
 1170000   -204420.15    1.6378012 -0.005710613    61.788947    2498.0413 
 1175000   -204488.44    1.6463472 -0.004710978    61.757112    2511.6026 
 1180000   -204553.79    1.6142381 0.0012293611    61.653162    2525.1364 
 1185000   -204597.04    1.5972421 -0.0053614903    61.737327    2538.6624 
 1190000   -204494.18    1.6994816 0.0039955556    61.661342    2552.2568 
 1195000   -204539.08    1.5823136 -0.0038162672    61.650857    2565.8249 
 1200000   -204607.54    1.6528537 0.0067616449     61.54817    2579.4147 
 1205000   -204766.38    1.6413436 -0.0034562352     61.66302    2593.0009 
 1210000   -204542.15    1.6807925 -0.0023748955     61.62262    2606.5605 
 1215000   -204653.47    1.6112761 -0.0010160973    61.586593    2620.1102 
 1220000   -204607.96    1.6123363 -0.0028556442    61.627054    2633.6651 
 1225000    -204597.5    1.6517328 0.0024782526    61.607957    2647.2408 
 1230000   -204737.82    1.6520757  0.004427864    61.489937    2660.8045 
 1235000   -204827.22    1.6250078 -0.0055911597    61.602397    2674.4354 
 1240000   -204496.69    1.6101654 0.00035626908    61.610388    2688.0416 
 1245000   -204586.26    1.6020918 -0.0015887965    61.631827    2701.6364 
 1250000   -204517.58    1.6664002 0.0022936351    61.610664    2715.2056 
 1255000   -204529.74    1.6659751 -0.003431825    61.709039    2728.7893 
 1260000   -204560.69    1.6241698 0.0028775452    61.633206    2742.3509 
 1265000   -204479.83    1.6097167 0.00057876148    61.720482    2755.9151 
 1270000   -204515.06    1.6166131 -0.0033771269    61.705135     2769.471 
 1275000   -204449.21    1.6341437 -0.0028565221    61.682792    2783.0084 
 1280000   -204307.58    1.7012373 0.0036914091    61.672508    2796.5632 
 1285000   -204535.79    1.6180418 0.0038103859    61.660324    2810.1399 
 1290000   -204269.46     1.619629 -0.0010590589    61.766932    2823.6691 
 1295000   -204444.74    1.6395575 0.0015892415    61.656787    2837.2272 
 1300000   -204593.26    1.6167331 -0.0021756893    61.606204    2850.8141 
 1305000   -204421.25    1.6875223 -0.0036220794    61.673377    2864.3821 
 1310000   -204556.62    1.6596066 0.00054665993    61.646445    2877.9336 
 1315000   -204695.67      1.64273 0.0046197111    61.542328    2891.4972 
 1320000   -204581.97    1.6575489 -0.0012695114    61.625206     2905.068 
 1325000   -204676.21    1.6146268 0.0018530851    61.559163    2918.6298 
 1330000   -204680.55    1.6382777 0.00013204831    61.601062    2932.2041 
 1335000   -204437.03    1.6275781 -0.0032082227    61.709351    2945.7307 
 1340000    -204449.2    1.6404072 0.0031078631    61.661594    2959.3234 
 1345000    -204395.6    1.5890076 -0.0001459672    61.707987    2972.9217 
 1350000   -204213.14    1.6197501  0.005528671    61.683359    2986.4497 
 1355000   -204185.36    1.6116346 -0.0079823834    61.865421    2999.9941 
 1360000   -204348.09    1.6696502 0.0021751617    61.679281    3013.5525 
 1365000   -204488.38    1.6484279  0.001841629    61.611402    3027.0797 
 1370000   -204413.05    1.6413182 0.0030602735     61.62954    3040.6443 
 1375000   -204369.01    1.6322571 0.0037897092    61.602114    3054.2142 
 1380000   -204418.13     1.659145 -0.0021417338    61.700566    3067.7868 
 1385000   -204320.58    1.6120614 -0.005928163     61.73734    3081.3565 
 1390000   -204562.11    1.6340683 -0.0041494122     61.67163    3094.9051 
 1395000   -204249.87    1.6546522 0.00035391015    61.731053    3108.4814 
 1400000   -204275.65    1.6684376 -0.0010240054    61.719805    3122.0589 
 1405000    -204359.3    1.6460021 0.0035265183    61.612802    3135.6437 
 1410000   -204281.24    1.6572733 0.0033132048    61.631955    3149.2496 
 1415000   -204363.91    1.6193274 0.0037894842    61.598319    3162.8103 
 1420000   -204062.84    1.6490748  -0.00356132    61.814259    3176.3964 
 1425000   -204181.15    1.6285998  0.001046062    61.678285    3189.9204 
 1430000   -204085.73    1.6562675 -0.0031996992    61.811927    3203.4507 
 1435000   -204206.67    1.6572249 -0.0005430625    61.737315    3216.9505 
 1440000    -204228.9    1.6200742 -0.0015333164     61.72453    3230.4768 
 1445000   -204248.16    1.6717661 0.0030273936    61.655219    3244.0086 
 1450000   -204304.39    1.6416997  0.003086333    61.674211    3257.5536 
 1455000    -204369.4    1.5772888  0.001454016    61.628309    3271.1098 
 1460000   -204481.78    1.6693445  0.004235331    61.583896    3284.6646 
 1465000   -204481.45     1.674659 0.0028547717    61.643421    3298.2342 
 1470000   -204331.83    1.6765409 0.0015897786    61.696222    3311.8069 
 1475000   -204497.25    1.6142643 -0.00043051877    61.627538    3325.3526 
 1480000   -204449.32    1.6441489 -0.00018450152    61.642922    3338.9043 
 1485000   -204328.36    1.6002441 0.0029631829    61.673951    3352.4403 
 1490000   -204268.24    1.6820618 -0.0063300439    61.842402     3365.985 
 1495000   -204349.97    1.6779355 0.0020645669    61.688043    3379.5114 
 1500000   -204406.14    1.6632338 0.0051691517     61.63143    3393.0662 
 1505000   -204506.32    1.6500289 -0.0029415107    61.705511    3406.6236 
 1510000   -204465.97    1.6484533 0.0012623599    61.621139    3420.2213 
 1515000   -204391.01    1.5670019 -0.0010948544    61.700289    3433.7938 
 1520000   -204681.62    1.6032912 0.0012150825    61.573254    3447.3578 
 1525000   -204516.12    1.6519863  0.002148333    61.649694    3460.9306 
 1530000   -204422.64      1.63808 -0.0013639614    61.685919    3474.5099 
 1535000   -204504.41    1.6283983 0.0036195172    61.638803    3488.0517 
 1540000   -204306.02    1.5678697 -0.0013994522    61.715033    3501.6003 
 1545000   -204312.95    1.6669207 0.0055218265    61.638832    3515.1677 
 1550000   -204359.07    1.6275975 0.0061199953    61.624441    3528.7305 
 1555000    -204343.1    1.6375484 -0.0028741526    61.679397    3542.2937 
 1560000   -204342.84     1.664327 0.0088329369    61.571469    3555.8666 
 1565000   -204437.34     1.688569 -0.0022331635    61.750018    3569.4393 
 1570000   -204349.76    1.6406529  0.003037402    61.595445    3582.9926 
 1575000   -204617.09    1.6420316 0.0048751279    61.558585    3596.5682 
 1580000   -204518.73    1.6577032 -0.007801037    61.684729    3610.1498 
 1585000   -204453.93    1.6232442 -0.00031440732    61.640403    3623.7674 
 1590000   -204290.92    1.6567665 0.0025085759    61.684767    3637.3384 
 1595000   -204389.11    1.6038395 -0.0037416748    61.685055    3650.8908 
 1600000   -204449.71    1.6799158 -0.0055045956    61.725729    3664.4676 
 1605000   -204199.33    1.6497428 -0.001251785    61.747015    3678.0267 
 1610000   -204595.44     1.666692 0.0052707213    61.559628    3691.6408 
 1615000   -204618.94    1.5887731 -0.0002441068    61.626114    3705.2827 
 1620000    -204589.4    1.6631368 -0.0019633201    61.720055    3718.9164 
 1625000   -204485.46    1.6432398 -0.0039786648     61.68804    3732.4942 
 1630000   -204555.44    1.6937743   0.00375106    61.535981    3746.1171 
 1635000   -204529.09    1.6180296 -0.0041490852     61.64807    3759.7505 
 1640000   -204316.56    1.6864481 0.0021684889     61.72037    3773.3331 
 1645000   -204615.41    1.6606637 1.2880343e-05     61.68125    3786.8932 
 1650000   -204560.64    1.6579039 -0.0010653406    61.684352    3800.4854 
 1655000   -204420.15      1.60929 -0.0013028207    61.679374    3814.0603 
 1660000   -204416.18    1.6290092 0.0024750957    61.682121    3827.6885 
 1665000   -204467.86    1.6573193 -0.0011533472    61.695731    3841.2572 
 1670000    -204400.7    1.6395967 -0.0026188899    61.716999    3854.8337 
 1675000   -204540.21    1.6197175 -0.0041135969    61.701175    3868.3786 
 1680000   -204239.04    1.5921623 -0.0071086081    61.805714    3881.9287 
 1685000   -204270.66    1.6662299 -0.0016772636    61.762834    3895.4674 
 1690000   -204479.48     1.679306 -0.0067984397    61.750957    3909.0536 
 1695000   -204519.89    1.5954635 -0.0040708837    61.683487    3922.6248 
 1700000   -204478.76    1.6685843 0.0040438202     61.60495    3936.2461 
 1705000   -204513.16    1.6473771 0.0018630877    61.633917    3949.8074 
 1710000   -204322.25    1.6670751 0.0016011562    61.669883    3963.3505 
 1715000   -204495.28    1.6530988 -0.0023601587    61.672637    3976.9469 
 1720000   -204524.17    1.6345432 0.0038201338    61.578729    3990.5172 
 1725000   -204455.29    1.6257435 0.0027692188    61.611078    4004.1114 
 1730000   -204606.12    1.6970097 -0.0043161557    61.655723    4017.6511 
 1735000   -204513.98     1.611671 -0.0031505933    61.719629    4031.2128 
 1740000   -204526.33    1.6312434 -0.00048673359     61.68679    4044.7467 
 1745000   -204422.34    1.6922585 0.00080753996     61.67796     4058.338 
 1750000   -204392.53    1.6243068 -0.00091342278    61.735888    4071.9265 
 1755000   -204511.72    1.6262018 -0.0011095554    61.750901    4085.4828 
 1760000   -204418.54    1.6687917 3.415843e-05    61.736466    4099.0016 
 1765000   -204526.97    1.7050663 0.0013853664     61.66643    4112.5671 
 1770000   -204441.11    1.6441812 0.00093131861    61.658355    4126.1444 
 1775000   -204592.97    1.5830505 -0.00095650064     61.64606    4139.7241 
 1780000   -204575.05    1.6669127 0.00026109412    61.651502    4153.3064 
 1785000   -204331.88    1.6771895 -0.0027266035    61.709639    4166.8892 
 1790000   -204397.14     1.680375 -0.0012253162    61.697186    4180.4746 
 1795000   -204609.21    1.6175585  0.003833382    61.574431    4194.0489 
 1800000   -204274.52    1.5844264 -0.0025054312    61.726604    4207.5966 
 1805000   -204477.43    1.6294587 -0.0031636931    61.681429    4221.1635 
 1810000   -204644.78    1.6353614 0.0024454946    61.627832    4234.7452 
 1815000   -204500.91    1.6380912 -0.0023930804    61.670278     4248.343 
 1820000   -204343.22    1.5829127 -0.0033908423     61.71782    4261.9108 
 1825000   -204395.16    1.6005736 -0.0010990856    61.614843     4275.441 
 1830000   -204583.74      1.66644 -0.003059953    61.648487    4289.0031 
 1835000   -204560.56    1.6477204 0.0010871569    61.620134    4302.5695 
 1840000   -204557.74    1.6397907 0.0049717725    61.571249    4316.1629 
 1845000    -204550.5    1.6026243 3.2459204e-05    61.622336    4329.7394 
 1850000   -204424.19    1.6327194 -0.00034384338    61.637409    4343.3238 
 1855000   -204543.76    1.6586741 0.0060272326    61.517966    4356.9296 
 1860000   -204540.58    1.6645209 -0.0038833154    61.672602    4370.5575 
 1865000   -204340.46    1.6102963 0.0023292659    61.694176     4384.168 
 1870000   -204533.11    1.5734366 0.0013132825    61.585309    4397.7818 
 1875000   -204560.33    1.6635119 -0.0023094831     61.61942    4411.3863 
 1880000   -204723.92    1.6719773 -0.0044186489    61.578085    4425.0051 
 1885000   -204634.72    1.6397691 -0.00098627871    61.555101    4438.5995 
 1890000   -204479.33    1.6668815  -0.00458148    61.681619    4452.1823 
 1895000   -204535.77    1.6254978 0.0013634218    61.606919    4465.7581 
 1900000   -204692.29     1.653771 -0.00040708928    61.640729    4479.3328 
 1905000   -204490.62    1.6447034 0.0034462443    61.600782    4492.9039 
 1910000    -204702.3    1.5653982 -0.0021425933    61.599372    4506.5012 
 1915000   -204549.77    1.6552063 -0.0046465245    61.653083    4520.1272 
 1920000   -204581.89    1.6539323 -0.001628949    61.682371     4533.733 
 1925000   -204395.18    1.6388413 -0.0036491304    61.753936    4547.3174 
 1930000    -204513.8    1.6390484 0.00055852246    61.596924    4560.8703 
 1935000   -204297.87    1.6350023 -0.0059794887    61.768047    4574.4297 
 1940000   -204347.02    1.6454949 -0.0014382392    61.727122    4588.0009 
 1945000   -204460.96    1.6195626 -0.0098660396    61.802748    4601.5773 
 1950000   -204515.08    1.6532254 -0.004048383    61.639304    4615.1614 
 1955000   -204575.38    1.6194095 0.0005877493    61.629773     4628.716 
 1960000   -204502.46    1.6373172 -0.0010635552    61.648068    4642.2817 
 1965000   -204572.67    1.6614432 -0.0030082897    61.654845    4655.8709 
 1970000   -204649.55    1.6471105 0.0033347278    61.518406    4669.5103 
 1975000   -204563.87       1.6352 0.0019012261    61.582534    4683.1071 
 1980000   -204567.98    1.6215975 -0.0020948979     61.60507     4696.702 
 1985000   -204540.07    1.6936412 -0.0028014137    61.673042    4710.2843 
 1990000   -204488.92    1.6331131 0.00060444153    61.611284    4723.8724 
 1995000   -204708.68    1.6513478 -0.0005579221     61.56777    4737.4438 
 2000000    -204448.3    1.6636842 0.0019794305    61.578484    4751.0432 
 2005000   -204474.38    1.6524785 0.0040826208    61.561557    4764.6523 
 2010000   -204700.78    1.6804082 3.5083385e-05     61.58048    4778.2236 
 2015000   -204524.88    1.6452371 0.0025643339    61.595129    4791.8057 
 2020000   -204598.76    1.6331544 -0.0041103259    61.688878    4805.3874 
 2025000    -204585.4    1.6220297 -0.0013503319    61.631569    4818.9418 
 2030000   -204664.11    1.6425926 -0.0011877101    61.594055    4832.5364 
 2035000    -204591.8    1.6286045 0.0019755041    61.576133    4846.1112 
 2040000   -204756.13     1.690202 0.00084347468    61.582188    4859.6552 
 2045000   -204675.46    1.6541892 -3.5111899e-05    61.559513    4873.2044 
 2050000   -204558.55    1.6909544 -0.004154818    61.640787    4886.8051 
 2055000   -204763.72    1.6514033 0.00027416389    61.466456    4900.4168 
 2060000   -204592.18    1.6240449 0.0033362632    61.563277    4914.0087 
 2065000   -204506.33    1.6684124 0.0041807512    61.531394    4927.5963 
 2070000   -204641.07    1.5984626 -0.0019193284    61.574654    4941.1877 
 2075000    -204688.5    1.6067884 -0.00074204996    61.542159    4954.7598 
 2080000   -204481.43    1.6169839 0.0040159827    61.582212    4968.3776 
 2085000   -204546.08    1.6530501 0.0018011316    61.493596     4982.004 
 2090000   -204544.98    1.6625084 -0.0034870055    61.660513    4995.6475 
 2095000   -204699.29     1.609172 0.0098044545    61.432973    5009.2621 
 2100000   -204764.42      1.60347 -0.004578696    61.596816    5022.8989 
 2105000   -204687.54    1.6675161 0.00055111561    61.522759    5036.5334 
 2110000   -204696.74     1.634661 -0.0025189786    61.591936    5050.1455 
 2115000   -204657.59    1.6538794 -9.5428876e-05    61.594302    5063.7071 
 2120000   -204693.48    1.6415708 -0.0035486722    61.605792    5077.3475 
 2125000   -204385.03    1.6636679 -0.00074935887    61.688121    5090.9063 
 2130000   -204447.29    1.6814451 -0.003025839    61.751345    5104.4656 
 2135000    -204438.6    1.6449874 -0.00028751165    61.704803    5118.0249 
 2140000    -204532.1    1.5860574 0.0011532012    61.610543    5131.5987 
 2145000    -204463.2    1.6109821 -0.0011582082    61.655217    5145.1599 
 2150000   -204456.88    1.6256481 -0.0021358833    61.679019    5158.6738 
 2155000    -204463.4    1.6394902 -0.0033212971    61.669613    5172.2343 
 2160000   -204476.26    1.6688052 -0.0013257151    61.643967    5185.7727 
 2165000   -204367.61    1.6688403 0.00066214027    61.638283    5199.3495 
 2170000   -204446.37     1.640527 -0.0093378108    61.703263    5212.9488 
 2175000   -204539.48    1.6423599 0.0007932029    61.601256    5226.5542 
 2180000   -204552.75    1.7140845 0.0049809974    61.576509    5240.1584 
 2185000   -204489.33    1.5956313 -0.001297758    61.617063    5253.7218 
 2190000   -204413.63    1.6462509 -0.0011961384    61.653801    5267.3322 
 2195000   -204400.49    1.6357837 -0.0019995025    61.687808    5280.8786 
 2200000   -204417.32    1.6245901 0.0010754419    61.683067    5294.4392 
 2205000    -204268.9    1.6569066 -0.0019978875     61.82221    5307.9519 
 2210000   -204478.17     1.664859 0.0020663003    61.631157    5321.5143 
 2215000   -204326.88     1.598031 -0.0030545584    61.731391    5335.0929 
 2220000    -204688.2    1.6563473 0.00022879085    61.595083     5348.642 
 2225000   -204599.79    1.6624329 -0.0020396568    61.588388    5362.1728 
 2230000   -204441.38    1.6137551 -0.0011025741    61.678583    5375.7306 
 2235000   -204399.57    1.6581402 -0.0074818721    61.763753     5389.286 
 2240000   -204583.27    1.6344773 -0.0065641497    61.762531    5402.8809 
 2245000   -204328.09    1.6341225 -0.0015120972    61.773746    5416.4135 
 2250000   -204310.62    1.6431405 0.0032784996    61.725771     5429.967 
 2255000   -204341.65    1.6425499 -0.0062678064    61.837253    5443.5265 
 2260000   -204457.78    1.5844567 -0.00036860609    61.678208    5457.0766 
 2265000   -204428.05    1.6510367 0.0043264351     61.70637    5470.6451 
 2270000   -204216.19    1.6305503 -0.0033489539    61.834042    5484.1998 
 2275000   -204285.73    1.6341419 0.0031977668    61.728409    5497.7343 
 2280000   -204299.29    1.6337553 -0.00061249891    61.759798      5511.28 
 2285000   -204279.66    1.6281254 0.0033433818    61.692757    5524.8549 
 2290000   -204332.73    1.5961639 -0.0029991323    61.671962    5538.4008 
 2295000   -204289.64    1.6376408 -0.0021653117    61.744506    5551.9658 
 2300000    -204285.2    1.6099951 -0.0022005269    61.742818     5565.517 
 2305000   -204497.67     1.638754 -0.0020498396     61.68323    5579.0552 
 2310000   -204474.73    1.6592372 0.0014925366    61.609075    5592.5881 
 2315000   -204412.18    1.6389174 -0.0011573707    61.684783    5606.1393 
 2320000   -204650.69    1.5977138 0.00012832152    61.651995     5619.656 
 2325000   -204454.13     1.679385 -0.00011407378    61.702891    5633.2119 
 2330000   -204443.83     1.656644 0.0045034223    61.698197    5646.7726 
 2335000   -204552.12    1.6440858 -0.00018044375    61.692747     5660.312 
 2340000   -204561.22    1.6502062  0.004060314    61.578983    5673.9035 
 2345000   -204407.15    1.6311906 0.0043535563    61.587871    5687.4998 
 2350000   -204541.48    1.6585345 -0.0014395929     61.67727    5701.0612 
 2355000   -204391.59    1.6623331 0.0030345173     61.66066     5714.666 
 2360000    -204390.5    1.6453885 -0.0036467467    61.760946    5728.1841 
 2365000   -204316.54     1.690342 -0.00010046244    61.777049    5741.7401 
 2370000   -204317.91    1.6986027 -0.0013317536    61.809483    5755.2887 
 2375000   -204357.65    1.6550094 0.0052116807    61.693892    5768.8474 
 2380000   -204415.67    1.6044734 -0.0037630433    61.749652     5782.411 
 2385000   -204352.59    1.6689292 -0.00094136358    61.767771    5795.9776 
 2390000   -204484.88    1.6291794 0.0010222133    61.700976    5809.5452 
 2395000   -204279.09    1.6413506 0.0039784876    61.730536    5823.0986 
 2400000    -204330.6    1.6709929 -0.0025333071    61.787128    5836.6541 
 2405000   -204454.53    1.6383915 0.0027074369    61.716453    5850.2079 
 2410000   -204504.99    1.6470482 -0.0024239973    61.791768    5863.7578 
 2415000    -204334.4     1.653435 0.0025888422    61.663988    5877.2882 
 2420000   -204585.22    1.6370414 -0.0030178771    61.628982    5890.8317 
 2425000   -204461.84    1.6398939 0.0011970999    61.653557    5904.3964 
 2430000   -204435.02    1.6837975 -0.00013876559    61.656263     5917.965 
 2435000   -204496.21     1.633684 0.0012287837    61.641618    5931.5422 
 2440000   -204404.11    1.6370261 -0.0030975961    61.730615    5945.1101 
 2445000   -204351.14     1.656616 -0.0024538035    61.775415    5958.6899 
 2450000    -204300.8     1.714452 0.00052463297     61.70062    5972.2384 
 2455000   -204590.07    1.6433335 0.00027217622    61.588814    5985.8399 
 2460000   -204315.88    1.6012347 -0.0052965273    61.744122    5999.4563 
 2465000   -204359.84    1.6294884 0.0018160027    61.655919    6013.0332 
 2470000   -204270.44    1.6568793 -0.0031341132    61.749377    6026.5942 
 2475000   -204656.11    1.6450008 1.0141741e-05    61.651517    6040.1632 
 2480000   -204422.03    1.6534244 -0.00029792732    61.659511    6053.7172 
 2485000    -204355.7    1.6541005 6.4409216e-05    61.655414    6067.2893 
 2490000   -204177.52    1.5984301 -0.0014421285     61.72826    6080.8485 
 2495000   -204387.75    1.6687889 0.0085409422    61.596531     6094.425 
 2500000   -204419.04    1.6237819 0.0037583053    61.655287    6107.9596 
 2505000   -204274.97    1.6306227 0.0011268996    61.740412    6121.5136 
 2510000   -204251.84    1.6262067 -0.0031094629     61.75203    6135.0933 
 2515000   -204546.24    1.5611223  0.002086917    61.606494    6148.7024 
 2520000   -204525.74    1.6575513 -0.005935998     61.68751    6162.2737 
 2525000   -204367.17    1.6275427  0.005492063    61.608303    6175.8718 
 2530000   -204363.08    1.6729483 -0.0013106696    61.714063    6189.4399 
 2535000   -204166.38    1.6438838 -0.0034407709    61.860224    6203.0172 
 2540000   -204258.04    1.6416947 -7.1239545e-05     61.76778    6216.5114 
 2545000   -204506.92    1.6465492 -0.0053033874    61.749731    6230.0446 
 2550000   -204255.15      1.69681 -0.0034853378    61.761096    6243.6184 
 2555000   -204416.95    1.6241907 -0.0048004169    61.788205     6257.158 
 2560000   -204452.72    1.6476406 -0.0026892803    61.729538    6270.7199 
 2565000   -204295.52    1.6319109 -0.003678224    61.803503    6284.2325 
 2570000   -204418.82    1.6450801  0.000818234    61.648313    6297.8281 
 2575000    -204518.3    1.6479192 0.0027372841    61.627265     6311.403 
 2580000   -204537.08    1.5971898 -0.0016501156    61.703561    6324.9796 
 2585000    -204524.1    1.6401884  0.001944804    61.629256    6338.5868 
 2590000   -204476.42    1.6145209 -0.0034247079    61.724508    6352.1725 
 2595000   -204468.31    1.5876325 -0.00098717395     61.67334     6365.714 
 2600000   -204511.08    1.6123778 -8.7567724e-05     61.62207    6379.2977 
 2605000   -204386.44    1.6336035 -0.0025470994    61.696131    6392.9022 
 2610000   -204381.43    1.6535711 -0.0028784181    61.660154    6406.4474 
 2615000   -204457.12     1.671631   0.00187917    61.635574    6420.0359 
 2620000   -204310.17    1.6411975 0.0025065416    61.634993    6433.6111 
 2625000   -204591.98    1.6457182 -0.0042353451     61.64858    6447.1662 
 2630000   -204539.77    1.6597921 0.0048300831    61.543163    6460.7391 
 2635000   -204444.14     1.621764 -0.0037989766    61.665381    6474.3097 
 2640000   -204454.66    1.6189312 -0.002399505    61.658006    6487.8666 
 2645000   -204517.27    1.6536533 -0.0010127782    61.630812    6501.4186 
 2650000   -204664.43    1.6364685 -0.0011446771    61.566498    6515.0057 
 2655000    -204756.2    1.6110409 -0.0025178144    61.596427     6528.572 
 2660000   -204564.23    1.6754918 0.00098191578    61.588482    6542.1523 
 2665000   -204554.05    1.6017068 0.00028006965    61.618562    6555.6799 
 2670000   -204422.93    1.6304267 0.0045422292    61.634037     6569.238 
 2675000   -204232.17    1.6415549 -0.0033688117    61.791723    6582.8325 
 2680000   -204303.97    1.6294391 0.0023300609    61.655045     6596.355 
 2685000   -204351.21    1.6262588 -0.0040643453     61.72127    6609.9417 
 2690000   -204390.49    1.6588997 -0.0030586249    61.661125    6623.5099 
 2695000   -204240.82    1.6310797  0.002803306    61.713217    6637.0561 
 2700000   -204332.28    1.6172041 -0.0050495737    61.793727    6650.6531 
 2705000   -204291.93    1.6839277 0.0037723154    61.693165    6664.1798 
 2710000   -204472.95    1.6149735 -0.00097314077    61.668291    6677.7461 
 2715000   -204253.59    1.6162733 0.00049589069    61.717312    6691.3026 
 2720000   -204409.89    1.6907729 0.0038746429    61.680914    6704.8395 
 2725000   -204250.23     1.637718 0.0024429742    61.742125    6718.3816 
 2730000   -204183.42     1.622486 -0.006539249     61.77883    6731.9391 
 2735000   -204455.17    1.6430296 2.0876018e-05    61.673865    6745.5424 
 2740000   -204447.11      1.62897 0.0029489742    61.631956    6759.0942 
 2745000   -204547.78    1.6940158 -0.0019890745    61.606895    6772.7028 
 2750000   -204447.45    1.6501633 0.0013005991    61.669111    6786.2852 
 2755000   -204502.37    1.6460011 0.00073729501    61.693379    6799.8742 
 2760000   -204496.36    1.5985069 0.0043125864    61.585298    6813.4897 
 2765000   -204447.27    1.6495425 0.0011102983    61.612045    6827.0763 
 2770000   -204570.53    1.6670534 -0.0017564019    61.695983    6840.6274 
 2775000   -204304.44    1.6294289 -0.0011574089    61.758373    6854.1964 
 2780000   -204187.31    1.6636096 -0.0033240159    61.847209    6867.7272 
 2785000   -204285.78    1.6609143 -0.00044240392    61.834852    6881.2411 
 2790000   -204204.58     1.646533 -0.0026185705    61.792298    6894.7524 
 2795000   -204446.59    1.5905191  0.005381911    61.657609     6908.289 
 2800000   -204339.84    1.6324115 0.0040514671    61.623275    6921.8465 
 2805000   -204368.22    1.6393932 0.0058410526    61.605226    6935.3976 
 2810000   -204516.57    1.6772304 0.00053192595    61.653896    6948.9732 
 2815000   -204573.65    1.6089541 0.0046448296    61.585238      6962.55 
 2820000   -204447.65     1.633436 -0.00038913468     61.66875    6976.1289 
 2825000   -204479.47    1.6309029 -0.0040476195    61.655614    6989.7088 
 2830000   -204603.82    1.6424339 0.0024751238    61.575548    7003.2765 
 2835000   -204652.96    1.6802779  0.005275538    61.546282    7016.8641 
 2840000   -204786.04    1.6731653 -0.0015022529    61.564543    7030.4456 
 2845000   -204506.34    1.6283513 -2.9656341e-05    61.672153    7044.0395 
 2850000    -204527.8     1.623605 -0.005859161    61.663563    7057.6184 
 2855000   -204475.99    1.5910405 0.0068297636    61.540732    7071.2311 
 2860000   -204621.49      1.64603 0.0053020973    61.547349    7084.8195 
 2865000    -204615.6    1.6474454 -0.005235339    61.631981    7098.4413 
 2870000   -204520.23    1.6686385 0.0014728706    61.575258    7112.0154 
 2875000   -204439.48      1.62225 -0.00097831186     61.67167    7125.5732 
 2880000   -204666.46    1.6239077 -0.0013051469    61.621796    7139.1204 
 2885000   -204291.42    1.6418863 -0.0051398145    61.769772    7152.6953 
 2890000   -204355.38    1.6692141 -0.00084171447    61.706916    7166.2389 
 2895000   -204634.24    1.6493838 -0.00024186755    61.550691    7179.8207 
 2900000   -204786.22    1.6393758 0.0022281923    61.515977    7193.4122 
 2905000   -204553.13    1.5974169 0.0012808898    61.554788    7206.9953 
 2910000   -204382.94    1.6054252 0.00031258606    61.629725    7220.5756 
 2915000   -204607.98    1.6113235 -0.0038365044    61.624605     7234.178 
 2920000   -204484.33    1.6364333 0.0024579092    61.591643    7247.7847 
 2925000    -204558.2    1.6815981    0.0017042    61.600186      7261.37 
 2930000   -204720.34    1.6545395 0.0031046565    61.490634    7274.9722 
 2935000   -204471.55    1.5938448 -0.0016440615    61.598852    7288.5587 
 2940000   -204639.38    1.6451444 -0.0042224017    61.609648    7302.1486 
 2945000   -204523.81    1.6464717 0.0025177293    61.530363    7315.7318 
 2950000    -204540.1    1.6588524 -0.00015474236    61.593773    7329.3482 
 2955000   -204563.81     1.622059 4.6084905e-05    61.652146    7342.9579 
 2960000   -204420.09    1.6387905 -9.8316314e-05    61.638267    7356.5405 
 2965000   -204454.86    1.6218498 -0.0086992792     61.76065    7370.1196 
 2970000   -204506.71    1.6626564 0.00057270436    61.655494    7383.7629 
 2975000   -204559.56    1.6372686 0.0015513215    61.605526     7397.386 
 2980000   -204666.79    1.6431818 -0.0016082304    61.587521    7410.9836 
 2985000   -204581.41     1.619743 0.0018338772    61.587732    7424.6108 
 2990000   -204811.12    1.6736323 -0.00013871882    61.515438    7438.2654 
 2995000   -204495.86    1.6241551 0.0033815082    61.612141    7451.8787 
 3000000   -204668.11    1.6486546 -0.0034548388    61.642204    7465.4936 
 3005000   -204576.48    1.6787431 0.0043393604    61.564654    7479.0867 
 3010000   -204424.56    1.6256602 -0.0026045497    61.598958    7492.6859 
 3015000   -204672.02    1.6337784 0.0074132014    61.474139    7506.2903 
 3020000    -204443.3    1.6429813 0.0024587705    61.643313    7519.9203 
 3025000   -204316.32    1.6677902 0.0044783278    61.655325    7533.5092 
 3030000   -204316.96    1.6217214 -0.0070857512    61.813643    7547.0723 
 3035000   -204639.48    1.6589105 -0.00025950709    61.599246     7560.641 
 3040000   -204547.76    1.6595443 0.00014043156    61.666507    7574.2278 
 3045000   -204761.16    1.6323969 -0.0031121879    61.601677    7587.8018 
 3050000   -204433.01    1.6975392 -0.00046313566    61.676017    7601.3837 
 3055000   -204621.92    1.6390696 0.00070822994    61.546849    7614.9615 
 3060000   -204474.56    1.6987501 0.0034265115    61.633149    7628.5166 
 3065000   -204415.13    1.6214512 -0.0057923975    61.726678    7642.1153 
 3070000   -204354.17    1.6215957 -0.0038441894    61.693134     7655.683 
 3075000   -204537.97    1.6050053 0.0017961436    61.556077    7669.2566 
 3080000   -204391.12     1.601797 0.0005196701    61.609384    7682.8115 
 3085000   -204659.14    1.6491896 0.0010591483    61.582737    7696.4024 
 3090000   -204428.92    1.6146951 0.0025096607    61.590618     7710.002 
 3095000   -204524.04    1.6221708 -0.0020161294    61.611939    7723.5647 
 3100000   -204515.54    1.7021373 0.0030145766    61.637936    7737.1365 
 3105000    -204694.1     1.645107 0.00081651818    61.599305    7750.7773 
 3110000   -204676.94    1.6748879 0.00077709434    61.587162    7764.3909 
 3115000   -204511.88    1.6246719 0.00066847029     61.65005    7777.9946 
 3120000   -204569.51    1.6299165 -0.0047087625    61.621411    7791.5599 
 3125000    -204813.1    1.6180584 -0.0016080994    61.529525    7805.1514 
 3130000   -204722.88    1.6597748 -0.00094232578    61.589056    7818.7628 
 3135000   -204640.54    1.6656358 -0.0023113085    61.639395    7832.3886 
 3140000    -204582.3    1.6266154 -0.0031271001    61.593349    7845.9837 
 3145000   -204530.58    1.6009254 0.0013764385    61.594407    7859.6356 
 3150000   -204697.88    1.6253624 -6.1673221e-05    61.582853     7873.199 
 3155000   -204553.85    1.6371231 0.0047908201    61.511204    7886.7811 
 3160000   -204629.84    1.6108611 0.0010680544    61.612343    7900.3373 
 3165000   -204452.77    1.5937914 -0.0036789312    61.677708     7913.917 
 3170000   -204515.44    1.6156907 -0.0066081713    61.710581    7927.4774 
 3175000   -204846.59     1.667266 -0.0065467977    61.615636    7941.0602 
 3180000   -204867.67    1.6304371 -0.0003662155    61.511185    7954.6659 
 3185000   -204462.21    1.6767373 0.0012840832    61.620413    7968.2545 
 3190000   -204623.78    1.6724771 0.0064314835    61.545994    7981.8247 
 3195000   -204824.07     1.662897 -0.0056220742    61.602079    7995.4015 
 3200000   -204884.65    1.6280447 0.00054399732    61.511823    8009.0101 
 3205000   -204855.84    1.6350091  0.001151279    61.565557    8022.6182 
 3210000   -204882.86     1.663079 0.0028045143    61.514426    8036.1969 
 3215000   -204608.19    1.6026101 -0.0022541011    61.634238    8049.8151 
 3220000   -204599.72     1.632152 0.00069791277    61.607225    8063.3907 
 3225000   -204573.77      1.66346 -0.0028932522    61.721419    8076.9965 
 3230000   -204611.75    1.6338114 0.0046869682    61.566621    8090.5749 
 3235000   -204621.47    1.6849315 -0.0092837668     61.71731    8104.1824 
 3240000   -204589.31    1.6420841 -0.0078508009    61.654135    8117.7795 
 3245000   -204634.28    1.6678968 -0.0033960888     61.61134    8131.3905 
 3250000   -204746.25    1.6469345 0.0044139615    61.576513    8145.0103 
 3255000   -204635.93    1.6501059 -0.0058080036    61.635581    8158.5754 
 3260000   -204614.12    1.6024047 -0.0031244589    61.687727    8172.1856 
 3265000   -204648.28    1.5985725 0.0027969463    61.537072      8185.76 
 3270000   -204705.83    1.6383345 -0.0031034514    61.595341    8199.3515 
 3275000   -204471.65    1.6181581 0.0034174395    61.607472    8212.9102 
 3280000   -204591.85     1.605999 0.0017807535    61.609955    8226.4584 
 3285000   -204494.96    1.6249193 0.0011104174    61.593597    8240.0135 
 3290000   -204694.72    1.6301248 -0.0030897733    61.616406    8253.5788 
 3295000   -204654.21    1.6664976 0.00095055813    61.570818    8267.1572 
 3300000    -204789.9    1.6820847 0.0017633364    61.496807    8280.7433 
 3305000   -204647.61    1.6142161 -0.0046311437    61.656412    8294.3018 
 3310000   -204775.58    1.6983784 0.0058111477    61.463379    8307.8942 
 3315000   -204732.14    1.6754594 -0.0026039465    61.610479    8321.4502 
 3320000   -204479.22    1.6657207 -0.0060390874    61.691805    8335.0193 
 3325000   -204381.09    1.7038053 0.00062946931    61.688252    8348.5722 
 3330000   -204365.82    1.6589844 0.0084077278     61.60704    8362.1525 
 3335000   -204349.16    1.7038346 -0.00037152646    61.775569    8375.7129 
 3340000   -204372.67    1.6427278 -0.0014005655    61.749389    8389.2538 
 3345000   -204411.17    1.6754476 -0.0033951144    61.713237    8402.8112 
 3350000   -204529.51    1.6151193 -0.0013806243    61.654981    8416.4059 
 3355000   -204539.75    1.6620743 -0.00030335372    61.653203    8429.9612 
 3360000   -204601.41    1.5901477 0.0048446689    61.599193    8443.5661 
 3365000   -204481.12    1.6667946 0.0010322389    61.652498     8457.106 
 3370000   -204575.53    1.6703146 0.0015256224    61.613717    8470.6777 
 3375000   -204445.88    1.6442158 0.0012822236    61.616767     8484.282 
 3380000   -204637.25     1.646142 -0.004012982    61.601936    8497.8541 
 3385000   -204498.26    1.6969126 0.0050521321    61.506089    8511.4541 
 3390000   -204738.73    1.6782215 -0.002637802    61.625002    8525.0501 
 3395000   -204452.92    1.5748155 -0.0061506654    61.733893    8538.5935 
 3400000   -204415.65    1.6512054  0.003959988     61.60095    8552.1756 
 3405000    -204437.2    1.6468117 0.00068908447    61.607478    8565.7793 
 3410000   -204407.01    1.6394429 0.0020346617    61.633215    8579.3598 
 3415000    -204307.3    1.6130515 -1.2444909e-06    61.742756     8592.946 
 3420000   -204338.82    1.5680033 -0.007255672    61.753661    8606.5029 
 3425000   -204406.57    1.6331573 0.0030320039      61.6554     8620.089 
 3430000   -204459.85    1.6068439 0.00019364595     61.61256    8633.6234 
 3435000   -204635.13     1.661109 0.0039615853    61.553887    8647.1979 
 3440000   -204412.58    1.6425498 -0.0053048194    61.686122    8660.7917 
 3445000   -204509.06    1.6180074 -0.0013363042     61.64408     8674.332 
 3450000   -204696.11     1.614493 -0.0018520364    61.602007    8687.9285 
 3455000   -204503.23    1.6237471 -0.0017865844    61.644332    8701.5216 
 3460000    -204726.8    1.6850575 0.0046564779    61.558421    8715.0758 
 3465000   -204670.24    1.6186201 0.0046079917    61.626658    8728.6446 
 3470000   -204336.63    1.6081006 -0.00055210112    61.724798    8742.2224 
 3475000      -204522    1.6832922 0.0035622165    61.639825    8755.7625 
 3480000   -204595.91      1.64631 -0.0079744257    61.744891    8769.3471 
 3485000   -204471.59    1.6947278 -0.0023240324    61.672191    8782.9507 
 3490000   -204508.92    1.6506434 0.0032899236    61.622455     8796.461 
 3495000   -204792.08    1.6557769 -0.0034303823    61.590836    8810.0748 
 3500000   -204796.99    1.7089187 -0.0004769607    61.581588    8823.6786 
 3505000   -204731.11    1.6201885 0.0014453654    61.543893    8837.2681 
 3510000   -204656.96    1.6585277 -0.0040629922    61.644013    8850.8859 
 3515000   -204815.25    1.6287468 0.00092095559    61.524596    8864.4913 
 3520000   -204533.05    1.6714489 -0.0048188628    61.708835    8878.1182 
 3525000   -204758.21    1.6625824 0.00039139582    61.616944    8891.6852 
 3530000   -204851.49    1.6157214 -0.0014196496    61.583998    8905.2651 
 3535000   -204883.95    1.6281654 0.00036128605    61.487728    8918.8804 
 3540000   -204808.26    1.6250786 0.0030305953    61.504253    8932.4849 
 3545000   -204731.75    1.6240877 -0.0055937755    61.586242    8946.1436 
 3550000   -204636.11    1.6668397  0.001684317    61.557186    8959.7518 
 3555000   -204644.22    1.6250164 0.0007329037    61.618772     8973.354 
 3560000   -204589.27    1.6419204 0.0039569052    61.565296    8986.9065 
 3565000   -204630.39    1.6428273 -0.0015283701    61.584499    9000.5336 
 3570000   -204694.19    1.6401831 -0.0088806441    61.663714    9014.0914 
 3575000   -204441.51    1.6489481 -0.0028696964    61.700216    9027.6683 
 3580000   -204657.64    1.6532106 -0.00075109558    61.542572    9041.2481 
 3585000    -204648.7    1.6396648 0.00087900446    61.560557     9054.834 
 3590000   -204472.31    1.6051226 0.00042485472    61.597766    9068.4467 
 3595000    -204571.8    1.6182755 -0.0039834102    61.663862    9082.0461 
 3600000   -204573.52    1.6293542 -0.0016564742     61.56762    9095.6107 
 3605000   -204573.69    1.6640096 0.0048297767    61.507557    9109.1655 
 3610000   -204337.44    1.6202181 0.0026946171    61.648155    9122.7436 
 3615000   -204324.74    1.6246698 -0.0023897879    61.670868    9136.3029 
 3620000   -204590.88    1.6210663  0.006289917    61.527226     9149.912 
 3625000   -204497.14    1.6546767 -0.0013911988    61.629055    9163.4784 
 3630000   -204638.35    1.6405457  0.001008567    61.609739    9177.0595 
 3635000   -204607.39    1.6426019 -0.0032060456    61.643883    9190.6078 
 3640000   -204468.74    1.6385186 0.0024484139    61.603941    9204.1963 
 3645000   -204695.98    1.5933625 -0.0013618517    61.634301    9217.7823 
 3650000   -204789.82    1.6131856 0.0039040851    61.481793    9231.4117 
 3655000    -204854.5     1.654151 0.0075429938    61.476747    9244.9737 
 3660000   -204679.35    1.6133286 0.0051728466    61.498029    9258.5638 
 3665000   -204558.91    1.6102404 -0.0079230483    61.736755    9272.1462 
 3670000   -204541.41    1.6523673 -0.0016131114    61.646237    9285.7183 
 3675000   -204598.11    1.6634124 1.2647665e-05    61.572531    9299.2634 
 3680000   -204657.61    1.5806474 -0.0031614464    61.632509    9312.8766 
 3685000   -204786.96    1.6601276 0.0011904298    61.550948    9326.4525 
 3690000   -204571.73    1.6732927 -0.00060268054    61.651555    9340.0662 
 3695000   -204575.98     1.604827 -0.0031417309     61.67688    9353.6302 
 3700000   -204720.06    1.6143254 -0.0049711912    61.635114    9367.2512 
 3705000   -204542.49     1.588357 -0.0001222031    61.566683    9380.8668 
 3710000   -204566.15    1.6150942 -0.0027843137      61.6564    9394.4815 
 3715000   -204645.62    1.6259339  0.004489493    61.555919    9408.0587 
 3720000   -204549.05    1.5975533 -0.0068443342    61.710991    9421.6712 
 3725000   -204542.14    1.6602237 0.0024390814    61.633354     9435.253 
 3730000   -204561.18    1.6729683 -0.0014062368    61.633086    9448.8072 
 3735000   -204666.48     1.650136 -0.0083540196    61.730852    9462.3688 
 3740000   -204707.55    1.6332912 0.0068009596    61.512495    9475.9868 
 3745000   -204739.48    1.6341727 0.0091414567    61.485785    9489.6094 
 3750000   -204580.56    1.6400137 -0.00065184964    61.635532    9503.2189 
 3755000   -204630.24    1.6546501 0.0023367168    61.601316    9516.7799 
 3760000   -204678.72    1.6677026  0.002315476    61.564766    9530.4001 
 3765000   -204680.99     1.618326 -0.0025136892    61.606505    9544.0036 
 3770000   -204789.67    1.6670147 0.0063526767    61.484415    9557.5877 
 3775000   -204763.97    1.6604569 0.0064690794    61.487818    9571.2081 
 3780000   -204561.98    1.6203867  0.003216747     61.53149    9584.8053 
 3785000   -204687.28    1.6606368 0.0021162628    61.528938    9598.4296 
 3790000   -204650.18     1.667532 -0.0017545234      61.6127    9612.0388 
 3795000   -204598.39    1.6711084 -0.00072076999    61.654449     9625.601 
 3800000   -204720.67    1.6824471 -0.0030931293    61.609621    9639.2058 
 3805000   -204817.42    1.6528803 -0.002970361    61.558206    9652.8563 
 3810000   -204676.15    1.6167667 -0.0029743528    61.606599    9666.4535 
 3815000   -204776.31    1.6440028 0.00062894327    61.534672    9680.0784 
 3820000   -204710.23    1.6140022 0.0004613103    61.513688    9693.6619 
 3825000   -204466.15    1.6497065 0.00035235187    61.582174    9707.2576 
 3830000   -204581.34    1.7068571 -0.0016219688    61.604362    9720.8695 
 3835000   -204417.49     1.625866 -0.0026414659    61.727808    9734.4752 
 3840000   -204568.23    1.6419149 -0.0036274706    61.694217    9748.0562 
 3845000   -204408.11    1.6385659 0.0066472529    61.586166    9761.6689 
 3850000   -204394.19     1.633981 0.0049752073     61.61079    9775.2463 
 3855000   -204411.79    1.6185793 -0.00028062413    61.655243     9788.817 
 3860000   -204414.06    1.6504041 0.0009264304    61.669235    9802.3924 
 3865000   -204421.02    1.6267923 -0.0061169224    61.730584     9815.974 
 3870000   -204448.16    1.6168848 -0.00024255547    61.687083     9829.535 
 3875000   -204503.92    1.6379862 0.0032586825    61.626638     9843.093 
 3880000   -204334.36    1.6497095 -0.0026558593    61.729332     9856.683 
 3885000   -204367.71    1.6344794  -0.00265982    61.699145    9870.2319 
 3890000   -204494.14    1.6476132 0.0047281684    61.608654    9883.8106 
 3895000   -204316.24    1.6215539 -0.011328862    61.828107    9897.3844 
 3900000   -204450.66    1.5936358 -0.001379331    61.692349    9910.9598 
 3905000   -204452.74    1.5805954 0.0038423072    61.628789    9924.5255 
 3910000   -204561.27    1.6135867 5.9859163e-05    61.652098     9938.103 
 3915000   -204690.32    1.6425794 -0.0047440024    61.654973    9951.6779 
 3920000   -204537.29    1.6042633 0.0058281995    61.547624    9965.2556 
 3925000   -204522.03    1.6309163 0.0020227172    61.546961    9978.8644 
 3930000   -204527.98    1.6744107 -0.0046644874     61.67905    9992.4669 
 3935000   -204435.56    1.6257199 -0.00064716402    61.718526    10006.036 
 3940000   -204302.96    1.6294313 -0.0011110395    61.673837    10019.619 
 3945000   -204291.83    1.6281817 -0.0034353006    61.675381    10033.218 
 3950000   -204510.33    1.6252602 0.0011957593    61.638666    10046.791 
 3955000   -204393.43    1.6444855 0.0061948916    61.567767     10060.35 
 3960000   -204449.24    1.6473366 -0.0023182787    61.634789    10073.919 
 3965000   -204336.98    1.6710786 -0.0051444486    61.761313    10087.508 
 3970000   -204299.78     1.617406 -0.0028395078    61.751099     10101.07 
 3975000      -204087    1.6697352 -0.00060684487    61.791909    10114.603 
 3980000   -204061.43    1.6066864 -0.00087484078    61.696819    10128.124 
 3985000   -204347.75    1.6454711 -0.0004155524    61.636164    10141.682 
 3990000   -204423.98    1.6202655 0.00018684207    61.694462    10155.258 
 3995000   -204395.05    1.6310047 -0.0044911169    61.718022    10168.824 
 4000000   -204362.84    1.6414594 -0.0012016117    61.714724    10182.393 
 4005000   -204422.73    1.6410897 0.00055159597    61.672286    10195.951 
 4010000   -204177.14     1.618746 -0.0041699697    61.796732    10209.504 
 4015000   -204495.67    1.6671488 0.00096837997    61.677482    10223.054 
 4020000   -204297.88    1.5853824 0.0013438708    61.742788    10236.582 
 4025000   -204380.07    1.6535436 -0.0055169187    61.859068    10250.099 
 4030000   -204323.55    1.6536699 0.0026557141    61.669764    10263.621 
 4035000   -204512.32    1.6490169 0.0019206768    61.653238    10277.201 
 4040000    -204445.5    1.6538675 -0.0045854564    61.726453    10290.805 
 4045000    -204591.1    1.6150796 0.0037993803     61.60392    10304.347 
 4050000   -204485.28    1.6351857 0.0010929219     61.58896    10317.908 
 4055000   -204355.08    1.6430463   0.00110034    61.665048    10331.503 
 4060000   -204550.29     1.693354 0.0017524887    61.604973    10345.051 
 4065000   -204304.35    1.6216535 -0.0030406727    61.739109    10358.606 
 4070000   -204334.83    1.6622756 -0.0071114356    61.814477    10372.157 
 4075000   -204370.52    1.6129541 -0.0050252124    61.779451    10385.691 
 4080000   -204424.89    1.6459336 -0.00063305305    61.677256    10399.261 
 4085000   -204570.78    1.6397957 -0.0013453286    61.628698    10412.799 
 4090000   -204466.03    1.5892983 -0.0049092795    61.704077    10426.377 
 4095000   -204507.68    1.6792807 -0.0045739206    61.734953    10439.916 
 4100000   -204734.07    1.6430965 -0.0031532019    61.610065    10453.522 
 4105000   -204592.01     1.691591 0.0032490416    61.583628    10467.136 
 4110000   -204639.93    1.6351474 0.0051712631    61.572618    10480.733 
 4115000   -204557.63    1.6136763 0.0014268555    61.625203    10494.318 
 4120000   -204580.62    1.6921006  0.003274714     61.64567     10507.94 
 4125000   -204614.81    1.6677105 0.0022403732    61.603693    10521.545 
 4130000   -204799.52    1.6999858 0.0017687295    61.562444    10535.087 
 4135000   -204557.53    1.6548124 -0.0010961729    61.646716      10548.7 
 4140000   -204908.92    1.6444536 -0.0035641263    61.552149    10562.275 
 4145000   -204864.43    1.6515269 0.0026049482    61.491869    10575.881 
 4150000   -204781.11    1.6365483 -0.0016025365    61.533132    10589.475 
 4155000   -204786.75     1.697615  0.007874179    61.390272    10603.109 
 4160000   -204832.03    1.6277414 -0.0081716522    61.599869    10616.712 
 4165000   -204857.75    1.6519303 0.0055609129     61.46735    10630.326 
 4170000   -204698.96    1.6613925 -0.0033789843    61.618638    10643.905 
 4175000   -204690.42    1.6756317 -0.0002561522    61.567897    10657.493 
 4180000   -204614.26    1.6547762 -0.0017636981     61.61191    10671.089 
 4185000   -204638.09    1.6226433 -0.0020552401    61.580896    10684.689 
 4190000   -204647.26    1.6310488 0.0028712594    61.603921    10698.314 
 4195000   -204748.21    1.6720149 -0.00080565784     61.56263    10711.905 
 4200000    -204694.5    1.6778948 -0.0034111263    61.628224    10725.531 
 4205000   -204849.74    1.6212967 -0.00091070086    61.549675    10739.136 
 4210000   -204607.59    1.6091639 -0.0024266718    61.593956    10752.736 
 4215000   -204589.83    1.6337704 -0.0016688303    61.657168    10766.289 
 4220000   -204547.23    1.6707584 -0.0050402381     61.68868    10779.856 
 4225000   -204663.88    1.6797591 -0.0021836867    61.596188    10793.408 
 4230000   -204539.48    1.6234727 0.0023313175    61.569802    10807.036 
 4235000   -204458.09    1.6390646 0.00080293788    61.615049     10820.61 
 4240000   -204603.11    1.6100325 0.0017849284    61.596141    10834.163 
 4245000   -204697.53    1.6279055 -0.0067156825    61.731973     10847.78 
 4250000   -204508.09    1.6519776 -0.0047767196    61.690371    10861.335 
 4255000    -204802.7    1.6405395 -0.0021640685    61.623882    10874.948 
 4260000   -204490.78     1.656457 0.0051356943    61.583588    10888.534 
 4265000   -204597.42    1.6475737 0.0039360014     61.56545    10902.128 
 4270000   -204523.59    1.6759398 -0.0028204159     61.65081    10915.782 
 4275000   -204499.19    1.7173271 0.0040443531    61.596513    10929.432 
 4280000   -204625.56    1.6021663 -0.0021266589    61.582986    10943.045 
 4285000   -204626.65    1.6245604 -0.001923678     61.58435    10956.666 
 4290000    -204527.6    1.6263879 -0.0019427138    61.670853    10970.286 
 4295000   -204561.02    1.5989277 -0.0014866944    61.701007    10983.881 
 4300000   -204405.29    1.5813523 -0.0018639886     61.72952    10997.482 
 4305000   -204497.79    1.6401625 -0.00061010852    61.770442    11011.045 
 4310000   -204355.37    1.6840955 0.0037378153    61.671904      11024.6 
 4315000   -204583.29    1.6379343 -0.0051647547    61.684713    11038.184 
 4320000   -204471.66     1.604008 0.00020775015    61.602671    11051.778 
 4325000   -204437.64    1.6096112 -0.00069990977    61.607558    11065.361 
 4330000   -204437.54    1.6532728 -0.0033483228    61.713109    11078.924 
 4335000   -204620.74       1.6481 -0.0026129459     61.66711    11092.481 
 4340000    -204590.8    1.6342881 0.0022921881    61.603751     11106.07 
 4345000   -204481.42    1.5946923 -0.004995264    61.736529    11119.652 
 4350000   -204613.43    1.6240328 -0.0051431118     61.68093    11133.218 
 4355000   -204479.93    1.6576639 0.0020434718    61.670447    11146.822 
 4360000   -204587.88    1.6601862 -0.0020312542     61.69687    11160.377 
 4365000   -204645.99    1.7251069  0.002673789    61.620605     11173.95 
 4370000   -204613.85    1.6416498 0.00070211611    61.682668    11187.504 
 4375000   -204506.72    1.6459277 -0.002154145    61.661454    11201.084 
 4380000   -204570.83    1.6172391 -0.0037308331    61.626025    11214.649 
 4385000   -204687.77    1.6262035  0.007651392     61.52959    11228.259 
 4390000   -204712.07    1.6552154 0.0027045311    61.582634    11241.842 
 4395000   -204644.56    1.6725423 0.0045538108    61.595381    11255.407 
 4400000   -204805.18     1.630319 -3.3828348e-05     61.53365    11268.964 
 4405000   -204651.64    1.6529243 -0.0058135286    61.606336    11282.604 
 4410000   -204675.26    1.6621319 0.0015154713     61.52821    11296.218 
 4415000   -204833.77     1.626016 0.0013976062    61.584274    11309.795 
 4420000   -204601.22    1.6904252 0.00042236918      61.6329    11323.403 
 4425000   -204534.89    1.6363103 -0.0044248522    61.675066    11337.027 
 4430000   -204561.96    1.6617585 0.0016351044    61.619207    11350.604 
 4435000   -204679.23    1.6356882 -0.00024434118    61.623133    11364.189 
 4440000   -204605.98    1.6838057 0.0034263525    61.599582    11377.754 
 4445000   -204617.08    1.6452593 -0.0038657387    61.631405    11391.335 
 4450000   -204677.39    1.6643399 -0.0010772015    61.580007    11404.915 
 4455000   -204711.95    1.6096644 6.4351375e-05    61.584753    11418.498 
 4460000   -204795.98     1.629049 0.00078280092    61.553341    11432.068 
 4465000   -204541.32    1.6955419     0.002614    61.631095    11445.658 
 4470000   -204698.69    1.6304254 -0.0013929968    61.593657    11459.248 
 4475000      -204616    1.6715553 -0.0028012032    61.638461    11472.822 
 4480000   -204593.01    1.6746218 0.0018832092    61.541728    11486.416 
 4485000   -204608.71    1.6319206 -0.00083532373    61.628632    11499.998 
 4490000   -204531.17    1.6119975 -0.0043389095    61.637451    11513.583 
 4495000   -204665.45    1.6705801 0.0054544666    61.542271     11527.14 
 4500000    -204886.1    1.6407874 0.0012496739    61.502341    11540.744 
 4505000   -204792.58    1.6409692 -0.0026660262    61.561212    11554.353 
 4510000   -204638.85    1.6757246 -0.0025854361    61.634142    11567.937 
 4515000   -204412.61    1.6178695 0.0045180949    61.680426    11581.509 
 4520000   -204468.89     1.637192 -0.0013510594    61.703036    11595.112 
 4525000   -204458.16    1.6297695  0.003343822    61.596027    11608.716 
 4530000   -204602.58    1.6510435 -0.0067600601    61.684027    11622.335 
 4535000    -204628.6    1.6396267 -0.0013831649    61.576407    11635.961 
 4540000   -204486.44    1.6052808 0.0048236992    61.541735    11649.562 
 4545000   -204590.86    1.6100421 -0.0019782316    61.569272    11663.174 
 4550000   -204753.79    1.5932523 -0.0031193272    61.498574    11676.822 
 4555000   -204683.06    1.6565867 -0.0043942194    61.592872    11690.466 
 4560000   -204589.43    1.6255456 5.7129596e-05    61.586039    11704.108 
 4565000   -204636.53    1.6508015 -0.0056098497    61.640545    11717.712 
 4570000   -204693.99    1.6994803 -0.0038284709    61.637741    11731.361 
 4575000   -204711.93    1.6603132 0.0011865155    61.556533    11744.953 
 4580000   -204688.99    1.6033179 -0.0016475412    61.576894    11758.562 
 4585000   -204477.63    1.6458952 -0.0029688735     61.69314    11772.114 
 4590000    -204492.1    1.6331362 -0.0029588391    61.688294    11785.705 
 4595000   -204706.08    1.6330056 0.0010027831    61.513713    11799.315 
 4600000   -204594.74    1.6830568 -0.0010055707    61.613665    11812.894 
 4605000   -204456.38    1.6531197 -0.0021821793     61.70525    11826.432 
 4610000   -204226.39    1.6321308  0.007211889    61.656738    11840.015 
 4615000   -204627.83    1.7045085 0.0015288112    61.691925    11853.591 
 4620000   -204392.07     1.668974 -3.7124081e-05    61.704898    11867.128 
 4625000   -204406.04    1.6351881 -0.0010530455    61.678804    11880.672 
 4630000   -204577.92    1.6274933 0.0056565925    61.570787    11894.229 
 4635000   -204588.03    1.6491582 0.0049212048    61.601937    11907.816 
 4640000   -204412.36    1.6490817 -0.0053358413    61.788778    11921.374 
 4645000   -204420.81    1.6421626 -0.0030574249    61.749642    11934.916 
 4650000   -204390.78    1.6384336 0.0057811418    61.651823    11948.471 
 4655000   -204476.93    1.5869074 -0.0018498728    61.737274    11962.005 
 4660000   -204548.16    1.6490441 -0.00097135593    61.719994    11975.562 
 4665000   -204508.21    1.6323424 -0.0027563121    61.713435      11989.1 
 4670000   -204505.85    1.6117085 -0.0029080253    61.706956    12002.621 
 4675000   -204347.29    1.6594254 0.0039841999    61.670071    12016.167 
 4680000   -204560.98     1.623945 0.0018908443    61.633112    12029.708 
 4685000   -204348.55     1.583768 -0.0031563365     61.70046    12043.305 
 4690000   -204669.34    1.6318984 0.0018384508    61.521979    12056.834 
 4695000   -204702.97    1.6629385 -0.00094353561     61.58958    12070.386 
 4700000    -204606.7    1.6155529 0.0012481058    61.569935    12083.973 
 4705000   -204342.01    1.6408459 0.00021812525    61.685128    12097.555 
 4710000   -204463.49    1.6423643 -0.0060546755    61.706312    12111.141 
 4715000   -204689.01    1.6818321 -0.0016022505    61.593276    12124.731 
 4720000   -204701.63    1.6297275 0.0013176153    61.594928    12138.285 
 4725000    -204644.5    1.6193903 0.0019969474    61.581189     12151.87 
 4730000    -204540.4    1.6543317 0.0031344263    61.562827    12165.435 
 4735000   -204547.02    1.6404175 -0.002146401    61.684665    12178.995 
 4740000   -204668.16    1.6264012 0.0020865617    61.529131     12192.59 
 4745000   -204706.92    1.6056382  0.001355984    61.544514    12206.159 
 4750000    -204742.7    1.6367027  0.005470528    61.517225    12219.794 
 4755000   -204606.95    1.6536519 0.0001256755    61.613218    12233.404 
 4760000   -204546.17    1.6237161 0.0020397229    61.623188     12246.99 
 4765000   -204634.62    1.6609912 0.0038860728     61.58947    12260.586 
 4770000   -204620.36    1.5948663 0.0029647665    61.536401     12274.18 
 4775000   -204519.58    1.6404766 0.0032312484    61.603024    12287.806 
 4780000   -204770.07    1.6216964 0.0016020393    61.534192    12301.414 
 4785000   -204600.81    1.5819157 0.0034324493    61.612779    12314.997 
 4790000   -204497.47    1.6551441 0.0028622563    61.611717    12328.555 
 4795000   -204391.56    1.6303744 7.6541078e-06      61.6809    12342.141 
 4800000   -204299.93    1.6466474 0.0026332665    61.744804    12355.695 
 4805000   -204404.45     1.563115 -0.0035037083    61.775609    12369.223 
 4810000   -204568.32    1.6702286 -0.0012818208    61.709489    12382.814 
 4815000   -204469.48    1.5882756 0.0015237069    61.649092    12396.369 
 4820000   -204547.61    1.6426552 -0.0037627901    61.721984    12409.925 
 4825000   -204346.32    1.5957005 0.0015268254    61.669035    12423.506 
 4830000   -204307.57    1.6359443 -0.0009255103    61.713472    12437.088 
 4835000   -204318.96    1.6223476 -0.0013619422    61.658175    12450.621 
 4840000   -204106.42    1.6943711 -0.0051690453     61.76157    12464.147 
 4845000   -204184.57     1.634846 -0.0021604388    61.693039    12477.698 
 4850000   -204244.37    1.6428808 -0.0039028126    61.755269    12491.251 
 4855000   -204350.53    1.6333336 -0.0052510144    61.784997    12504.797 
 4860000   -204381.26    1.6781332 0.00062580323    61.713355    12518.343 
 4865000   -204456.21    1.6000289 -0.00045780712    61.622342    12531.887 
 4870000    -204532.7    1.6751885 0.0062627687     61.53992    12545.461 
 4875000   -204628.64     1.646729 -0.003061232    61.628749    12559.056 
 4880000   -204563.53    1.6472696 0.0076434335     61.51566    12572.628 
 4885000   -204666.95    1.6284983 0.0042488908     61.59139     12586.22 
 4890000   -204614.45    1.6719873 -0.0013831376    61.610814    12599.793 
 4895000   -204531.65    1.6331711 -0.0032261826    61.678745    12613.385 
 4900000   -204404.05    1.6195622 -0.0027770902    61.706465    12626.997 
 4905000   -204502.96    1.6122768 0.0012932878    61.626174    12640.596 
 4910000   -204617.92    1.6301944 -0.0021114859    61.563194    12654.182 
 4915000   -204480.38    1.6051011 0.0025867153    61.564567    12667.769 
 4920000   -204708.15    1.6374741  0.003109537    61.515991    12681.327 
 4925000   -204375.77    1.6149175 -0.0001403611    61.620175    12694.931 
 4930000   -204699.91    1.6296909 0.00031807065    61.552481    12708.518 
 4935000   -204477.16    1.6297881 0.00060177374    61.666755     12722.08 
 4940000   -204739.64    1.6389051 -0.0026624704    61.582022    12735.641 
 4945000   -204649.65    1.6614279 0.0051239137    61.561187    12749.241 
 4950000   -204362.07    1.6320575 0.0018210242    61.648881    12762.815 
 4955000    -204644.7    1.6601507 -0.0063611778    61.658202    12776.379 
 4960000   -204469.46    1.6396065 0.0063567558    61.583822    12789.987 
 4965000   -204471.79    1.6548432 0.00053361556    61.642428    12803.581 
 4970000   -204431.04    1.6287642 0.00044381939    61.655607    12817.169 
 4975000   -204722.06    1.6535335 -0.0028110793    61.582945    12830.771 
 4980000   -204401.67    1.6584955 0.00052817597    61.676472    12844.326 
 4985000   -204668.51    1.5867035 0.0002050376    61.553512    12857.929 
 4990000   -204878.43    1.6384042 -0.0033222335     61.52497    12871.524 
 4995000    -205070.6    1.6177115 -0.0021650725    61.454254    12885.128 
 5000000   -204938.11    1.6528853  0.001847235    61.487011    12898.696 
 5005000   -204715.27    1.6274319 0.0026971867     61.57402    12912.275 
 5010000   -204534.44    1.6285543 -0.0031553208    61.688691    12925.832 
 5015000   -204836.55    1.6339811 0.0033971481    61.511922    12939.403 
 5020000   -204758.71    1.6328753 -0.0054245105    61.633683    12952.995 
 5025000   -204619.15    1.5898237 -0.0037662519    61.717673    12966.628 
 5030000   -204416.51    1.6554273 0.0065539508    61.594461    12980.187 
 5035000   -204643.47     1.659124 -0.00022134058    61.635857    12993.784 
 5040000   -204560.43    1.6167403 0.0076096106    61.539894    13007.366 
 5045000   -204631.76    1.6491256 0.0033105409    61.530956    13020.932 
 5050000   -204747.07    1.6540955 -0.0042452765    61.588331    13034.558 
 5055000    -204746.5    1.6399803 0.0046364142     61.49235    13048.178 
 5060000   -204743.09    1.6032878 -0.00099618384    61.622898    13061.791 
 5065000      -204541    1.6361369 0.0044449589    61.600152    13075.401 
 5070000   -204404.12    1.6373523 0.0035768234    61.644351    13089.016 
 5075000   -204514.13    1.5933363  0.001590005    61.575668    13102.611 
 5080000   -204430.11    1.6526384 -0.00064071692    61.703966    13116.178 
 5085000   -204532.23    1.6585725 0.00096156512    61.660627    13129.752 
 5090000    -204507.2    1.7016018 0.0023979218    61.608892    13143.353 
 5095000   -204634.94    1.6493869 -0.0085754412    61.732569    13156.938 
 5100000   -204538.52    1.6601609  0.007555704    61.557472    13170.519 
 5105000   -204574.37    1.6392829 -0.00056836367    61.602374    13184.123 
 5110000    -204713.3     1.661465 0.0021417744    61.512133    13197.728 
 5115000   -204520.41     1.619906 -0.0071607497    61.736377    13211.297 
 5120000   -204753.29    1.5987695 0.0027996656    61.556991    13224.894 
 5125000   -204788.22    1.6201132 0.00048423559      61.5666    13238.477 
 5130000   -204654.14    1.6099663 0.0011518896    61.564371    13252.093 
 5135000   -204800.73    1.6288812  0.004541593    61.562102    13265.659 
 5140000   -204581.54    1.6343594 -0.005363988    61.656424    13279.227 
 5145000   -204703.54    1.5841003 0.0023652582    61.541255    13292.787 
 5150000   -204621.35    1.6350999 0.0081128074    61.542825    13306.378 
 5155000   -204541.46    1.6462857 -0.001201361    61.635415    13319.974 
 5160000   -204695.22    1.6534334 0.0022729843    61.556486    13333.528 
 5165000   -204587.74    1.6601352 0.0021754579    61.607765    13347.119 
 5170000   -204704.25     1.662218 -0.00059865018     61.62399    13360.697 
 5175000   -204503.18     1.640787 0.0072786054    61.542684    13374.273 
 5180000    -204369.3     1.638006 -0.010075688    61.872523    13387.852 
 5185000   -204595.67    1.7321289 -0.00039843622    61.736226    13401.414 
 5190000   -204488.98    1.6268539 -0.0034005567    61.735327    13414.957 
 5195000   -204515.62    1.6527534 0.0035970669    61.584912    13428.503 
 5200000   -204462.41    1.6469604 -0.0030796216    61.717604    13442.063 
 5205000   -204258.76    1.6259524 0.0069347034    61.593699    13455.623 
 5210000   -204280.15    1.6253254 -0.0054431191    61.753397    13469.186 
 5215000   -204614.28     1.655141 0.0034953215    61.602587    13482.786 
 5220000   -204488.48    1.6534356 0.0017941064    61.673554    13496.394 
 5225000   -204783.77    1.6682155 -0.00099997239    61.652789    13509.966 
 5230000   -204578.29     1.667558 0.0039328798     61.59193    13523.555 
 5235000   -204622.04    1.6158151 0.00073350797    61.634839    13537.155 
 5240000   -204633.62    1.6428958 0.00078659929      61.6219    13550.729 
 5245000   -204471.42    1.6400202 0.0033840008    61.627773    13564.293 
 5250000   -204191.29    1.6159467 -0.0048426633    61.795036    13577.809 
 5255000   -204243.71    1.6542447 -0.00040744609    61.781574    13591.383 
 5260000   -204321.07    1.6178311 0.0019498641    61.733478    13604.943 
 5265000   -204120.39    1.6338191 -0.00076952801    61.805963    13618.467 
 5270000    -204454.1    1.6738567 0.0025408488    61.643151    13632.004 
 5275000   -204297.27    1.6322845 -0.0022665563    61.793503    13645.541 
 5280000    -204404.5    1.6439134 0.0035476559    61.623587    13659.091 
 5285000   -204282.69     1.616666 -0.00072955531    61.755142     13672.65 
 5290000   -204399.09    1.6632687 0.00076008786    61.674555    13686.227 
 5295000   -204635.56    1.6539151 -0.0043733108    61.674834    13699.808 
 5300000   -204668.94    1.6763686 0.0018006206    61.619148    13713.395 
 5305000   -204456.99    1.6159149 -0.0049823393    61.684549    13726.949 
 5310000   -204525.34    1.6534607 0.0021224764    61.648073    13740.573 
 5315000   -204367.28    1.6313391 -0.0018536916    61.739983     13754.14 
 5320000   -204276.95    1.6445122 -0.00020396893    61.668725    13767.713 
 5325000    -204224.1    1.6297969 0.00083124065    61.758761    13781.275 
 5330000   -204455.76    1.6800777 -0.0040631719    61.700022    13794.812 
 5335000   -204402.91    1.6136678 8.635151e-05    61.734648    13808.368 
 5340000   -204409.37    1.6627432 0.00039958157    61.694787    13821.917 
 5345000    -204251.5    1.6020365 -0.0015247342    61.698571    13835.499 
 5350000   -204526.37    1.6490876 0.0022867058    61.565245    13849.036 
 5355000   -204348.72    1.6723188 -0.0024969376    61.756586    13862.616 
 5360000   -204399.15    1.6092723 -0.00025370317    61.707016    13876.155 
 5365000   -204311.67    1.6427159 -0.00041999866    61.734424    13889.659 
 5370000    -204387.5    1.6578065 0.0024010224    61.735985    13903.203 
 5375000   -204240.55    1.6005693 0.00017344919    61.725786     13916.71 
 5380000   -204403.38    1.6651418 0.00098324517    61.703554    13930.257 
 5385000   -204341.83    1.6550605 -0.00023770597     61.71107    13943.794 
 5390000   -204392.89    1.6583856 0.00083129973    61.637243    13957.375 
 5395000   -204571.43    1.6208041 -0.0031376279    61.628677    13970.964 
 5400000   -204349.67    1.6398735 0.0074408692    61.620346    13984.541 
 5405000   -204210.81     1.633532 0.00052808416    61.745435    13998.101 
 5410000   -204424.36    1.6193485 -0.0024255513     61.74754    14011.647 
 5415000   -204506.36    1.6949433 0.0062234989    61.661875    14025.217 
 5420000   -204358.63    1.6316205 0.0011070043    61.762774    14038.753 
 5425000   -204182.96    1.6741639 0.0022856946    61.756912    14052.277 
 5430000   -204200.73    1.6567773 -0.0026331477    61.817268     14065.83 
 5435000   -204270.26    1.6450811 -0.00042227388    61.737994    14079.359 
 5440000   -204351.83    1.6555644 -0.0039236788    61.788807    14092.887 
 5445000   -204318.86    1.6044078 -0.00017402743    61.760076    14106.451 
 5450000   -204336.11    1.6252879 -0.0028170672    61.743914    14119.979 
 5455000   -204322.52    1.6630574 0.0052801859    61.713309    14133.527 
 5460000   -204470.27    1.6815869 -0.00044775009    61.710612    14147.107 
 5465000   -204371.42     1.726533 0.0021754544    61.672508    14160.664 
 5470000    -204310.9     1.637464  0.002584995    61.636455    14174.242 
 5475000   -204368.36     1.656569 6.9827656e-05    61.672299    14187.819 
 5480000   -204482.07    1.6563148 0.0012989563    61.674152    14201.401 
 5485000   -204416.37    1.6053488 -0.0014862614    61.626847    14214.979 
 5490000   -204249.64    1.6390085 -0.0025568056    61.765065    14228.604 
 5495000   -204265.72    1.6323485 -0.0024263567    61.785824    14242.137 
 5500000   -204562.25    1.5894138 0.00084480812    61.632252      14255.7 
 5505000   -204294.57    1.6305266 -0.0013971783    61.737018    14269.243 
 5510000   -204427.47    1.6485132 -0.0062041394    61.766257    14282.824 
 5515000   -204283.37    1.6479002 -0.00066554225    61.741349    14296.413 
 5520000   -204167.34    1.6298832 0.0021860233    61.712834    14309.931 
 5525000   -204410.48    1.6613065 0.0071124207    61.555958    14323.473 
 5530000   -204401.06    1.6674851 0.00095523085    61.680492    14337.037 
 5535000   -204068.57    1.6576525 0.00012020242    61.737117    14350.569 
 5540000   -204238.67    1.6477555 -0.0019863812     61.76602    14364.107 
 5545000   -204448.91    1.6127925 -0.0031006354    61.703983    14377.667 
 5550000   -204379.76    1.6093362  0.005274405    61.702974    14391.203 
 5555000   -204255.75    1.6703038 -0.0039737258    61.875168    14404.758 
 5560000   -204349.85    1.6132803 0.0030695891    61.742792    14418.282 
 5565000   -204243.05    1.6389596 -0.0051591983    61.860902    14431.816 
 5570000   -204453.41    1.6317163 -0.0021052694    61.753961    14445.373 
 5575000   -204177.66    1.5954962 -0.0010535274    61.746263    14458.912 
 5580000    -204192.3    1.5923974 -0.0036298503    61.773868    14472.481 
 5585000   -204100.73    1.6400815 -0.0039237433    61.880073    14485.996 
 5590000   -204131.41    1.6190539 0.0004157458    61.817922    14499.528 
 5595000   -204330.41    1.6199113 -0.0019109407    61.779761    14513.053 
 5600000   -204307.06    1.6646966 0.0032632141    61.752601    14526.595 
 5605000   -204449.22    1.6146675 -0.0040752656    61.787467    14540.156 
 5610000   -204521.78    1.6508998 0.0020534116    61.636604    14553.747 
 5615000   -204349.04    1.6545932   -0.0039935    61.733174    14567.341 
 5620000   -204518.51    1.6591912 0.0044091896    61.616086    14580.948 
 5625000   -204498.55    1.6063192 -0.0037766824    61.651753    14594.531 
 5630000   -204756.26    1.6683104 0.0032768232    61.583874    14608.097 
 5635000   -204724.02    1.7010669 -0.00040912624    61.623864     14621.71 
 5640000   -204529.86    1.6655653 -0.00068803787    61.658247    14635.307 
 5645000   -204593.71    1.6620159 0.0027539478    61.624465     14648.89 
 5650000   -204587.39    1.6513428 -0.00059974915    61.630852    14662.523 
 5655000    -204575.3    1.6581284 -0.0038681224    61.706807    14676.081 
 5660000   -204516.52    1.6678284 0.00020360968    61.689034    14689.679 
 5665000   -204364.23    1.6126482 -0.0042045109    61.752152    14703.238 
 5670000   -204722.34    1.6425928 0.0040016807    61.553947    14716.852 
 5675000   -204568.95    1.6493563 0.00079394666    61.639449    14730.436 
 5680000   -204663.49    1.6530268  0.001700057     61.59849    14744.029 
 5685000   -204765.92    1.6538756 0.0036768164    61.534229    14757.609 
 5690000   -204468.86    1.5921747 -0.00029752426    61.653091      14771.2 
 5695000   -204651.05    1.6194671 0.0034700982    61.572257    14784.754 
 5700000   -204397.44    1.6390537 -0.0027827775    61.711467    14798.332 
 5705000   -204473.55    1.6491177 0.00026831783    61.642791    14811.865 
 5710000   -204514.24    1.6177816 -0.0034071049    61.701217    14825.451 
 5715000   -204354.08    1.6608256 -0.0014799441    61.719459    14839.033 
 5720000   -204446.37    1.6515453 -0.0065885555    61.764063    14852.587 
 5725000   -204302.39    1.6325104 0.00048618554    61.675918    14866.138 
 5730000   -204353.75    1.7157234 -0.00082889678    61.723989    14879.686 
 5735000   -204324.97    1.6459458 -0.0025369951    61.726985    14893.261 
 5740000   -204357.56    1.6284708 0.0021128394    61.692183    14906.814 
 5745000   -204329.34    1.6079144 -0.0011237114    61.749119    14920.407 
 5750000   -204431.48    1.6336591 0.0036930341    61.659233    14933.966 
 5755000      -204455    1.6499562 -0.0011444733    61.734472    14947.514 
 5760000    -204075.4    1.6428922 0.0039560419    61.759476    14961.095 
 5765000   -204168.24    1.6011452 -0.0051836287    61.853914    14974.675 
 5770000    -204235.8     1.621144 -0.00019000505    61.795986    14988.225 
 5775000   -204381.46    1.5855867 -0.0042525816    61.779291     15001.77 
 5780000   -204278.46    1.6600226 0.0058726881    61.649289    15015.334 
 5785000   -204244.71    1.6508624 -0.0031423763    61.794245    15028.875 
 5790000   -204456.29    1.6543171 0.00059313538    61.680886    15042.418 
 5795000   -204382.69    1.6127253 -0.0019751995    61.739997    15056.021 
 5800000   -204365.52    1.6214225 0.0089208771    61.584707    15069.595 
 5805000   -204468.18    1.6218993 -0.0042539605    61.694192      15083.2 
 5810000   -204776.89     1.632117 0.0021631236    61.592558    15096.844 
 5815000   -204509.09    1.6143266 0.0041380321    61.651223    15110.404 
 5820000   -204343.06    1.6725622 -0.0035021197    61.763702    15123.973 
 5825000   -204437.69    1.6229137 0.0065417053    61.641609    15137.554 
 5830000   -204395.48    1.6323464 -0.0042795141    61.760823    15151.114 
 5835000   -204451.67    1.6230055 0.0025396428    61.627893    15164.709 
 5840000   -204476.46    1.6726987 0.0017895024    61.695203    15178.241 
 5845000   -204449.16    1.6082465 0.0023049679    61.644866    15191.801 
 5850000   -204396.65    1.6156919 -0.00090653622    61.690076     15205.36 
 5855000   -204416.53    1.6343655 -0.0023689043    61.713208    15218.946 
 5860000   -204376.86    1.6051891 -0.0061096757     61.76439    15232.536 
 5865000   -204312.88    1.6346885 -0.0048169343    61.676392     15246.09 
 5870000   -204398.94    1.6350375 -0.0021131193    61.680309    15259.645 
 5875000   -204551.87    1.6052035 -0.0023508495    61.693196    15273.224 
 5880000    -204322.6    1.6236848 0.0011811668     61.70484    15286.772 
 5885000   -204385.69    1.6707652 0.00048821682    61.677913    15300.318 
 5890000   -204534.95    1.6605146 0.0051357626    61.562506    15313.876 
 5895000   -204503.04    1.7039434 0.0084267226    61.572111    15327.448 
 5900000   -204502.22    1.6386982  0.003639375    61.609432    15340.997 
 5905000   -204458.05    1.6259336 0.0020062467    61.633955    15354.573 
 5910000   -204481.88     1.626257 -0.0014499645    61.640641    15368.107 
 5915000   -204345.07    1.6484825 -0.00084360077     61.69799    15381.688 
 5920000   -204643.35    1.6483473 0.0047491752    61.559614    15395.243 
 5925000   -204552.51    1.6454173 0.0041389254    61.593204    15408.784 
 5930000   -204620.03    1.5990125 -0.00014436848    61.646831    15422.356 
 5935000   -204494.15    1.6201478 -0.0012165572     61.65411    15435.907 
 5940000   -204553.23    1.6637391 0.0031856384    61.621116      15449.5 
 5945000   -204380.28    1.6242881 -0.0043856041    61.732409    15463.062 
 5950000   -204576.12    1.6345197 0.0028677347    61.604908    15476.588 
 5955000   -204436.65    1.6544876 -0.00099256257    61.631889    15490.182 
 5960000   -204339.21     1.657642 0.0015721384    61.705764    15503.744 
 5965000   -204357.72    1.6536399 0.0027955081    61.662404     15517.28 
 5970000   -204446.81    1.6001534  0.001250292    61.645911      15530.8 
 5975000   -204533.16    1.7333168 0.0070025669    61.587814    15544.379 
 5980000   -204436.74    1.6158677 -0.0018842511    61.703216    15557.968 
 5985000   -204419.04    1.6902573 -0.00082991508    61.679521    15571.554 
 5990000   -204504.52    1.6501431 0.0052211329    61.571667    15585.095 
 5995000   -204580.74    1.6300738 0.0011618925    61.629202    15598.658 
 6000000   -204394.59    1.5902508 0.0028530809    61.647684    15612.209 
 6005000   -204655.35    1.6576519 0.0025217596    61.563031    15625.811 
 6010000   -204506.36    1.6319827 -0.0033869786    61.711787    15639.428 
 6015000   -204553.72    1.6634504 0.0059299554    61.632159    15652.968 
 6020000   -204616.29    1.6245162 -0.0015997868    61.705735    15666.567 
 6025000   -204466.75    1.6499494 0.0014975628    61.692599    15680.158 
 6030000   -204410.89    1.6428216 -0.0023097107    61.699912    15693.734 
 6035000   -204569.66    1.6298531 0.0076218446    61.547707    15707.312 
 6040000    -204533.7    1.6566116    0.0011978    61.640437    15720.927 
 6045000   -204692.37    1.6137597 0.0049295232    61.524541     15734.48 
 6050000   -204422.99    1.6668413 -0.001598066     61.65089    15748.073 
 6055000   -204534.98    1.6099744 0.0015490133    61.649208    15761.622 
 6060000   -204568.34    1.6626384 0.0066621079    61.556889    15775.217 
 6065000   -204487.25    1.6279316 -0.0053452172    61.674273    15788.818 
 6070000   -204370.39    1.6939854 0.0021651061    61.671712    15802.403 
 6075000   -204373.56    1.6411416 0.00097276426    61.675505     15816.01 
 6080000   -204634.04    1.6305962 -0.0016648239    61.623543    15829.596 
 6085000   -204663.26    1.6522173 0.0035057013    61.582942    15843.225 
 6090000   -204350.95    1.6624181 0.0030314386    61.657164    15856.814 
 6095000   -204490.14    1.6517193 -0.0024912928     61.68779    15870.417 
 6100000   -204346.24    1.6224954 0.0067631466     61.62115    15884.027 
 6105000   -204538.44    1.6152638 -7.2704593e-06    61.643617    15897.625 
 6110000    -204390.3    1.6470485 0.0044341391    61.666993    15911.217 
 6115000   -204450.62    1.6474366 0.0052906551    61.553261    15924.765 
 6120000   -204517.85    1.6069404 -0.00065111238    61.629554    15938.367 
 6125000   -204513.93    1.6437367 -0.0011354878    61.673321    15951.964 
 6130000   -204421.46    1.7123952 -0.0024793943    61.698029    15965.556 
 6135000   -204532.89    1.6372607 0.00067143496    61.640422    15979.147 
 6140000   -204364.13     1.625509 0.0020217724    61.646159     15992.73 
 6145000      -204330    1.6365278 -0.00065813464    61.656562    16006.334 
 6150000   -204306.57    1.6963981 -0.00099456505     61.60271    16019.916 
 6155000   -204536.32    1.6118393 -0.0018462228    61.593235    16033.512 
 6160000   -204324.36    1.6553131 -0.0034032475    61.779453    16047.073 
 6165000   -204359.28    1.6105414 -0.00010523973    61.681097    16060.639 
 6170000    -204579.1    1.6396948 -0.0015423772    61.606193    16074.173 
 6175000   -204534.67    1.6511734 -0.0036344425    61.674015    16087.758 
 6180000   -204510.91    1.6563167 -0.00099842483    61.623378    16101.315 
 6185000   -204570.36    1.6438794 0.0016744161    61.613094    16114.871 
 6190000   -204647.64    1.6416242 0.0020959628    61.562266     16128.42 
 6195000    -204594.3    1.6998035 0.0016274704    61.564545    16141.992 
 6200000    -204505.6    1.6087131 -0.00036978539    61.622858    16155.585 
 6205000   -204401.17    1.6237155 -0.0027455048    61.722685    16169.179 
 6210000   -204689.79    1.6364696 0.0018978253    61.589804    16182.759 
 6215000    -204520.3    1.6612622 0.0039670956    61.574714    16196.341 
 6220000   -204463.54    1.6587968 0.00021272249    61.603633    16209.918 
 6225000   -204518.64    1.6095897 -0.0015610264    61.602524    16223.464 
 6230000   -204455.58    1.6380688 -0.0023579309    61.676944    16237.063 
 6235000   -204772.81    1.6176301 -0.0016734619    61.597351    16250.657 
 6240000   -204414.38     1.652494 0.0023665717    61.696601    16264.221 
 6245000   -204492.52    1.6210818 0.00018924117    61.646857    16277.804 
 6250000   -204611.38    1.5625783 -0.0041000379    61.656219    16291.402 
 6255000   -204371.99    1.6784689 0.00012374736    61.707111    16304.996 
 6260000   -204381.48    1.6318817 0.0003537353     61.74754    16318.548 
 6265000   -204345.42    1.6511538 0.0014914765    61.703071    16332.095 
 6270000   -204526.42    1.6414331 0.0033992158    61.614661    16345.664 
 6275000   -204502.64    1.6070236 0.0040614622    61.644014    16359.256 
 6280000   -204305.55    1.6451331 -0.0039131169    61.794075    16372.804 
 6285000   -204459.73    1.6603305 0.00010042465    61.674561    16386.378 
 6290000   -204535.53    1.6346456  0.001438374    61.635415    16399.941 
 6295000   -204299.37     1.629508 -0.0061571688    61.852978    16413.505 
 6300000   -204299.32    1.6295891 0.0020181607    61.718903    16427.029 
 6305000   -204237.08    1.6604705  0.001269523    61.772034    16440.551 
 6310000   -204191.42    1.6383263 0.0020914545    61.791342    16454.095 
 6315000   -204236.32    1.6143216 -0.0042655644     61.80827    16467.644 
 6320000   -204455.29    1.6153546 -0.0030293551    61.691634    16481.196 
 6325000   -204155.39    1.6029833 -0.00041703482    61.780444    16494.772 
 6330000   -204453.39    1.6094706 0.0010956772    61.656126    16508.345 
 6335000   -204359.76    1.6796459  0.004702133      61.6924    16521.878 
 6340000   -204234.46    1.5997611 0.00064342687    61.757664    16535.397 
 6345000   -204185.98    1.6272347 -0.00028589282    61.737423    16548.947 
 6350000    -204346.8     1.637257 -0.0012200706    61.694071    16562.513 
 6355000   -204422.05    1.6193193 0.0028065037    61.608873    16576.108 
 6360000   -204481.51    1.6674123 0.0040169158    61.588412    16589.727 
 6365000   -204385.43    1.6273747 -0.001930231    61.735756    16603.342 
 6370000   -204383.05    1.6565971 0.0049824955    61.645568    16616.927 
 6375000   -204391.66    1.6183032 0.0017053658    61.665742    16630.496 
 6380000   -204401.21     1.650475 -0.005026855    61.727816    16644.097 
 6385000   -204408.29    1.6438795 -0.0041398233     61.72323     16657.67 
 6390000   -204478.59    1.6546103 -0.00010170713    61.620136    16671.218 
 6395000   -204343.25    1.6104503 0.0040600769    61.630038    16684.816 
 6400000   -204151.48    1.5994921 -0.0051464274    61.822631    16698.412 
 6405000   -204330.94    1.6189441 -0.0011446693    61.686541    16711.963 
 6410000   -204354.05    1.6749326 -0.00097669271    61.698771    16725.555 
 6415000   -204374.27    1.6298034 0.0052892762    61.640623    16739.139 
 6420000   -204220.16    1.6700156 0.0012102148    61.727725     16752.69 
 6425000   -204548.39     1.611174 0.0014235329    61.625045     16766.24 
 6430000    -204421.5      1.65294 -0.00063631672    61.664581    16779.842 
 6435000   -204386.12    1.7028983 0.0019473763    61.696685    16793.432 
 6440000    -204371.4     1.646596 -0.0018059649    61.759156    16807.032 
 6445000   -204428.48    1.6344853 0.0016961234    61.695701    16820.614 
 6450000   -204358.04    1.6604104 0.0059693663    61.671468    16834.181 
 6455000   -204411.71    1.6424622 -0.002524761    61.715579    16847.783 
 6460000   -204378.16     1.635387 0.0025859865    61.655918    16861.399 
 6465000   -204404.09    1.6430044 0.00049486888    61.674937     16874.99 
 6470000   -204212.89    1.6316616 0.0019119219    61.675615    16888.574 
 6475000   -204364.51    1.6564499 -0.0023125536    61.730188    16902.166 
 6480000    -204317.4    1.6430344 -0.0068040721    61.825977    16915.747 
 6485000   -204510.95    1.6084937 0.0013676831    61.611674    16929.358 
 6490000   -204232.09    1.6430873 0.00028512154    61.714018    16942.942 
 6495000   -204295.17    1.5891577 0.0029841629    61.684037    16956.483 
 6500000   -204308.06    1.6264257 -0.0020609835    61.795658    16970.046 
 6505000   -204426.71    1.6344808 0.0023449056    61.725668    16983.596 
 6510000   -204329.12    1.6472003 -0.0056419211     61.78676    16997.122 
 6515000   -204299.06    1.6691466 -0.0020871945    61.768903    17010.691 
 6520000   -204558.91    1.5988524 -0.0040916222     61.70593    17024.268 
 6525000   -204432.87    1.6204253 0.0011912151    61.671153    17037.845 
 6530000   -204287.91    1.6187252 -0.0047171552    61.775106    17051.383 
 6535000   -204301.51    1.6015599 0.0031077782    61.711307    17064.974 
 6540000   -204356.44    1.6040314 0.00083608298    61.721221    17078.505 
 6545000   -204382.97    1.6289398 -0.0029134024    61.712082    17092.068 
 6550000    -204432.4    1.6861535 -0.0010274837     61.68537    17105.659 
 6555000   -204581.31    1.6499091 0.0045992912    61.504767    17119.272 
 6560000   -204493.08     1.704187 0.0023191241    61.567598    17132.858 
 6565000   -204481.78    1.6484722 0.0036313842    61.528051      17146.5 
 6570000   -204521.12    1.6533442 -0.00041069122    61.595138    17160.082 
 6575000   -204480.56    1.6403673 -0.0031093973    61.702637    17173.654 
 6580000   -204487.36    1.6124948 -0.00097100875    61.620552    17187.235 
 6585000   -204490.13    1.6704794 -0.0010821668    61.631394    17200.836 
 6590000   -204557.29    1.6296594 -2.9715925e-05    61.647087    17214.442 
 6595000   -204744.62      1.63229 -0.0024194553    61.649126     17227.99 
 6600000   -204441.98    1.6257358 -0.00014780679    61.691305    17241.585 
 6605000   -204643.71    1.6309102 -0.0018741757    61.590813    17255.162 
 6610000   -204610.61    1.6758051 0.00011900543    61.640343    17268.725 
 6615000   -204490.78    1.6670255 -0.00040879198    61.663189    17282.299 
 6620000   -204666.28    1.6605023 0.0055966676    61.593536    17295.854 
 6625000   -204918.98    1.6577265 -0.0023304078    61.595228    17309.384 
 6630000   -204609.98    1.6775561 -0.00049247784    61.608448    17322.939 
 6635000   -204676.66    1.6601992 0.0018069133    61.595181    17336.515 
 6640000   -204489.64    1.6522206 0.0032854261    61.611061      17350.1 
 6645000   -204346.12    1.6386687 -0.0030680544    61.691827    17363.655 
 6650000   -204726.48    1.6751642 0.0019940682     61.55135    17377.277 
 6655000   -204828.22    1.6782279 -0.0064329996    61.618956    17390.862 
 6660000   -204582.47     1.645572 -0.002851938    61.641569    17404.438 
 6665000   -204820.65    1.6813614 -0.0028483185    61.549918    17418.046 
 6670000   -204681.91    1.6213635 0.0011599531    61.553161    17431.654 
 6675000   -204837.66    1.6048219 -0.0058671733    61.663196    17445.233 
 6680000   -204530.47    1.6453565 -0.002776437    61.658757    17458.839 
 6685000   -204749.37    1.6246657 0.0050770063    61.463123    17472.436 
 6690000   -204795.08    1.6263573 0.0074506739    61.442344     17486.01 
 6695000   -204831.95    1.6615321 -0.0085847643    61.625208    17499.625 
 6700000   -204460.98    1.6628557 -0.0015555359    61.657149    17513.222 
 6705000    -204574.4    1.6276229 -0.00088218003    61.554511    17526.811 
 6710000    -204444.7    1.6175563 -0.0033868191    61.651885    17540.412 
 6715000   -204780.59    1.6390239 0.00056632752    61.502215    17554.019 
 6720000   -204696.69    1.5985612 0.0021365203    61.502105    17567.607 
 6725000   -204866.48    1.6463974  0.003814152    61.451835    17581.223 
 6730000   -204535.68    1.6299177 -0.004213965    61.634695    17594.832 
 6735000   -204345.59    1.6329515 0.0017363556    61.638895    17608.437 
 6740000   -204340.95    1.6659139 -0.0022567665    61.698331    17621.987 
 6745000   -204645.77    1.6890972 0.0052129618    61.576137     17635.54 
 6750000   -204401.01    1.6364096 -0.0025999597    61.683924     17649.14 
 6755000   -204578.06    1.6342947 0.0012504117    61.626231    17662.743 
 6760000   -204544.51    1.6192934 0.0015587532    61.591752    17676.325 
 6765000    -204578.2    1.6361507 0.0010828982    61.575104     17689.93 
 6770000   -204773.05     1.614825 -0.0036447285     61.60018    17703.506 
 6775000   -204640.08    1.6610642 0.0027231996    61.521408    17717.129 
 6780000   -204502.85    1.6197716 -0.0022801047    61.669106    17730.684 
 6785000   -204724.08    1.6733564 -1.343309e-05    61.565784    17744.284 
 6790000   -204618.17    1.6422917 -0.0010730721    61.613603    17757.854 
 6795000   -204591.49    1.6516413 -0.0034586182    61.707684    17771.458 
 6800000   -204572.34    1.5805993 0.00010191603    61.643269    17785.024 
 6805000   -204507.67    1.6596817 0.0041470399    61.606333    17798.591 
 6810000   -204530.67    1.6522605 -0.0045981298    61.718755    17812.125 
 6815000   -204785.48    1.6950973 0.0010309094    61.567016    17825.671 
 6820000   -204741.19    1.7004608 0.0023014007    61.536092    17839.243 
 6825000   -204717.86    1.6400412 -0.001185347     61.57025    17852.804 
 6830000   -204791.07    1.6400769  0.001828562    61.587275    17866.342 
 6835000   -204694.59     1.742078 -0.001943805    61.651988    17879.934 
 6840000   -204684.33    1.5948342 -0.0029395401    61.655655    17893.502 
 6845000   -204695.46    1.6385627 0.0055813463    61.464387    17907.107 
 6850000   -204750.12    1.6378729 -0.0016999741    61.573917     17920.72 
 6855000   -204545.96    1.5830843 -0.0047458976    61.671756    17934.329 
 6860000   -204741.01    1.6397288  0.001973136    61.558002    17947.887 
 6865000   -204730.53    1.6455001 0.0032760205    61.562155    17961.455 
 6870000   -204494.89     1.614409 -0.00025633765    61.680463    17975.038 
 6875000   -204369.08    1.6064528 -0.0088947694    61.760076    17988.606 
 6880000   -204375.54    1.6386302 0.0057263437    61.658427    18002.177 
 6885000   -204604.28    1.6764466 -0.00031520112    61.677017    18015.742 
 6890000   -204577.56    1.6386598 0.0050285651    61.615785      18029.3 
 6895000   -204517.58    1.6346221 -0.0038961306    61.768261     18042.82 
 6900000   -204837.98    1.6758433 -0.0039775125    61.621618    18056.409 
 6905000   -204634.02    1.6277716 0.0032125628    61.581509    18070.024 
 6910000   -204530.28    1.6553925 -0.0032281145    61.649925    18083.611 
 6915000   -204827.28    1.6063377 0.0025374233    61.465417    18097.252 
 6920000   -204620.87    1.6306755 -0.0036170736    61.687368    18110.872 
 6925000   -204501.71    1.6681439 0.0061779579    61.656499    18124.447 
 6930000    -204573.7    1.6613323 0.00038085248    61.724882    18138.034 
 6935000    -204536.9    1.6681771 -0.0059655322    61.792529    18151.574 
 6940000   -204744.21    1.6074657 -0.003326502    61.627006    18165.153 
 6945000   -204680.36    1.6458366 -0.0013270042    61.572509    18178.744 
 6950000   -204581.88    1.6545299 0.0094237273    61.488675    18192.347 
 6955000   -204655.59    1.6538322 0.0026743628    61.550832    18205.939 
 6960000   -204492.26     1.641854 0.0041444435    61.552041    18219.505 
 6965000   -204459.94    1.6451834 0.00046759347    61.584475    18233.086 
 6970000    -204350.4    1.6201757 0.00093408526    61.650126    18246.679 
 6975000   -204552.55    1.6360361 -0.0043376713    61.667895    18260.264 
 6980000   -204635.14    1.6450206 0.0045859074    61.574285     18273.84 
 6985000   -204590.31    1.6644275 -0.0021442654    61.679046     18287.39 
 6990000   -204321.69    1.6206293 -0.0072996498    61.778732    18300.983 
 6995000   -204553.64    1.6575827 0.0027253728     61.57742    18314.611 
 7000000   -204427.79    1.6558505 -0.00048165649    61.639454    18328.224 
 7005000    -204626.1    1.6892042 0.0013017894    61.567263    18341.783 
 7010000   -204466.11    1.6637324 0.0024022093    61.635382      18355.4 
 7015000   -204610.39    1.6411097 -0.0042743666    61.678289    18369.024 
 7020000   -204463.35    1.5670595 -0.0054065223    61.725536     18382.58 
 7025000   -204385.28    1.6295534 0.0025963078    61.686914    18396.124 
 7030000   -204353.19    1.5931174 -0.00017626296    61.689394    18409.691 
 7035000   -204249.43     1.636616  0.003169107    61.665958    18423.231 
 7040000   -204323.81    1.6296657 0.00084374644    61.710334    18436.825 
 7045000   -204197.46    1.6429776  0.005097514    61.693113    18450.364 
 7050000   -204280.98    1.6131824 0.0013576674    61.733633    18463.923 
 7055000   -204326.93    1.6404809 0.0067493532    61.687657    18477.434 
 7060000   -204197.78    1.6412185 -0.0013921644    61.745716    18490.952 
 7065000   -204542.54    1.6702905 0.0034252021    61.663189    18504.533 
 7070000   -204290.78    1.6237893 -0.0036162699    61.766061    18518.091 
 7075000   -204548.44    1.6079873 0.0035023036     61.56319    18531.663 
 7080000   -204524.08    1.6798935 -0.0030350959    61.666041    18545.223 
 7085000   -204623.26     1.669766 -0.0022693516    61.610164    18558.819 
 7090000   -204788.25    1.6213989 0.0031329662    61.496289    18572.422 
 7095000    -204377.7    1.6184996 0.0051531481    61.650406    18585.977 
 7100000   -204543.44    1.6528168 -0.00045461703    61.677269    18599.534 
 7105000   -204548.75    1.6532887 0.0020282673    61.622891    18613.125 
 7110000   -204400.12    1.6553276 0.0033747021    61.618222    18626.715 
 7115000   -204412.41     1.670398 -1.6708369e-05    61.625779    18640.309 
 7120000   -204660.27    1.6746028 0.00043520276    61.573841    18653.899 
 7125000   -204306.18    1.6371546 0.00064755659    61.638928    18667.475 
 7130000   -204375.54    1.6737102 -0.00054884105    61.669021    18681.058 
 7135000   -204400.77     1.622877 0.0023573244    61.642217    18694.608 
 7140000   -204304.44     1.673595 0.00033064694    61.682527     18708.16 
 7145000   -204302.82    1.6543223 -0.0011034925    61.683628    18721.772 
 7150000   -204617.13    1.6629263 -0.0004378154     61.64725      18735.4 
 7155000   -204455.28       1.6491 0.00054795861    61.605967     18748.97 
 7160000   -204482.24    1.6179661 0.0027416193     61.60102    18762.545 
 7165000    -204519.6    1.5628321  0.001518991    61.587093    18776.101 
 7170000   -204649.39    1.6898135 0.0027931433    61.536913    18789.683 
 7175000   -204458.75    1.6273535 -0.00083878127    61.653038     18803.24 
 7180000   -204567.31    1.6271794 -0.0057421908    61.705413    18816.832 
 7185000   -204469.74    1.6156355 -0.0006965185     61.64326    18830.395 
 7190000   -204321.79    1.6481236 -0.00053732494    61.696971    18843.949 
 7195000   -204660.73    1.6517662 -0.001113689    61.595288    18857.529 
 7200000   -204605.33    1.6192995 0.0065360547     61.50004    18871.145 
 7205000   -204561.24    1.6302895 0.0020654185    61.588907    18884.713 
 7210000   -204551.53    1.6789395 0.0015409688    61.558639    18898.279 
 7215000   -204596.83    1.7054316 0.0015113874    61.535196    18911.861 
 7220000   -204560.44    1.6190012 -0.0041667056    61.624611    18925.429 
 7225000   -204649.44    1.6549245 0.00079493117    61.556613    18939.006 
 7230000   -204646.13    1.6283202 0.0037006077    61.546012    18952.597 
 7235000   -204603.15    1.6440276 0.0045770456    61.520312    18966.155 
 7240000   -204665.16    1.6321878 -0.002909314    61.609955    18979.736 
 7245000   -204396.33    1.6395209 -0.002801405    61.706401    18993.302 
 7250000   -204509.86    1.6783972  0.003985417    61.605623    19006.866 
 7255000   -204522.14    1.6340923 -0.004845448     61.65817    19020.468 
 7260000   -204388.88    1.6890498 0.00056113798    61.677239    19034.061 
 7265000   -204490.91    1.6043116 -0.00092283208    61.645128    19047.604 
 7270000   -204533.59    1.5933741 -0.0043133192    61.643849    19061.209 
 7275000   -204407.77    1.6178485 4.632951e-05    61.680429    19074.786 
 7280000   -204403.13    1.6436572 -0.0012747877    61.701525    19088.357 
 7285000   -204406.32    1.6230383 0.0036796651    61.605117    19101.909 
 7290000   -204249.75    1.6345343 -0.0041960042       61.762    19115.473 
 7295000   -204418.09     1.629774 0.0020198203    61.624768    19129.056 
 7300000   -204535.52    1.6338023 0.0036061266    61.587819    19142.629 
 7305000   -204533.87    1.6000597 0.0014116063    61.632673    19156.192 
 7310000   -204582.93    1.5997952 0.00013082059     61.64484     19169.78 
 7315000   -204660.67    1.6206495 -0.00092048141    61.611179    19183.369 
 7320000   -204773.72    1.5916167 -0.0027178091    61.584913    19196.967 
 7325000   -204800.83    1.6627223  0.005914443    61.477547     19210.58 
 7330000   -204586.43    1.5984789 -0.00032763773    61.577071    19224.232 
 7335000   -204458.47    1.5960008  0.005607081    61.534849    19237.839 
 7340000   -204717.46    1.6277779 -9.4374971e-05    61.604263    19251.469 
 7345000    -204555.5    1.6447625 -0.0031832415    61.597629    19265.059 
 7350000   -204401.64    1.5961877 -0.0045499319    61.682771    19278.682 
 7355000   -204517.85    1.6157108 -0.00037571796    61.672088    19292.272 
 7360000   -204619.67    1.6193572 0.00098959569    61.582623    19305.886 
 7365000   -204260.15    1.6430901 -0.0039933132    61.768783    19319.433 
 7370000   -204418.14    1.6348558 0.0025304669    61.627435     19333.03 
 7375000   -204462.08     1.668806 0.0021606345    61.627859    19346.643 
 7380000   -204450.24    1.6776536 0.0001795289    61.708171    19360.187 
 7385000   -204427.13    1.6225903 -0.00011918572    61.692163    19373.783 
 7390000   -204482.71    1.6754984 0.0021664267    61.651197    19387.337 
 7395000   -204241.64    1.5856921 -0.0034251592    61.744868     19400.93 
 7400000   -204456.23    1.6249264 -0.0036610492    61.715976    19414.497 
 7405000   -204636.99    1.6066021 0.0068129423     61.53447    19428.055 
 7410000   -204226.55     1.662284 -0.0016698394    61.811879    19441.614 
 7415000   -204332.39    1.6503899 -0.0053751055    61.766888     19455.18 
 7420000   -204380.79    1.6875387  0.002637644    61.699769    19468.805 
 7425000   -204588.28    1.6240394 0.0034129196    61.611043    19482.388 
 7430000   -204404.54    1.6259711 0.00092146608    61.659208    19495.934 
 7435000   -204546.69    1.6565768 -0.00068760603    61.627366    19509.505 
 7440000   -204432.46    1.6237527 0.0024434213    61.628174    19523.105 
 7445000   -204651.68    1.6520906 -0.0016410255    61.582174    19536.703 
 7450000   -204672.75    1.6119364 0.0053249291    61.581063    19550.317 
 7455000   -204577.35    1.6307713 0.0037478276    61.602145    19563.887 
 7460000   -204506.77    1.6320721 0.0036369503    61.620964    19577.459 
 7465000   -204436.26    1.6400244 0.0031466461    61.714698    19591.024 
 7470000   -204512.26      1.61174 0.0001990837     61.70272    19604.597 
 7475000   -204536.38    1.6585497 -0.0035893848    61.689345    19618.142 
 7480000   -204666.53     1.666468 0.0024025504    61.579461    19631.746 
 7485000    -204637.8     1.657705 -0.00095198953    61.642395    19645.378 
 7490000   -204775.87    1.6523374 0.0014227956    61.559308     19658.99 
 7495000   -204749.92     1.624571 -0.000629369    61.536983    19672.606 
 7500000   -204612.27    1.6420292 0.00025479023    61.580549    19686.167 
 7505000   -204502.53      1.64317 -0.0001962179    61.651302    19699.758 
 7510000   -204644.59    1.6159614 -0.0026458208    61.602448    19713.332 
 7515000   -204811.38    1.6633697  0.010802467    61.412118    19726.937 
 7520000    -204522.3    1.6365587 0.0036014368    61.583831    19740.524 
 7525000   -204667.51    1.6314346 -0.00046341639    61.640496    19754.115 
 7530000   -204527.76     1.663661 -0.0019894152    61.699584    19767.701 
 7535000   -204661.52     1.617071 -0.0027250784    61.564664    19781.305 
 7540000   -204815.67    1.7050559  0.002508092    61.492391    19794.912 
 7545000   -204698.06    1.6420881 0.0015073141    61.609873    19808.487 
 7550000   -204350.91    1.6354793 -0.0033992971    61.773874    19822.062 
 7555000   -204589.93    1.6078681 0.0030249667    61.637393    19835.617 
 7560000   -204554.25    1.6423987   0.00371939    61.576411    19849.204 
 7565000   -204685.86    1.6960746 0.00063938263    61.569176     19862.79 
 7570000   -204684.29    1.5901681 0.0014293995       61.559    19876.409 
 7575000   -204674.14    1.6360904 -0.00038948498    61.619303    19890.014 
 7580000   -204467.91    1.6536321 0.0017106661    61.661935    19903.632 
 7585000    -204633.9    1.6585073 -0.0011368066     61.64081    19917.216 
 7590000   -204577.33    1.6094205 0.0011340316    61.608351    19930.854 
 7595000   -204668.75    1.6472895 0.00060598413    61.565387    19944.468 
 7600000   -204529.78    1.6270207 -0.0013312319     61.66457    19958.078 
 7605000   -204580.76    1.6543054 0.0063491163     61.53769    19971.622 
 7610000   -204366.76    1.6313901 0.0061523453    61.589743    19985.212 
 7615000   -204677.16     1.579305 -0.0088765832    61.666794    19998.818 
 7620000    -204644.3    1.6564864 0.0071680561     61.54961    20012.401 
 7625000   -204627.91    1.6148727 0.0029390432     61.55456    20026.003 
 7630000   -204460.11    1.6579295 -0.0018879533    61.693262    20039.593 
 7635000   -204554.54    1.6336803 -0.00097701238     61.61692      20053.2 
 7640000   -204522.35    1.6291367 0.0048969387    61.583161    20066.802 
 7645000   -204521.59    1.6153864 0.0029887538    61.641315    20080.368 
 7650000   -204366.69    1.6834508 -0.0018220519    61.744383    20093.946 
 7655000   -204455.06    1.6281882 0.0036468584    61.633446    20107.495 
 7660000   -204712.47    1.6762743 -0.00093240521     61.62479    20121.073 
 7665000   -204513.48    1.6503756 0.0016341015    61.663991     20134.63 
 7670000    -204463.6    1.6296674 -0.00030877318    61.655834    20148.199 
 7675000   -204437.29    1.6954578 -0.0059123574    61.767549    20161.763 
 7680000   -204473.46    1.6302856 -0.0011834218    61.764422    20175.331 
 7685000   -204532.34    1.6461611 -8.0986477e-05    61.733152    20188.881 
 7690000   -204666.71     1.602063 0.0020528796    61.591727     20202.45 
 7695000   -204580.31    1.6435546 -0.0038631841    61.707804    20216.019 
 7700000   -204367.81    1.6295119 0.0022268048    61.688668     20229.58 
 7705000   -204603.94    1.6685298 -0.004548498    61.690281    20243.156 
 7710000   -204735.85    1.6269536 0.0016191468    61.548122     20256.74 
 7715000    -204551.6    1.6774387 0.0012147286    61.639417     20270.35 
 7720000   -204502.93    1.6151456 -0.0008559195    61.666972    20283.902 
 7725000   -204555.53    1.6909969 -0.0025504143    61.645732    20297.477 
 7730000   -204689.42    1.6511193 -0.0029013902    61.605591    20311.057 
 7735000   -204612.48    1.6136868 -0.0051526336    61.593914    20324.639 
 7740000   -204604.81    1.6575278 -0.0053233515     61.69384    20338.252 
 7745000   -204626.34    1.6087257   0.00171477    61.609657    20351.817 
 7750000   -204391.93    1.6342424 0.00013510795    61.672876    20365.411 
 7755000   -204510.08    1.6605236 0.0042287934    61.591757    20379.014 
 7760000   -204453.83    1.6894772 0.0020821934    61.692205     20392.56 
 7765000   -204555.77    1.6388527 0.0038540978    61.570531    20406.114 
 7770000   -204507.36    1.6350357 0.00088238822    61.624141    20419.692 
 7775000   -204601.03    1.6598934   0.00498163    61.521724    20433.284 
 7780000   -204520.47    1.6808997 0.0019982066    61.646731     20446.88 
 7785000   -204559.11     1.622487 -0.0048890364    61.613663    20460.431 
 7790000   -204558.72    1.6370989 -0.0010429751    61.604925    20474.041 
 7795000   -204701.52     1.689407 -0.0014202575    61.595906    20487.625 
 7800000   -204735.04    1.6586938 -0.0050793065    61.573275    20501.283 
 7805000    -204730.9    1.6697916 -0.002647315    61.591555    20514.883 
 7810000   -204611.39    1.6192175 0.0033205786    61.526093    20528.522 
 7815000   -204569.25    1.6483932 0.0036539332    61.562382    20542.127 
 7820000   -204451.81    1.6094871 -0.0063580954    61.725053    20555.726 
 7825000   -204543.89    1.6293765 -3.327328e-05    61.600868    20569.311 
 7830000    -204709.9     1.643109 0.0059997473    61.490678    20582.908 
 7835000    -204369.4    1.6863086 -0.00091259256    61.680283    20596.502 
 7840000   -204503.52    1.6440704 0.0028012797    61.627482    20610.075 
 7845000    -204500.9    1.6278314 -0.00024205972    61.609276    20623.665 
 7850000    -204571.1    1.6117287 0.0030566195    61.568626    20637.222 
 7855000   -204308.52    1.5968963 -0.0036577013    61.727111     20650.78 
 7860000   -204353.21    1.6341115 -0.0019935854    61.745015    20664.362 
 7865000   -204274.16    1.6296059 -0.0060612565    61.834619    20677.918 
 7870000   -204242.28    1.5943691 -0.0023559601     61.80273    20691.493 
 7875000   -204343.35    1.6312822 0.0018390025    61.708324     20705.07 
 7880000   -204254.05     1.696049 -0.0024380818    61.792976     20718.61 
 7885000   -204330.12    1.6483261 0.00080555464    61.734371    20732.146 
 7890000   -204234.32    1.6151679 -0.00067401911    61.728871    20745.715 
 7895000    -204258.2    1.6592298 -0.0011619117    61.760581    20759.299 
 7900000    -204278.7    1.6102779 0.0067575802    61.661202    20772.848 
 7905000   -204526.68    1.6019377 0.0017867562    61.616854    20786.408 
 7910000   -204445.46    1.6249271 0.0042709297    61.595556    20799.992 
 7915000   -204432.47    1.6758236 0.0032321744    61.624075    20813.556 
 7920000   -204615.24    1.6189885 0.0023152864    61.594279    20827.112 
 7925000    -204412.9    1.6573075 6.6390655e-05    61.683808    20840.651 
 7930000   -204293.92    1.6317133 -0.0019443233    61.769472    20854.195 
 7935000   -204119.36    1.6686246 -0.0014308721    61.829613    20867.681 
 7940000   -204405.14    1.6205496 0.0041546447    61.624861    20881.232 
 7945000   -204219.86    1.6245995 -0.00034057376    61.783446    20894.814 
 7950000   -204176.25    1.6459391  0.003925631    61.704412     20908.36 
 7955000   -204415.98    1.6490516 0.00015860832    61.708447    20921.935 
 7960000   -204436.47    1.6203387 0.00036994166    61.688431    20935.506 
 7965000   -204437.28    1.6440162 -0.0014322183    61.718128    20949.091 
 7970000   -204473.82    1.6383236 -0.0062124162    61.697553    20962.682 
 7975000    -204519.6    1.6061456 -0.0046366423    61.637205    20976.277 
 7980000   -204494.54    1.5875626 -0.0042605786    61.662267    20989.853 
 7985000   -204424.41     1.651145 -0.0015610425    61.699904    21003.389 
 7990000   -204579.69    1.6152951 -0.0010787188    61.622051    21016.929 
 7995000   -204499.39    1.6329015 -0.00063217272    61.663334    21030.479 
 8000000   -204377.72     1.681762 -0.00052745965    61.623779    21043.992 
 8005000    -204262.1    1.6587052 0.0015703526     61.72435     21057.54 
 8010000   -204415.32    1.6391553 -0.00050995936     61.66567    21071.103 
 8015000   -204511.92    1.6334159  0.003069849    61.678803    21084.665 
 8020000   -204302.53    1.6225516 -8.3591182e-05    61.744918    21098.219 
 8025000   -204219.04    1.6423723 -0.0016817099    61.779363    21111.787 
 8030000    -204339.1    1.6566062 -0.002019585    61.727407    21125.371 
 8035000   -204407.19    1.6889168 0.00059203309     61.70635    21138.876 
 8040000   -204273.82    1.6683407 0.0010643472    61.694803    21152.442 
 8045000   -204513.24    1.6425095 -0.0005206753    61.687505     21165.99 
 8050000   -204232.64    1.6140757 -0.0012976077    61.695768    21179.504 
 8055000   -204296.18     1.641598 2.3242625e-06    61.744484    21193.061 
 8060000   -204287.46    1.6908589 0.0015376368    61.736204    21206.595 
 8065000      -203968    1.6802946 -0.0013249579     61.85155    21220.139 
 8070000   -204191.51    1.6367947 -0.00015075644    61.806624    21233.671 
 8075000   -204232.82    1.6733167 0.00052633558    61.788833    21247.159 
 8080000   -204144.65     1.660184 0.0036280296    61.741116    21260.683 
 8085000   -204464.04    1.6583194 -0.00035024402    61.710877    21274.221 
 8090000   -204318.32    1.6778601 3.972415e-05    61.712398    21287.798 
 8095000   -204211.26    1.6501165 -0.0072424304    61.831703    21301.374 
 8100000   -204355.31    1.6363673 0.0022931663    61.721086    21314.931 
 8105000   -204362.43    1.6201322 -0.0028927795    61.782067    21328.493 
 8110000   -204365.22    1.6006733 0.0028226977     61.69275    21342.016 
 8115000   -204166.54    1.6621736 -0.00040041054    61.748114    21355.546 
 8120000   -204268.01    1.6585896 -0.00091471479    61.751122    21369.062 
 8125000   -204605.58    1.6057774 -0.00081303556    61.677891     21382.59 
 8130000   -204450.59     1.611603  0.005773141    61.665376    21396.177 
 8135000   -204441.23    1.6243546 -0.0053769051    61.726262    21409.769 
 8140000   -204474.47    1.6474433 -0.0030254458    61.701923    21423.273 
 8145000   -204541.48    1.6143609 0.00095749987    61.595005    21436.845 
 8150000   -204797.22    1.6035466 -0.0044574527    61.602722    21450.455 
 8155000   -204873.26    1.6280981 0.0044130686    61.496103    21464.061 
 8160000   -204457.45    1.6343303 -0.0044434094    61.656223    21477.686 
 8165000   -204464.59    1.6371656 0.0027636643    61.608679    21491.238 
 8170000   -204262.17    1.6830855 -0.0017548697     61.73871    21504.757 
 8175000   -204359.54    1.6102143 -0.00010037088    61.703648    21518.286 
 8180000   -204362.74    1.6377887 -0.0049735839    61.759837    21531.856 
 8185000    -204539.9    1.6213069 -0.0028843938    61.695048    21545.397 
 8190000   -204605.51    1.5780665 -0.0057132566    61.660234    21558.966 
 8195000   -204472.06    1.6317678 0.0010903973     61.65959    21572.596 
 8200000   -204519.21    1.6386868 0.0012814086    61.642299    21586.132 
 8205000   -204441.18    1.6765227 -0.0033737282    61.712564    21599.719 
 8210000   -204648.41    1.6110782 -0.003948462    61.677999     21613.26 
 8215000    -204264.8    1.6580552 0.0032438631     61.67876     21626.79 
 8220000   -204467.67    1.6638725 -0.0032616972    61.773012    21640.309 
 8225000   -204436.51    1.6521759 0.0021049581    61.684753    21653.859 
 8230000   -204573.39     1.608226 -0.0014466859    61.662243    21667.413 
 8235000   -204540.63     1.674236 0.0024601022     61.61036    21681.006 
 8240000   -204467.56    1.5852795 -0.0028493661    61.749903    21694.632 
 8245000   -204492.95    1.6822487 -0.0023553727    61.673111    21708.197 
 8250000   -204441.73    1.6475326 -0.0078107033    61.743832    21721.783 
 8255000   -204412.11    1.6337496  0.001366553      61.6207    21735.361 
 8260000   -204609.33      1.61087 -0.0003664878     61.63956    21748.934 
 8265000   -204612.16     1.592575 -0.0014527608    61.576041    21762.508 
 8270000   -204388.52    1.6623977 0.0046701704    61.588719    21776.086 
 8275000   -204482.16    1.6546607 -0.002612748    61.681161    21789.667 
 8280000   -204253.12    1.5992659 -0.00093268889     61.67298    21803.232 
 8285000   -204352.74     1.633351 -0.0043701985    61.703003    21816.814 
 8290000   -204090.53    1.6563232 0.0032680264    61.766753    21830.391 
 8295000   -204354.39    1.6405671 0.0026094265    61.694625    21843.953 
 8300000   -204425.01    1.6408182 0.0023541277    61.701047    21857.516 
 8305000    -204384.7    1.6329999 -0.00097131664    61.744474    21871.091 
 8310000   -204413.96    1.6766665 -0.0017603069    61.740069    21884.645 
 8315000   -204495.79    1.6732125 -0.0014110666    61.738036    21898.164 
 8320000   -204487.92    1.6322362 -0.0053860876    61.707134    21911.742 
 8325000   -204565.39    1.6343539 0.0059141394    61.551058    21925.358 
 8330000   -204646.03    1.6324634 -0.0036431716    61.610739    21938.937 
 8335000    -204682.8    1.6459594 0.0032314247     61.56356    21952.559 
 8340000   -204530.08    1.6046941 -0.0019679988    61.674938    21966.153 
 8345000   -204636.74    1.6758302 -0.00099398148    61.615144    21979.712 
 8350000   -204547.59     1.611127 0.00048138189    61.620701    21993.321 
 8355000    -204504.1     1.620361 -0.00046750661    61.688527    22006.908 
 8360000   -204560.48    1.6166488 -0.0016682424    61.678455    22020.457 
 8365000   -204482.02    1.6561406 0.0048083155    61.621056    22034.015 
 8370000   -204625.25    1.6630824 -0.0015457982    61.695327    22047.581 
 8375000   -204547.25     1.688621 0.00039406165    61.639717    22061.162 
 8380000   -204433.98    1.7072384  0.002476555    61.673829     22074.76 
 8385000   -204595.01    1.6379473 -0.0037070393    61.724636    22088.375 
 8390000   -204647.82    1.6308266 -0.0039004292    61.661153    22101.976 
 8395000   -204678.28    1.6851487 0.0016824731    61.600978    22115.594 
 8400000    -204536.8    1.6479717 -0.0028097443    61.715315    22129.204 
 8405000   -204539.16    1.6301016 -0.0023515293    61.652895    22142.789 
 8410000   -204473.18    1.6592927 0.0020026632     61.68551    22156.346 
 8415000   -204469.13    1.6476292 -0.0044543858    61.699258    22169.889 
 8420000   -204289.45    1.6603507 0.0023214894     61.72139    22183.452 
 8425000   -204443.01     1.585379 -0.0034572061    61.727025    22196.972 
 8430000   -204393.12    1.6320869 8.8667414e-05     61.72027    22210.523 
 8435000   -204465.26    1.6135795 0.00093138946     61.61461    22224.113 
 8440000   -204415.14    1.6315437 -0.0048917264    61.711824    22237.677 
 8445000   -204404.24    1.6159334 0.00087964351    61.683802    22251.267 
 8450000   -204386.37    1.6729453 -0.00016486773    61.661661    22264.851 
 8455000    -204460.9    1.6284586 -0.00029383337    61.662393    22278.411 
 8460000   -204454.41    1.6409373 0.00011067388    61.637755    22291.993 
 8465000      -204619    1.6403048  0.002784936    61.543539     22305.59 
 8470000   -204654.48    1.6179964 0.0017980969    61.580623    22319.183 
 8475000    -204642.6    1.6528371 -0.00019814319    61.622188    22332.736 
 8480000   -204574.02    1.5958336 0.0012899778    61.601905     22346.35 
 8485000   -204704.96    1.6663535 -0.00082543039    61.623676    22359.951 
 8490000   -204462.04    1.6110266 -0.0013741365     61.61807    22373.517 
 8495000   -204518.68    1.6574832 0.0023979403    61.631137    22387.062 
 8500000   -204382.59     1.680368 -0.0067688596    61.758815    22400.646 
 8505000   -204537.78    1.6105374 0.0013144597     61.64617    22414.206 
 8510000   -204542.67    1.6781516  0.002081974    61.584705    22427.774 
 8515000   -204491.89    1.6437219 0.00033041633    61.655805    22441.372 
 8520000   -204491.64    1.6517546 -0.004849037    61.727109    22454.953 
 8525000   -204926.22    1.6386724 0.0063610588    61.427724    22468.556 
 8530000   -204607.48    1.6466495 -0.00027007374    61.570258    22482.223 
 8535000   -204621.25    1.6511785 -0.00096090229    61.619884    22495.802 
 8540000   -204551.59    1.5911502 -0.001459016    61.613828    22509.366 
 8545000   -204685.53    1.6241618  -0.00342019    61.627856    22522.934 
 8550000   -204642.15    1.6454207 0.0061805894    61.542622    22536.521 
 8555000   -204415.09    1.6170166 0.00024838255    61.624023     22550.09 
 8560000   -204651.76    1.6578985 0.00033125989    61.578277    22563.704 
 8565000   -204488.76    1.6155258 -0.00057487544    61.662207    22577.279 
 8570000      -204646    1.6591444 0.0059269562    61.509408    22590.846 
 8575000   -204521.94    1.6122034 0.00045512249    61.612714    22604.423 
 8580000   -204589.77    1.6173963 -0.0032753071    61.598871    22617.976 
 8585000   -204721.58    1.6398604 0.0024847638    61.498575    22631.584 
 8590000   -204643.26    1.6688961 -0.0028689276    61.624845    22645.159 
 8595000   -204659.78    1.6115373 -0.0018948832    61.592833    22658.768 
 8600000   -204831.64    1.6305782 0.0004823209    61.554103    22672.368 
 8605000   -204658.29    1.5991835 -0.001102054    61.610824    22685.974 
 8610000   -204594.75    1.6392561 0.0017577189    61.523203    22699.542 
 8615000   -204581.87    1.6185558 -0.0058833713     61.64547    22713.126 
 8620000   -204605.77    1.6471094 -0.0051467736    61.615756    22726.725 
 8625000   -204455.43     1.639919 0.00098893012    61.639858    22740.306 
 8630000   -204584.26     1.610949 0.0018839075       61.517    22753.901 
 8635000   -204411.93    1.6786621 -0.0039529232    61.693183    22767.462 
 8640000   -204422.31    1.6556617 0.0026019736    61.640945    22781.011 
 8645000   -204319.54     1.646385 -0.00053461658    61.688261     22794.57 
 8650000    -204460.5    1.6506039 0.0018980092    61.632486    22808.138 
 8655000   -204582.84    1.6242615  0.001798387     61.59122    22821.696 
 8660000   -204651.12    1.6116265 -0.0033132441     61.68876    22835.236 
 8665000   -204591.09    1.5864716 0.0012472881    61.567874    22848.789 
 8670000   -204543.69    1.6574617 -0.004377634    61.664212    22862.366 
 8675000   -204311.35    1.6078377 0.0035995531    61.722061    22875.926 
 8680000   -204496.38    1.6395143 -0.0013448031    61.675615    22889.467 
 8685000   -204420.16    1.6514971 -0.0046630083    61.740683    22903.007 
 8690000   -204427.74    1.6491598 -0.00080083574    61.683949    22916.546 
 8695000   -204341.68    1.6622807 0.0052410375    61.635934    22930.132 
 8700000   -204461.23    1.6510327 -0.00070198413    61.724511    22943.687 
 8705000   -204595.75     1.639234 0.0011329497    61.600275    22957.263 
 8710000    -204539.9     1.658788 0.0016981403    61.620379    22970.831 
 8715000   -204713.81    1.6540847 -0.0038890054    61.597214    22984.434 
 8720000   -204530.98    1.6139783 0.00052871842    61.597567    22998.045 
 8725000   -204589.08    1.6385812 -0.00038631485    61.624527    23011.614 
 8730000   -204703.66     1.650954 -0.0025302485    61.590451    23025.234 
 8735000   -204774.98    1.6297522 -0.0011467691    61.603748    23038.835 
 8740000   -204664.85    1.6857513 0.0012117486     61.57895    23052.433 
 8745000    -204597.7    1.6713397 0.0075263088    61.569757    23066.009 
 8750000   -204655.48     1.630778 0.0019825856    61.535218    23079.592 
 8755000   -204641.87     1.602086 -0.00018433347    61.605965    23093.193 
 8760000    -204389.2    1.6415308 -0.0011936924    61.667931    23106.807 
 8765000   -204448.71    1.6793762 0.00049352143    61.642894    23120.383 
 8770000   -204620.54    1.6476721 -0.0039803031    61.693081    23134.034 
 8775000   -204620.06    1.6464884 8.0451136e-05    61.700099    23147.569 
 8780000   -204547.44    1.6069169 0.0023594855    61.628475    23161.114 
 8785000   -204363.93    1.6671431 -0.00068414892    61.691157    23174.682 
 8790000   -204479.45     1.663469 0.0019308469     61.65663    23188.236 
 8795000   -204391.32    1.6136725 -0.0094477525    61.737035    23201.776 
 8800000   -204301.49    1.5825532 0.00015459417    61.662091    23215.336 
 8805000   -204578.53    1.6519037 0.0042478733      61.5538    23228.864 
 8810000    -204479.6     1.649746  0.001569898    61.656468    23242.406 
 8815000   -204401.84    1.6685549 -0.00042442676      61.6669    23255.947 
 8820000   -204293.19    1.6297612 -0.002070934    61.652996    23269.492 
 8825000   -204575.77    1.6387217  0.002642906    61.553029    23283.072 
 8830000   -204664.83    1.6358708 -0.001807542    61.537175    23296.674 
 8835000   -204480.92    1.6379938 0.0013177155    61.607521    23310.274 
 8840000   -204434.84    1.6654288 0.0061416752    61.569579    23323.846 
 8845000   -204287.21    1.6763673 -0.001849805    61.729666    23337.383 
 8850000   -204263.02    1.6371243 0.0026042203    61.656397    23350.908 
 8855000   -204302.02    1.6275555 -0.0010087646    61.688303    23364.454 
 8860000   -204372.82    1.6621099  0.004949372    61.639136    23377.948 
 8865000   -204468.17     1.635618 0.0022333204    61.640907    23391.511 
 8870000   -204641.84    1.7051433 0.0019175938    61.596182    23405.066 
 8875000   -204560.22    1.6873888 -0.0024542979    61.670031    23418.618 
 8880000   -204661.57    1.6588684 0.00040540126     61.59676    23432.182 
 8885000   -204573.26    1.6476096 -0.0014192517    61.646277    23445.738 
 8890000   -204442.43    1.6148224  0.001660477    61.637144    23459.325 
 8895000   -204666.94    1.6130531 -0.0015628456     61.63096    23472.897 
 8900000   -204685.25     1.648187 0.00056059495    61.554932    23486.519 
 8905000   -204692.57     1.615505 0.0005465427    61.510295    23500.123 
 8910000   -204632.69    1.6063311 -0.0047610443    61.570246     23513.69 
 8915000   -204585.01    1.6614437 -0.0014985941     61.56805    23527.302 
 8920000   -204580.05    1.6655977  0.002722005     61.57926    23540.899 
 8925000   -204714.26    1.6715071 0.0018427551    61.604645    23554.483 
 8930000   -204774.17     1.626474 -0.0074997615    61.669559    23568.055 
 8935000   -204613.72    1.6358153 -0.0021367954    61.636666    23581.637 
 8940000   -204586.91    1.6023918 0.0010967719    61.585542    23595.251 
 8945000   -204268.79     1.682525 0.0064883188    61.622237    23608.781 
 8950000   -204512.15    1.6302149 0.0010853027    61.550612    23622.366 
 8955000    -204580.9    1.6669754 -0.001092236    61.638915    23635.927 
 8960000   -204523.02    1.6761596 -0.0012954378    61.665764    23649.498 
 8965000   -204678.14    1.6654684 0.0055673979    61.553948    23663.065 
 8970000   -204595.24    1.6260145 -0.00077321724    61.603446    23676.667 
 8975000   -204451.26    1.6439451 0.0010785169    61.608665    23690.268 
 8980000   -204520.22    1.6521011 0.0013365216    61.557547    23703.877 
 8985000   -204344.93    1.6279419 0.00082858311    61.636296    23717.447 
 8990000   -204467.88    1.6604487 3.3693075e-07     61.60028    23730.993 
 8995000   -204560.14    1.6965764 -0.0046010167    61.644129    23744.594 
 9000000   -204733.22    1.5762432 0.0022119258    61.505214    23758.198 
 9005000   -204684.27    1.6172977 -0.0051627134    61.580568    23771.776 
 9010000   -204629.52    1.6484881 -0.0091588963    61.691534    23785.367 
 9015000   -204611.89    1.6029612 0.0051435529    61.513768    23798.969 
 9020000   -204560.74    1.6038178 -0.0016622412    61.622665    23812.552 
 9025000   -204321.52     1.658244 0.0020101692    61.641966    23826.118 
 9030000   -204483.86    1.6671921 -0.00011479958    61.653008    23839.732 
 9035000   -204496.98    1.6203251 -0.00088485953     61.64117    23853.296 
 9040000   -204386.14    1.6364838 -0.0012259562    61.712218    23866.886 
 9045000      -204182    1.6840474 -0.00076103898    61.754696    23880.456 
 9050000    -204301.2    1.6755095 0.0013760531    61.730267    23894.007 
 9055000   -204268.82     1.620472 -0.0030257418    61.739175    23907.563 
 9060000      -204134    1.6201526 -0.0013722836    61.719555    23921.135 
 9065000   -204464.47    1.6312946 -0.0034733213    61.657025    23934.688 
 9070000   -204258.75    1.6296204 0.0060334284    61.632222    23948.247 
 9075000   -204073.87    1.6664277 -0.00064422171    61.790553    23961.786 
 9080000   -204205.73    1.6608476 5.7324328e-06    61.766213    23975.296 
 9085000   -204223.49    1.6394115  0.009655735    61.664892    23988.813 
 9090000   -204345.42    1.6285932 -0.0040047652    61.771427    24002.345 
 9095000   -204400.64    1.6407718 -0.002497922    61.694341    24015.915 
 9100000    -204358.7     1.722683 -0.0067406185     61.78951    24029.477 
 9105000   -204243.29    1.6733389 0.0032382102    61.680539     24043.01 
 9110000   -204280.58    1.6846649 0.0011623237    61.692817    24056.539 
 9115000   -204137.35    1.6386361 0.0052063131     61.67873     24070.11 
 9120000   -204155.34    1.6464649 -0.0076952912    61.877843    24083.642 
 9125000    -204320.2    1.6374433 -0.0012602409    61.746047    24097.192 
 9130000   -204113.19    1.6352573 -0.0015851452    61.865084    24110.739 
 9135000   -204305.16    1.6024238 0.0018295485    61.756044    24124.267 
 9140000   -204277.37    1.6820693 0.0017280328    61.743443    24137.762 
 9145000   -204315.34    1.6146586 0.0022849766    61.730735     24151.31 
 9150000   -204319.38    1.6305621 -0.0074580654    61.754739    24164.877 
 9155000    -204574.4    1.6758073 0.0036138102    61.592886     24178.47 
 9160000    -204307.3    1.6458502 0.0025044279    61.690602    24192.022 
 9165000   -204448.39    1.6271712 -0.0031367947    61.672124    24205.573 
 9170000   -204338.08    1.5883914 0.0025468705    61.668341    24219.169 
 9175000    -204501.8    1.6622472 0.0030308181    61.566877    24232.734 
 9180000   -204435.77    1.6143052 -0.0049549657    61.684031     24246.32 
 9185000   -204314.82    1.6141047 0.0017303106    61.666766    24259.892 
 9190000   -204336.75    1.6342374 0.0014145854     61.68164     24273.46 
 9195000   -204266.47    1.6216082 0.0051405206    61.599948    24287.056 
 9200000    -204396.8    1.6400498 -0.003123355    61.730342    24300.655 
 9205000   -204416.31    1.6920003 -0.0056652899    61.794923    24314.237 
 9210000   -204427.33    1.6102372 -0.00063826438    61.722161    24327.778 
 9215000   -204516.01    1.6236056 0.0015414459    61.685962    24341.333 
 9220000   -204489.51    1.7192469 0.00028897879    61.683768    24354.891 
 9225000   -204534.62    1.6010617 -0.0027897024    61.659496    24368.447 
 9230000   -204355.74     1.638929 0.0015518904    61.628812    24382.018 
 9235000   -204491.34    1.6187688 0.0043842329    61.636093    24395.565 
 9240000    -204214.8    1.6240471 -0.00037362496    61.780659    24409.156 
 9245000   -204266.36    1.6596185 0.0018061895    61.705156    24422.714 
 9250000    -204305.1    1.6004589 -0.0011608348     61.71513    24436.255 
 9255000   -204334.81    1.6532709 0.0007159983    61.673247    24449.851 
 9260000   -204380.68    1.6466525 0.00046973685    61.628232     24463.42 
 9265000   -204396.78    1.6407773 0.0014668393    61.610606    24476.989 
 9270000   -204433.66    1.6521782 0.00036813171    61.627365    24490.576 
 9275000    -204301.6    1.5958157 0.0032576759    61.609664    24504.138 
 9280000   -204444.28    1.6629075 0.00043707488    61.688627    24517.657 
 9285000   -204334.69    1.6240481 0.0021027798    61.686295     24531.19 
 9290000   -204207.17    1.6178766 0.0038526134    61.702086    24544.729 
 9295000   -204427.79    1.6699481 2.8062198e-05     61.69514    24558.292 
 9300000   -204270.26    1.6380799 0.00033811456    61.748262    24571.814 
 9305000   -204539.59    1.6461678 0.0013996775    61.597188    24585.377 
 9310000   -204501.22    1.6470725 -0.0051149283    61.685926    24598.945 
 9315000   -204299.65    1.6026435 -0.0072131325    61.796899    24612.548 
 9320000   -204439.27      1.65461  -0.00256529    61.656746    24626.137 
 9325000   -204240.84    1.6460059 0.0063751907    61.656404    24639.676 
 9330000   -204240.49    1.6362219 -0.0014431282    61.819822    24653.254 
 9335000   -204107.68    1.7111035 0.0072243789    61.647565    24666.805 
 9340000   -204376.73    1.6486291 -0.0024304754    61.706112    24680.385 
 9345000   -204472.65    1.6456682 0.0059294283    61.564078    24693.968 
 9350000   -204397.85     1.628959 0.00031090264    61.667487    24707.526 
 9355000   -204257.74    1.6271888 0.0016370166    61.721341    24721.112 
 9360000   -204311.45    1.6076319 -0.0025330117    61.785113    24734.691 
 9365000   -204186.29    1.6524871 -0.0016389203    61.827159    24748.185 
 9370000   -204362.08    1.6613454 0.0017698408    61.730368    24761.743 
 9375000   -204192.58    1.5954735 -0.0042947151    61.851836    24775.328 
 9380000   -204347.17    1.6977928 0.0034312058    61.640445     24788.88 
 9385000   -204476.73     1.601379 0.0041696499    61.655172    24802.421 
 9390000   -204279.52    1.6531604 0.0013044941    61.780693    24815.944 
 9395000   -204476.82    1.6833068 0.0040909592    61.675959    24829.476 
 9400000   -204182.67     1.697018 -0.0022472434    61.755237    24842.994 
 9405000   -204427.51    1.6685959 -0.007668992    61.776754    24856.549 
 9410000   -204449.33    1.6481204 -0.0031091161    61.754036    24870.111 
 9415000   -204175.91    1.6339173 0.0031161811    61.651278    24883.726 
 9420000   -204387.27    1.6759073 0.0032504969     61.64292    24897.273 
 9425000    -204498.1     1.618638 -0.0033354856    61.654592    24910.862 
 9430000   -204394.34    1.6268688 -0.0055176514    61.726177    24924.464 
 9435000   -204340.14    1.6170728 7.2730406e-05    61.699858    24938.013 
 9440000   -204246.06    1.5974405 0.0024804489    61.707454    24951.549 
 9445000   -204213.04      1.63042 -0.00097042478    61.758366    24965.116 
 9450000   -204507.83    1.6262302 -0.00037929325    61.662444    24978.722 
 9455000   -204545.71     1.629044 -0.00058400229     61.59184    24992.312 
 9460000    -204395.4    1.6384414 -0.0034119848    61.698917    25005.875 
 9465000   -204549.25    1.6068623 -0.00077929826     61.63998    25019.383 
 9470000   -204321.09    1.6970728   0.00622816    61.637557    25032.923 
 9475000   -204299.53    1.6329509 0.00044878269    61.743586    25046.473 
 9480000   -204410.03     1.649074 -0.0050787504    61.736479     25060.02 
 9485000   -204514.09    1.6151909 -0.00026472378    61.618406    25073.577 
 9490000   -204287.31     1.610491 -0.0014435767    61.580744    25087.176 
 9495000   -204466.02    1.5753184 -0.0041629858    61.634589    25100.747 
 9500000   -204407.55    1.6993836 -0.00084008937    61.633423    25114.354 
 9505000   -204395.32    1.6601854 -0.00069545328    61.644044    25127.964 
 9510000   -204505.41    1.6747231 0.00035858115     61.59417     25141.54 
 9515000   -204287.29    1.6019849 0.0058872569    61.603919    25155.124 
 9520000   -204143.56     1.643756 0.00063417255    61.715964    25168.699 
 9525000   -204088.27    1.6041427 -0.0014720031    61.758797    25182.239 
 9530000   -204285.03    1.6385654 0.00082451296    61.722169    25195.732 
 9535000   -204273.76    1.5987373 -0.0016769132     61.76128    25209.266 
 9540000   -204229.76    1.6293406 -0.0018093342     61.74316    25222.879 
 9545000    -204177.9    1.6193969 0.0015412491    61.693386    25236.368 
 9550000   -204182.14    1.5988627 -2.5663528e-05    61.736924     25249.92 
 9555000    -204171.7    1.6643279 0.0040442429    61.742833    25263.456 
 9560000    -204375.8     1.639099 -0.00047140251    61.690521    25276.991 
 9565000   -204449.73    1.6428647  0.005406906     61.65176    25290.535 
 9570000   -204150.13    1.6311261 -0.0046110772    61.852378    25304.083 
 9575000   -204601.19    1.6278663 -0.005629836    61.680395     25317.64 
 9580000   -204503.44    1.6348283 0.0034107152    61.604899    25331.183 
 9585000   -204418.83    1.6196381 -0.0026297475    61.701963    25344.721 
 9590000    -204368.3    1.6612801 0.0027976339    61.651887    25358.247 
 9595000   -204361.36    1.6128365 -0.0037543171    61.752386    25371.762 
 9600000   -204478.66    1.6286878 -0.007387267    61.713836    25385.334 
 9605000   -204456.88     1.647023 0.0035772178    61.666125    25398.917 
 9610000   -204495.58    1.6498579  0.005948953    61.595769    25412.476 
 9615000   -204579.78    1.6563146 -0.00032048334    61.589082    25426.031 
 9620000      -204771     1.591613 0.0048219819    61.497727    25439.658 
 9625000    -204491.6    1.6898459 -0.0013781162    61.635874    25453.255 
 9630000   -204518.16    1.6422694 0.0013143153    61.579886    25466.826 
 9635000   -204353.63    1.6206557 -0.00032641498     61.70976    25480.391 
 9640000   -204130.24    1.6237883 -0.005175034    61.789872    25493.937 
 9645000   -204187.11    1.6194213 0.0020364188     61.75017    25507.479 
 9650000   -204069.66    1.6765858 -0.0027481117    61.820171    25521.021 
 9655000   -204219.25    1.6438468 0.0037196522    61.739654    25534.568 
 9660000   -204317.42    1.6592027 0.0039950375    61.652825    25548.103 
 9665000   -204106.16     1.681166 -0.0016199215    61.757881    25561.654 
 9670000   -204048.03     1.626151 0.0021233236    61.741674    25575.209 
 9675000   -204319.05    1.5781834 0.0020251052    61.691575    25588.755 
 9680000   -204229.02    1.6611225 -0.0026009495    61.702458    25602.324 
 9685000   -204281.96    1.6744301 0.00092624737    61.713377    25615.894 
 9690000   -204481.79    1.6601648 -0.0018068783    61.736503    25629.477 
 9695000   -204343.11    1.7244376 0.0054507562    61.716801    25643.022 
 9700000   -204292.93    1.6472366 -0.0012657476    61.727886    25656.562 
 9705000   -204365.05    1.6465132 0.0017118496    61.732242    25670.106 
 9710000   -204167.22    1.6393107 0.0015993656    61.713657     25683.67 
 9715000    -204275.8     1.583665 -0.0032829581      61.7962     25697.22 
 9720000   -204278.05    1.6346563 0.0046124423    61.618252    25710.789 
 9725000   -204378.25    1.6654604 0.0041726907    61.589361    25724.398 
 9730000   -204470.14     1.643676 -0.0049694704    61.722102    25737.999 
 9735000   -204409.49    1.6222079 0.0062771283    61.529866    25751.597 
 9740000   -204521.19    1.5964102 -0.0028943699    61.645925    25765.171 
 9745000   -204363.66     1.658854 -0.0021312885    61.699222    25778.771 
 9750000   -204475.66    1.6305667 -0.0080659598    61.693335    25792.348 
 9755000   -204585.93    1.6192297 -0.0036845609    61.638587    25805.952 
 9760000   -204464.14     1.663785 0.0055236607    61.628022     25819.55 
 9765000   -204579.84    1.6369597   0.00318509    61.582915    25833.135 
 9770000   -204489.61    1.6227695 -0.0018351688    61.693801     25846.76 
 9775000   -204304.08    1.6904456 -0.00021673445    61.719629    25860.336 
 9780000   -204581.56     1.690775 -0.00069395275    61.632787    25873.892 
 9785000   -204550.34    1.6261387 -0.0016689728    61.698147    25887.465 
 9790000   -204673.89    1.5745688 -2.6419708e-05    61.574816    25901.109 
 9795000   -204701.22    1.6311449 0.0074841747    61.441052    25914.734 
 9800000   -204700.68    1.6766499 -0.00055581392    61.577074    25928.398 
 9805000   -204571.11    1.6649663 -0.0038723039    61.709941    25942.027 
 9810000   -204448.81    1.5913353 0.00034715858    61.690485    25955.635 
 9815000   -204527.72    1.6512472 -0.0028076111     61.68081    25969.247 
 9820000   -204720.03    1.6716958 0.00042315468    61.562203    25982.839 
 9825000    -204356.9    1.5973106 -0.0015797488    61.714539    25996.452 
 9830000   -204545.39    1.6684011 -0.00097372337    61.753166    26010.027 
 9835000   -204648.01    1.6128888 0.0019643064     61.60753    26023.642 
 9840000   -204478.25    1.6195566 0.0011172025    61.651686    26037.213 
 9845000   -204770.95    1.6274798 0.00052322427    61.552867    26050.828 
 9850000    -204658.3    1.6424539 -0.00025032578    61.622744    26064.431 
 9855000   -204620.83    1.6517469 0.00090481727    61.549411    26078.062 
 9860000   -204519.83    1.6342314 -0.0023846651    61.588775    26091.701 
 9865000   -204424.01     1.640268 -0.0044338719    61.688918    26105.316 
 9870000   -204694.34    1.6791474 0.0049788752    61.497979    26118.972 
 9875000   -204737.49    1.6311098 -0.0016812193    61.568728    26132.632 
 9880000      -204804    1.6700373 -0.0026158342    61.545893    26146.244 
 9885000    -204732.1    1.6748359 0.0015632978     61.55925    26159.847 
 9890000    -204532.2    1.6310185 7.2159125e-05    61.567318    26173.457 
 9895000   -204559.49    1.6678243 0.00074087168    61.643688    26187.065 
 9900000   -204462.51    1.6205405 -0.0030338106    61.731955     26200.67 
 9905000    -204423.6    1.6192805 0.00067255949     61.73114    26214.187 
 9910000   -204072.34    1.6159613 -0.004105069    61.941579     26227.74 
 9915000   -204316.15    1.5734641 -0.00031843459    61.732128     26241.28 
 9920000    -204224.1     1.617042 0.0026293826    61.713933    26254.857 
 9925000   -204235.78    1.6833252  0.002845009    61.763048    26268.397 
 9930000   -204359.84    1.6180295 0.0014835577    61.705964    26281.906 
 9935000   -204280.73    1.6360096 0.0021413528    61.764213    26295.434 
 9940000   -204456.18    1.6454109 -0.00082133066    61.642608    26309.007 
 9945000   -204437.81    1.6405332 0.0054763854    61.664813    26322.573 
 9950000   -204528.81    1.6386948 0.00014851246    61.650125    26336.131 
 9955000   -204594.11    1.6048845 -0.0036769196    61.677081    26349.692 
 9960000   -204535.16    1.6664605 -0.00039429218    61.668573     26363.28 
 9965000   -204376.75    1.7111389  0.005867585    61.657589    26376.812 
 9970000   -204489.52    1.6524924 -0.0004452276    61.622202    26390.356 
 9975000   -204534.44    1.6499818 0.0010029258    61.585418      26403.9 
 9980000   -204503.22    1.6187243 0.0017610751    61.609049    26417.459 
 9985000   -204634.28    1.6693512 -0.0030903679    61.554573    26431.027 
 9990000   -204734.67    1.6351298 0.0050595458    61.499004    26444.624 
 9995000   -204562.22    1.6303084 0.00026291665    61.580351    26458.215 
10000000   -204704.08    1.6430145 0.0013927957    61.561576    26471.854 
10005000   -204680.02    1.6679861 -0.0017494079     61.57044    26485.468 
10010000   -204843.05    1.6328067 5.3422546e-05    61.535914    26499.079 
10015000   -204664.45    1.6258281 -0.0025658331    61.642565    26512.694 
10020000   -204886.04    1.6492995 -0.0051770798    61.595838    26526.283 
10025000   -205035.88    1.6708332 0.0052562785    61.463043    26539.923 
10030000   -204649.92     1.673777 -0.0022064081    61.568787    26553.536 
10035000   -204658.53    1.6220615 0.0018349334    61.550432    26567.113 
10040000   -204564.53    1.5862536 0.0034743944    61.569973    26580.738 
10045000   -204718.62    1.6618784 0.0006027476    61.596668    26594.318 
10050000   -204541.29    1.6525894 0.0028643169    61.565081    26607.902 
10055000   -204740.41    1.6403168 -0.00080166761    61.600225    26621.515 
10060000   -204395.74    1.6173468 0.00021061018    61.647524    26635.125 
10065000   -204462.16    1.6885622 -0.0036764862     61.71296    26648.675 
10070000   -204569.23    1.6617798 0.0051850525    61.592683    26662.256 
10075000   -204512.93     1.688677 0.0055869328    61.617018    26675.882 
10080000   -204607.86    1.6057488 -0.0034721523    61.660937    26689.476 
10085000   -204514.16    1.6599322 0.0039521098    61.606861    26703.084 
10090000   -204437.06    1.6296231 -0.0024461794    61.704261    26716.606 
10095000   -204572.48    1.6553043 0.0014405105    61.624218    26730.198 
10100000   -204559.53    1.6168126 0.0032735647    61.602037    26743.755 
10105000   -204489.49    1.6415073 0.00052560598     61.65438    26757.315 
10110000   -204524.59    1.6321968 -0.00036600712    61.643164    26770.887 
10115000   -204554.51    1.6133965 -0.0033396415     61.62176    26784.444 
10120000   -204525.43    1.6243884 -0.0037817531    61.645257    26798.004 
10125000   -204265.23     1.597458 -0.0018246066    61.702394    26811.578 
10130000   -204423.71    1.6307224 0.0031541688    61.633676     26825.11 
10135000   -204455.07     1.666236 0.0039591818    61.635653    26838.695 
10140000   -204423.49    1.6720501 0.0029706001    61.573215    26852.248 
10145000   -204346.16    1.6628846 0.00034458907    61.719155    26865.797 
10150000   -204367.08    1.6274442  -0.00421545    61.771581    26879.354 
10155000   -204379.72    1.6375498 0.0058809136    61.654136    26892.887 
10160000   -204303.15    1.6660014 0.0058276031    61.662097    26906.474 
10165000   -204466.17    1.6262392 -0.00048039644    61.688239    26919.985 
10170000   -204367.89    1.6537104 -2.0529062e-05    61.754221    26933.543 
10175000   -204477.15    1.5714903 0.0021120193    61.685189     26947.11 
10180000   -204328.28    1.6088422 -0.0019822383    61.789744    26960.721 
10185000   -204315.94     1.663307 0.00055595667    61.738757      26974.3 
10190000   -204125.46    1.6619041 -0.0024417068    61.750807    26987.885 
10195000   -204365.78    1.5902309 0.0011057176    61.690181    27001.435 
10200000   -204552.01    1.6425483  0.004524041    61.633092    27015.013 
10205000   -204380.83    1.6416299 -0.0021526576    61.711493    27028.603 
10210000   -204442.45    1.6478872 -0.0015694578    61.688746    27042.151 
10215000   -204522.48    1.6535838 0.0052679626    61.607869     27055.72 
10220000   -204400.98    1.5859631 -0.0029940681    61.693146    27069.292 
10225000   -204305.19    1.6425602 -0.0066409338    61.793102    27082.844 
10230000   -204511.91    1.6182762 0.0036211761    61.663101    27096.403 
10235000   -204463.95    1.6549586 0.0010480241    61.664462     27109.97 
10240000   -204419.26    1.5820536 -0.0015386493    61.675842    27123.546 
10245000   -204481.65    1.6859534 0.0038965802    61.651405    27137.142 
10250000   -204577.53    1.6528354 0.0044698715    61.564654    27150.698 
Loop time of 27150.7 on 8 procs for 10000000 steps with 2304 atoms

Performance: 31822.386 tau/day, 368.315 timesteps/s
94.5% CPU use with 8 MPI tasks x 1 OpenMP threads

MPI task timing breakdown:
Section |  min time  |  avg time  |  max time  |%varavg| %total
---------------------------------------------------------------
Pair    | 5016.7     | 5459.1     | 5695.5     | 292.7 | 20.11
Bond    | 0.90612    | 1.126      | 1.4153     |  16.1 |  0.00
Kspace  | 10869      | 10986      | 11113      | 101.7 | 40.46
Neigh   | 648.11     | 656.95     | 681.53     |  54.2 |  2.42
Comm    | 1164.3     | 1178.6     | 1194.6     |  26.0 |  4.34
Output  | 0.88632    | 0.91787    | 1.1348     |   8.6 |  0.00
Modify  | 6537.1     | 7948.3     | 8660.3     | 912.0 | 29.27
Other   |            | 919.8      |            |       |  3.39

Nlocal:        288.000 ave         294 max         282 min
Histogram: 1 1 0 1 0 3 0 0 1 1
Nghost:        6985.62 ave        7026 max        6946 min
Histogram: 2 0 2 0 0 0 1 0 1 2
Neighs:         0.00000 ave           0 max           0 min
Histogram: 8 0 0 0 0 0 0 0 0 0
FullNghs:      290356.0 ave      297356 max      283093 min
Histogram: 1 0 1 1 0 2 1 1 0 1

Total # of neighbors = 2322852
Ave neighs/atom = 1008.1823
Ave special neighs/atom = 0.0000000
Neighbor list builds = 73912
Dangerous builds = 0

## ----- deletion for small NPs and salt ----- ##
#    reset_timestep 0

#    label checking

#    compute     peatom    all   pe/atom
#    variable    exppe    atom    exp(2*c_peatom/${ttemp})
#    compute     aveS    small   reduce ave v_exppe
#    compute     aveCl   anion   reduce ave v_exppe
#    compute     aveNa   cation  reduce ave v_exppe

#    fix AVE all ave/time 5 ${repeat} ${freq} c_aveS c_aveCl file average.dat
#    thermo 10000
#    thermo_style custom step pe c_press lx cpu
#    thermo_modify norm no flush yes
#    fix AVE all ave/time 1 ${repeat} ${freq} c_aveS c_aveCl c_aveNa
#    variable    chempNP equal ${ttemp}*(ln(v_numS/vol)+ln(v_numCl/vol)*25+ln(f_AVE[1])+ln(f_AVE[2])*25)
#    variable    chempS  equal ${ttemp}*(ln(v_numNa/vol)+ln(v_numCl/vol)+ln(f_AVE[2])+ln(f_AVE[3]))
#    timestep 0.0005
#    run ${freq}

#    print "done! ChempNP= ${chempNP}" append potential.dat
Total wall time: 7:53:19
