LAMMPS (27 Oct 2021)
OMP_NUM_THREADS environment is not set. Defaulting to 1 thread. (src/comm.cpp:98)
  using 1 OpenMP thread(s) per MPI task
package gpu 0
package gpu 2 neigh no pair/only on
#Lammps gcmc code for electrolytes

## ----- Simulation times ----- ##
    variable t_nve      equal 50000             #nve/limit
    variable t_deform 	equal 50000            #nvt
    variable t_pressed 	equal 50000            #nvt
    variable t_relaxed 	equal 100000            #nvt
    variable t_eq 	equal 10000000           #nvt

    variable smallc	equal 10
    variable bigc	equal -80
    variable numB	equal 256
    variable numS	equal ${numB}*8
    variable numS	equal 256*8
#    variable numCl	equal ${numS}*${smallc}+${bigc}*${numB}

## ----- Environment setting ----- ##
    boundary p p p
    atom_style full

## ----- System Variables  ----- ##
    variable    ttemp       equal   $b          	#reduced temperature
    variable    ttemp       equal   1.78          	
    variable    ppress      equal   0			#osmetic pressure
    variable    cutoff_pppm equal   27.8	        #cutoff for the real part of pppm
    variable	ipress      equal   0.1

    variable    bigd        equal   10                      #LJ sigmas
    variable    smalld      equal   2
#    variable    Cl_d        equal   0.4
    variable    d_bs        equal   0.5*(${bigd}+${smalld})
    variable    d_bs        equal   0.5*(10+${smalld})
    variable    d_bs        equal   0.5*(10+2)
#    variable    d_sNa       equal   0.5*(v_smalld+v_Na_d)
#    variable    d_sCl       equal   0.5*(v_smalld+v_Cl_d)
#    variable    d_bNa       equal   0.5*(v_bigd+v_Na_d)
#    variable    d_bCl       equal   0.5*(v_bigd+v_Cl_d)
#    variable    d_NaCl      equal   0.5*(v_Na_d+v_Cl_d)

    variable    cut_small   equal   ${smalld}*1.122462	    #cutoffs for LJ
    variable    cut_small   equal   2*1.122462	    
    variable    cut_big     equal   ${bigd}*1.122462
    variable    cut_big     equal   10*1.122462
#    variable    cut_Na_d    equal   ${Na_d}*1.122462
#    variable    cut_Cl_d    equal   ${Cl_d}*1.122462
    variable    cut_bs      equal   ${d_bs}*1.122462
    variable    cut_bs      equal   6*1.122462
#    variable    cut_bNa     equal   ${d_bNa}*1.122462
#    variable    cut_bCl     equal   ${d_bCl}*1.122462
#    variable    cut_sNa     equal   ${d_sNa}*1.122462
#    variable    cut_sCl     equal   ${d_sCl}*1.122462
#    variable    cut_NaCl    equal   ${d_NaCl}*1.122462

## ----- Initialization and grouping ----- ##
    read_data config_fcc8.dat
Reading data file ...
  orthogonal box = (-80.000000 -80.000000 -80.000000) to (80.000000 80.000000 80.000000)
  2 by 2 by 2 MPI processor grid
  reading atoms ...
  2304 atoms
Finding 1-2 1-3 1-4 neighbors ...
  special bond factors lj:    0        0        0       
  special bond factors coul:  0        0        0       
     0 = max # of 1-2 neighbors
     0 = max # of 1-3 neighbors
     0 = max # of 1-4 neighbors
     1 = max # of special neighbors
  special bonds CPU = 0.002 seconds
  read_data CPU = 0.017 seconds

    set type 1 charge   ${bigc}    	#large NPs
    set type 1 charge   -80    	
Setting atom values ...
  256 settings made for charge
    set type 2 charge   ${smallc}       #small NPs
    set type 2 charge   10       
Setting atom values ...
  2048 settings made for charge
#    set type 3 charge   1       #Na+
#    set type 3 charge   -1      #Cl-

    mass    *   0.2
    mass    1   25.0

    group big       type 1
256 atoms in group big
    group small     type 2
2048 atoms in group small
#    group cation    type 3
#    group anion     type 3

## ----- Interaction setting ----- ##
    pair_style lj/cut/coul/long ${cut_big} ${cutoff_pppm} #lj/cut/coul/long/soft 2.0 0.5 5.0 ${cut_small} ${cutoff_pppm}
    pair_style lj/cut/coul/long 11.22462 ${cutoff_pppm} 
    pair_style lj/cut/coul/long 11.22462 27.8 
    #Between regular particles (4*5/2=10)
    pair_coeff  1   1   2.0     ${bigd}     ${cut_big}	        # big-big
    pair_coeff  1   1   2.0     10     ${cut_big}	        
    pair_coeff  1   1   2.0     10     11.22462	        
    pair_coeff  2   2   2.0     ${smalld}   ${cut_small}	    # small-small
    pair_coeff  2   2   2.0     2   ${cut_small}	    
    pair_coeff  2   2   2.0     2   2.244924	    
#    pair_coeff  3   3   2.0     ${Na_d}     ${cut_Na_d}		    # Na-Na
#    pair_coeff  3   3   2.0     ${Cl_d}     ${cut_Cl_d}       	# Cl-Cl
    pair_coeff  1   2   2.0     ${d_bs}     ${cut_bs}	        # big-small
    pair_coeff  1   2   2.0     6     ${cut_bs}	        
    pair_coeff  1   2   2.0     6     6.734772	        
#    pair_coeff  1   3   2.0     ${d_bNa}    ${cut_bNa}	        # big-Na
#    pair_coeff  1   3   2.0     ${d_bCl}    ${cut_bCl}	        # big-Cl
#    pair_coeff  2   3   2.0     ${d_sNa}    ${cut_sNa}       	# small-Na
#    pair_coeff  2   3   2.0     ${d_sCl}    ${cut_sCl}       	# small-Cl
#    pair_coeff  3   4   2.0     ${d_NaCl}   ${cut_NaCl}       	# Na-Cl
#    pair_modify pair lj/cut/coul/long shift yes
    pair_modify shift yes
    kspace_style	pppm	5.0e-4

## ----- Simulation setup ----- ##
    neighbor 1.2 bin
    neigh_modify delay 0 every 1 check yes #one 2000

    compute temp all temp
    compute press all pressure temp

    thermo 5000
    thermo_style custom step pe temp c_press lx cpu
    thermo_modify norm no flush yes

   # dump moldump all custom 50000 ${xyzname} id type q x y z

## ----- Thermalization of system ----- ##
    timestep 0.0002

    fix 1 all nve/limit 0.05
    fix 2 big langevin ${ttemp} ${ttemp} 0.2 1234567
    fix 2 big langevin 1.78 ${ttemp} 0.2 1234567
    fix 2 big langevin 1.78 1.78 0.2 1234567
    fix 3 small langevin ${ttemp} ${ttemp} 0.008 123456
    fix 3 small langevin 1.78 ${ttemp} 0.008 123456
    fix 3 small langevin 1.78 1.78 0.008 123456

    fix freeze big setforce 0.0 0.0 0.0
    fix zeromom all momentum 1 linear 1 1 1 angular
    run ${t_nve}
    run 50000

CITE-CITE-CITE-CITE-CITE-CITE-CITE-CITE-CITE-CITE-CITE-CITE-CITE

Your simulation uses code contributions which should be cited:

- GPU package (short-range, long-range and three-body potentials):

@Article{Brown11,
 author = {W. M. Brown, P. Wang, S. J. Plimpton, A. N. Tharrington},
 title = {Implementing Molecular Dynamics on Hybrid High Performance Computers - Short Range Forces},
 journal = {Comp.~Phys.~Comm.},
 year =    2011,
 volume =  182,
 pages =   {898--911}
}

@Article{Brown12,
 author = {W. M. Brown, A. Kohlmeyer, S. J. Plimpton, A. N. Tharrington},
 title = {Implementing Molecular Dynamics on Hybrid High Performance Computers - Particle-Particle Particle-Mesh},
 journal = {Comp.~Phys.~Comm.},
 year =    2012,
 volume =  183,
 pages =   {449--459}
}

@Article{Brown13,
 author = {W. M. Brown, Y. Masako},
 title = {Implementing Molecular Dynamics on Hybrid High Performance Computers â€“ Three-Body Potentials},
 journal = {Comp.~Phys.~Comm.},
 year =    2013,
 volume =  184,
 pages =   {2785--2793}
}

@Article{Trung15,
 author = {T. D. Nguyen, S. J. Plimpton},
 title = {Accelerating dissipative particle dynamics simulations for soft matter systems},
 journal = {Comput.~Mater.~Sci.},
 year =    2015,
 volume =  100,
 pages =   {173--180}
}

@Article{Trung17,
 author = {T. D. Nguyen},
 title = {GPU-accelerated Tersoff potentials for massively parallel Molecular Dynamics simulations},
 journal = {Comp.~Phys.~Comm.},
 year =    2017,
 volume =  212,
 pages =   {113--122}
}

@Article{Nikolskiy19,
 author = {V. Nikolskiy, V. Stegailov},
 title = {GPU acceleration of four-site water models in LAMMPS},
 journal = {Proceeding of the International Conference on Parallel Computing (ParCo 2019), Prague, Czech Republic},
 year =    2019
}

CITE-CITE-CITE-CITE-CITE-CITE-CITE-CITE-CITE-CITE-CITE-CITE-CITE

PPPM initialization ...
  using 12-bit tables for long-range coulomb (src/kspace.cpp:340)
  G vector (1/distance) = 0.11438956
  grid = 60 60 60
  stencil order = 5
  estimated absolute RMS force accuracy = 0.00041211524
  estimated relative force accuracy = 0.00041211524
  using double precision KISS FFT
  3d grid and FFT values/proc = 42875 28800
  generated 0 of 1 mixed pair_coeff terms from geometric mixing rule
Neighbor list info ...
  update every 1 steps, delay 0 steps, check yes
  max neighbors/atom: 2000, page size: 100000
  master list distance cutoff = 29
  ghost atom cutoff = 29
  binsize = 14.5, bins = 12 12 12
  1 neighbor lists, perpetual/occasional/extra = 1 0 0
  (1) pair lj/cut/coul/long/gpu, perpetual
      attributes: full, newton off
      pair build: full/bin
      stencil: full/bin/3d
      bin: standard
Per MPI rank memory allocation (min/avg/max) = 11.45 | 11.54 | 11.62 Mbytes
Step PotEng Temp c_press Lx CPU 
       0 1.7992005e+08            0    175.78446          160            0 
    5000   -68281.745    1.5728196 -0.0042593968          160    39.381421 
   10000   -73922.249    1.6556126 -0.0043333305          160    78.578773 
   15000   -78364.927    1.5526308 -0.0044106966          160    117.83804 
   20000   -82447.572    1.6340476 -0.0044307382          160    157.08464 
   25000   -86164.255    1.6147576 -0.004482015          160    196.34077 
   30000   -89686.437     1.583871 -0.0043712484          160    235.52934 
   35000   -93042.155    1.6021986 -0.0042770209          160    274.69708 
   40000   -96054.384    1.6105993 -0.0041730321          160     313.9287 
   45000   -98700.738     1.627844 -0.004094399          160    353.23516 
   50000   -101421.88    1.5598577 -0.0042489684          160    392.46782 
Loop time of 392.468 on 8 procs for 50000 steps with 2304 atoms

Performance: 2201.453 tau/day, 127.399 timesteps/s
99.7% CPU use with 8 MPI tasks x 1 OpenMP threads

MPI task timing breakdown:
Section |  min time  |  avg time  |  max time  |%varavg| %total
---------------------------------------------------------------
Pair    | 8.99       | 9.3469     | 9.7134     |  11.0 |  2.38
Bond    | 0.0065801  | 0.008092   | 0.0093848  |   1.0 |  0.00
Kspace  | 376.48     | 377.15     | 377.73     |   2.4 | 96.10
Neigh   | 0.061583   | 0.069849   | 0.077564   |   2.0 |  0.02
Comm    | 2.3517     | 2.6224     | 2.955      |  13.4 |  0.67
Output  | 0.00034295 | 0.00052914 | 0.0018088  |   0.0 |  0.00
Modify  | 2.7533     | 2.7905     | 2.8306     |   1.9 |  0.71
Other   |            | 0.4784     |            |       |  0.12

Nlocal:        288.000 ave         313 max         260 min
Histogram: 2 0 0 0 1 2 1 0 0 2
Nghost:        1331.62 ave        1353 max        1305 min
Histogram: 1 1 0 0 1 2 0 1 0 2
Neighs:         0.00000 ave           0 max           0 min
Histogram: 8 0 0 0 0 0 0 0 0 0
FullNghs:      16550.2 ave       18893 max       14131 min
Histogram: 2 0 0 1 0 3 0 0 0 2

Total # of neighbors = 132402
Ave neighs/atom = 57.466146
Ave special neighs/atom = 0.0000000
Neighbor list builds = 75
Dangerous builds = 0

#    compute     peatom      all     pe/atom
#    variable    exppe       atom    exp(2*c_peatom/${ttemp})
#    compute     aveS        small   reduce ave v_exppe
#    compute     aveCl       anion   reduce ave v_exppe
#    compute     aveNa       cation  reduce ave v_exppe
#    thermo ${every}
#    thermo_style custom step pe temp lx vol c_aveS c_aveCl c_aveNa cpu
#    thermo_modify norm no flush yes
#    variable    chempNP     equal   temp*(ln(2304/vol)+ln(18300/vol)*10+ln(c_aveS)+ln(c_aveCl)*10)
#    variable    chempS      equal   temp*(ln(5500/vol)+ln(18300/vol)+ln(c_aveNa)+ln(c_aveCl))
#    label checking
#    run ${every}
#    if "${chempNP}>${mu_np}" then 'print "ChempNP=${chempNP}; expel"' "jump gcmc.in checking" else 'print "done!"'

    fix deforming all deform 10 x final -33 33 y final -33 33 z final -33 33 remap x
    run ${t_deform}
    run 50000
PPPM initialization ...
  using 12-bit tables for long-range coulomb (src/kspace.cpp:340)
  G vector (1/distance) = 0.11438956
  grid = 60 60 60
  stencil order = 5
  estimated absolute RMS force accuracy = 0.00041211524
  estimated relative force accuracy = 0.00041211524
  using double precision KISS FFT
  3d grid and FFT values/proc = 42875 28800
  generated 0 of 1 mixed pair_coeff terms from geometric mixing rule
Per MPI rank memory allocation (min/avg/max) = 11.45 | 11.54 | 11.62 Mbytes
Step PotEng Temp c_press Lx CPU 
   50000   -101421.88    1.5598577 -0.0042489684          160            0 
   55000   -107855.41    1.6601422 -0.0036861461        150.6    42.073687 
   60000   -114957.13    1.6151576 -0.0040319493        141.2    84.319115 
   65000   -122453.22    1.5767429 -0.0041267451        131.8     126.4974 
   70000   -130256.86    1.5712742 -0.0035135137        122.4    168.75911 
   75000   -138269.08    1.6008243 -0.001995117          113    211.02835 
   80000   -146847.22    1.6383019 0.0015441997        103.6    253.34401 
   85000   -155516.57    1.5536211  0.012024617         94.2    295.81548 
   90000   -164278.64    1.5778862  0.033393456         84.8    338.45545 
   95000   -172561.79    1.6291531  0.075320715         75.4    381.32786 
  100000   -182324.34    1.6589394    0.1723379           66    424.57106 
Loop time of 424.571 on 8 procs for 50000 steps with 2304 atoms

Performance: 2034.994 tau/day, 117.766 timesteps/s
99.7% CPU use with 8 MPI tasks x 1 OpenMP threads

MPI task timing breakdown:
Section |  min time  |  avg time  |  max time  |%varavg| %total
---------------------------------------------------------------
Pair    | 9.8045     | 10.142     | 10.525     |   9.5 |  2.39
Bond    | 0.007251   | 0.0082808  | 0.0096456  |   0.9 |  0.00
Kspace  | 378.44     | 378.9      | 379.45     |   2.0 | 89.24
Neigh   | 0.79239    | 0.87338    | 0.96141    |   5.8 |  0.21
Comm    | 3.7067     | 4.0716     | 4.4058     |  10.7 |  0.96
Output  | 0.00089927 | 0.0051261  | 0.011435   |   5.3 |  0.00
Modify  | 25.408     | 27.821     | 29.878     |  32.7 |  6.55
Other   |            | 2.75       |            |       |  0.65

Nlocal:        288.000 ave         300 max         268 min
Histogram: 1 0 1 0 0 2 0 1 0 3
Nghost:        5848.12 ave        5886 max        5817 min
Histogram: 2 0 2 0 0 1 1 0 1 1
Neighs:         0.00000 ave           0 max           0 min
Histogram: 8 0 0 0 0 0 0 0 0 0
FullNghs:      233832.0 ave      245305 max      216788 min
Histogram: 1 0 1 0 2 0 0 1 0 3

Total # of neighbors = 1870654
Ave neighs/atom = 811.91580
Ave special neighs/atom = 0.0000000
Neighbor list builds = 336
Dangerous builds = 0

    unfix 1
#    unfix 2
    unfix freeze
    unfix deforming

    timestep 0.002

    fix 1 all   nph	            iso ${ipress} ${ipress} 1.0
    fix 1 all   nph	            iso 0.1 ${ipress} 1.0
    fix 1 all   nph	            iso 0.1 0.1 1.0
    run ${t_pressed}
    run 50000
PPPM initialization ...
  using 12-bit tables for long-range coulomb (src/kspace.cpp:340)
  G vector (1/distance) = 0.1206864
  grid = 32 32 32
  stencil order = 5
  estimated absolute RMS force accuracy = 0.00049681107
  estimated relative force accuracy = 0.00049681107
  using double precision KISS FFT
  3d grid and FFT values/proc = 9261 4096
  generated 0 of 1 mixed pair_coeff terms from geometric mixing rule
Per MPI rank memory allocation (min/avg/max) = 9.326 | 9.328 | 9.331 Mbytes
Step PotEng Temp c_press Lx CPU 
  100000   -182285.43    1.6589394   0.17395683           66            0 
  105000   -200054.79    1.8059574  0.096481631     61.96472    14.141539 
  110000    -201826.2    1.7952807  0.097483829     60.96812    28.514788 
  115000    -203303.5     1.796691   0.10002925    60.405875    43.037846 
  120000   -203846.95    1.7668094  0.097762869    60.236345    57.621926 
  125000   -204256.58     1.824571   0.10281167    60.055928    72.214656 
  130000    -204553.6    1.8337695   0.10171846    60.087556    86.834587 
  135000   -204566.68    1.8050253   0.10412877    60.085473    101.42906 
  140000    -204764.9    1.8251899   0.10511599    60.038067    116.05485 
  145000   -204915.33    1.7597038   0.10270461    60.024744    130.76283 
  150000   -204969.39     1.766356   0.10518059    60.027428    145.42481 
Loop time of 145.425 on 8 procs for 50000 steps with 2304 atoms

Performance: 59412.086 tau/day, 343.820 timesteps/s
97.5% CPU use with 8 MPI tasks x 1 OpenMP threads

MPI task timing breakdown:
Section |  min time  |  avg time  |  max time  |%varavg| %total
---------------------------------------------------------------
Pair    | 14.882     | 18.372     | 20.795     |  43.7 | 12.63
Bond    | 0.0045297  | 0.0050846  | 0.0064045  |   0.9 |  0.00
Kspace  | 66.308     | 66.937     | 67.487     |   5.1 | 46.03
Neigh   | 6.9768     | 7.1414     | 7.5532     |   6.8 |  4.91
Comm    | 5.9167     | 6.0618     | 6.1657     |   3.3 |  4.17
Output  | 0.00032859 | 0.00053527 | 0.001966   |   0.0 |  0.00
Modify  | 41.631     | 45.023     | 48.651     |  29.9 | 30.96
Other   |            | 1.884      |            |       |  1.30

Nlocal:        288.000 ave         294 max         285 min
Histogram: 1 2 1 2 0 1 0 0 0 1
Nghost:        7246.62 ave        7254 max        7237 min
Histogram: 1 0 1 0 1 1 1 1 1 1
Neighs:         0.00000 ave           0 max           0 min
Histogram: 8 0 0 0 0 0 0 0 0 0
FullNghs:      314072.0 ave      320955 max      310680 min
Histogram: 1 2 1 2 0 1 0 0 0 1

Total # of neighbors = 2512578
Ave neighs/atom = 1090.5286
Ave special neighs/atom = 0.0000000
Neighbor list builds = 778
Dangerous builds = 0
    unfix 1
    fix 1 all   nph	            iso ${ipress} ${ppress} 1.0
    fix 1 all   nph	            iso 0.1 ${ppress} 1.0
    fix 1 all   nph	            iso 0.1 0 1.0
    run ${t_relaxed}
    run 100000
PPPM initialization ...
  using 12-bit tables for long-range coulomb (src/kspace.cpp:340)
  G vector (1/distance) = 0.12140299
  grid = 30 30 30
  stencil order = 5
  estimated absolute RMS force accuracy = 0.00050110097
  estimated relative force accuracy = 0.00050110097
  using double precision KISS FFT
  3d grid and FFT values/proc = 8000 3600
  generated 0 of 1 mixed pair_coeff terms from geometric mixing rule
Per MPI rank memory allocation (min/avg/max) = 9.782 | 9.803 | 9.818 Mbytes
Step PotEng Temp c_press Lx CPU 
  150000   -204969.26     1.766356   0.10518566    60.027428            0 
  155000   -205018.51    1.7836529  0.095872608    60.119231     14.15713 
  160000      -205204    1.8005626  0.090330376    60.144488    28.351676 
  165000   -205236.27    1.7666882  0.089024605    60.168525    42.522918 
  170000   -205308.61    1.7469786  0.080195834    60.198885    56.680265 
  175000   -205223.11    1.7996784   0.07441011    60.302706    70.784476 
  180000   -204977.21    1.7659193  0.066936366    60.450776    84.889904 
  185000   -205141.08     1.769048  0.066172887    60.454544    98.979713 
  190000   -205040.27    1.8024229  0.060641446    60.526203    113.07274 
  195000   -204928.77     1.793552  0.056691344    60.621294    127.12033 
  200000   -205133.57    1.7845521  0.055387298    60.672997    141.24389 
  205000   -205099.91    1.7734323  0.043831713    60.734481    155.31543 
  210000   -204894.15    1.7573879  0.035325757     60.87348     169.3868 
  215000   -204814.76     1.756525  0.035255831    60.923254    183.46982 
  220000   -204816.38    1.7235477  0.031441354    61.018999    197.51081 
  225000   -204622.44     1.758135   0.02480312    61.157022    211.54708 
  230000   -204566.94    1.7890858  0.014243749    61.394551    225.56913 
  235000    -204295.4    1.7833527  0.012760717    61.466551    239.55066 
  240000   -204468.52    1.7826046  0.011601617     61.47857    253.49975 
  245000   -204241.49     1.819852 0.0055867804    61.612642    267.45093 
  250000   -204040.02    1.7593005  0.004154547    61.745541    281.29253 
Loop time of 281.293 on 8 procs for 100000 steps with 2304 atoms

Performance: 61430.679 tau/day, 355.502 timesteps/s
94.7% CPU use with 8 MPI tasks x 1 OpenMP threads

MPI task timing breakdown:
Section |  min time  |  avg time  |  max time  |%varavg| %total
---------------------------------------------------------------
Pair    | 54.213     | 58.804     | 64.329     |  42.0 | 20.90
Bond    | 0.0089568  | 0.010324   | 0.012737   |   1.2 |  0.00
Kspace  | 109.39     | 110.72     | 111.92     |   7.7 | 39.36
Neigh   | 14.038     | 14.332     | 14.944     |   8.7 |  5.10
Comm    | 11.849     | 12.17      | 12.371     |   5.0 |  4.33
Output  | 0.00062546 | 0.00095274 | 0.0032051  |   0.0 |  0.00
Modify  | 61.745     | 77.687     | 86.738     | 105.4 | 27.62
Other   |            | 7.57       |            |       |  2.69

Nlocal:        288.000 ave         290 max         286 min
Histogram: 2 0 1 0 0 1 0 3 0 1
Nghost:        6921.12 ave        6944 max        6898 min
Histogram: 2 0 0 1 1 0 1 2 0 1
Neighs:         0.00000 ave           0 max           0 min
Histogram: 8 0 0 0 0 0 0 0 0 0
FullNghs:      288332.0 ave      290851 max      285914 min
Histogram: 1 1 0 1 1 0 2 1 0 1

Total # of neighbors = 2306654
Ave neighs/atom = 1001.1519
Ave special neighs/atom = 0.0000000
Neighbor list builds = 1569
Dangerous builds = 0
    unfix 1

    timestep 0.001
    dump moldump all custom 10000 ${xyzname} id type q x y z
    dump moldump all custom 10000 r8f0_coulombic_1.78.lammpstrj id type q x y z
    fix 1 all   nph                 iso ${ppress} ${ppress} 1.0
    fix 1 all   nph                 iso 0 ${ppress} 1.0
    fix 1 all   nph                 iso 0 0 1.0
    run ${t_eq}
    run 10000000
PPPM initialization ...
  using 12-bit tables for long-range coulomb (src/kspace.cpp:340)
  G vector (1/distance) = 0.12073849
  grid = 30 30 30
  stencil order = 5
  estimated absolute RMS force accuracy = 0.00054389264
  estimated relative force accuracy = 0.00054389264
  using double precision KISS FFT
  3d grid and FFT values/proc = 8000 3600
  generated 0 of 1 mixed pair_coeff terms from geometric mixing rule
Per MPI rank memory allocation (min/avg/max) = 11.05 | 11.07 | 11.08 Mbytes
Step PotEng Temp c_press Lx CPU 
  250000   -204040.07    1.7593005 0.0041527099    61.745541            0 
  255000   -203831.03    1.7861175 -0.0023264531    61.875191    13.394462 
  260000   -203895.61    1.7762721 -7.5049134e-05    61.880309    26.766723 
  265000   -203909.44    1.8181892 -0.0024600653     61.96212    40.128355 
  270000   -203815.46    1.7835585 -0.0020012237    61.986408     53.51619 
  275000    -203743.3    1.8151979 0.0059800825    61.880049    66.896831 
  280000   -203387.65    1.7902057  0.002065049    61.999349     80.25617 
  285000   -203498.27    1.7456817 -0.0062348652    62.193154    93.569234 
  290000   -203245.77    1.8008266 -0.0021280162    62.208826       106.87 
  295000   -203259.49    1.7622742 -0.0082526696    62.303894    120.16642 
  300000   -203498.81    1.7940971 -0.0026279936    62.171526    133.47046 
  305000   -203271.61    1.7441838 0.00025698449    62.170982    146.75037 
  310000   -203220.75    1.7883345 0.00053870194     62.20746    160.03065 
  315000   -203089.63     1.799414 5.2286728e-05    62.258223    173.28505 
  320000   -203033.19    1.8004107 -0.005733581    62.367308    186.56549 
  325000   -203129.07    1.8082162 0.00039132658    62.285558      199.836 
  330000   -203001.34    1.7445991 0.0020966039    62.286746    213.12857 
  335000   -203017.22    1.7825469 0.0082880233     62.20072    226.38613 
  340000   -202775.33    1.8191566 -0.0014318616    62.366604    239.65829 
  345000   -203169.55    1.7429813 -5.1242468e-05     62.25156    252.94116 
  350000   -202898.82    1.7662856 -0.0019218137    62.364669    266.25082 
  355000   -202910.47    1.7080593 -0.004179064      62.3534    279.49155 
  360000   -202968.07    1.7735853 0.0040964576    62.248244    292.75256 
  365000    -202602.9    1.8002679 0.0025410085    62.377844     306.0541 
  370000   -202772.97    1.7643665 0.0051479077    62.400785    319.29514 
  375000   -202869.86    1.7241972 -0.0054139367    62.484741    332.54925 
  380000    -202588.7     1.810098 0.0010779487    62.464967    345.78499 
  385000      -202707    1.7558117  0.004293641    62.352596     359.0542 
  390000   -202720.93     1.779887 -0.0021398947    62.559647    372.32627 
  395000   -202515.56     1.781649 -0.0021841697     62.59756    385.55953 
  400000   -202495.89    1.7726549 0.0030643314    62.530135    398.82379 
  405000   -202191.71    1.7880303 -0.0010285612    62.710371    412.01684 
  410000   -202348.31    1.8020846 -0.00027016843    62.613223    425.19192 
  415000   -202491.45    1.7632267 -3.3635561e-05    62.582032    438.42428 
  420000   -202573.75    1.7639103 -0.0036028179    62.716824     451.6379 
  425000   -202412.24    1.7871338 -0.00060483927     62.59172    464.80896 
  430000    -202569.9    1.8018698 -0.0063138401    62.624195    478.02544 
  435000   -202650.37    1.8196269   0.00208525    62.569217    491.25159 
  440000   -202469.26    1.7568041 0.0057640829      62.5481    504.49387 
  445000   -202196.69    1.7515469 -0.0014244307    62.795203    517.65777 
  450000   -202272.56    1.7393455 7.5046952e-06    62.745069    530.82841 
  455000    -202241.9    1.8122315 -0.0017028762    62.716571    544.02017 
  460000   -202405.04     1.781817 -0.00084465775    62.663563    557.24594 
  465000   -202291.67    1.7132849 -0.0018258085    62.698556    570.40223 
  470000      -202268    1.7706752 0.0045335929    62.670401    583.59783 
  475000   -202135.67    1.7834484 0.0044012137    62.776435    596.75844 
  480000   -202213.73    1.7530926 -0.0044089516    62.939085    609.96794 
  485000   -202003.23    1.7182459 -0.0004802104    62.947077      623.101 
  490000    -202008.2    1.7344374 -0.0017741096    62.961431    636.25632 
  495000   -201936.44    1.7774156 0.0015736421    63.042747     649.3805 
  500000   -202028.41    1.7987539 0.00026441282    63.071839    662.50203 
  505000   -201965.42    1.8052039 -0.0010034814    63.038576    675.61052 
  510000   -201840.31    1.7809315 -0.0052568418    63.169091    688.73618 
  515000   -201572.19    1.7999732 -0.0016856564    63.254153    701.81528 
  520000   -201677.55    1.8289174 0.0066482306    63.183442    714.89013 
  525000   -201722.51    1.7951001 -0.0017829949    63.278844    727.98625 
  530000   -201506.41    1.7896947 0.00058458538     63.30323    741.07442 
  535000   -201489.99     1.707542 -0.0011297547    63.362213    754.14039 
  540000   -201533.92    1.7816152 0.0047519208    63.344451     767.1948 
  545000    -201437.1    1.8100623 -0.00041039951    63.491143    780.25388 
  550000   -201204.46    1.7549683 0.0060932416    63.436362    793.29477 
  555000   -201406.93    1.7777862 0.0085768577    63.400642     806.3665 
  560000   -201506.29    1.7761096 0.0081778815    63.476042    819.41897 
  565000   -201440.63    1.8167505 -0.0043625762    63.670934    832.46377 
  570000   -201410.08    1.8129488 -0.00088161809     63.70739    845.45287 
  575000   -201203.44    1.7947682 -0.0014805378    63.743731     858.4717 
  580000   -201127.57    1.8218719 -0.0014335476    63.856168    871.45051 
  585000   -201430.54    1.7960714 -0.0014931569    63.792792    884.46153 
  590000   -200977.52     1.817143 -0.00068572649    63.894831    897.46055 
  595000   -201189.73     1.832765 -0.00080851695    63.879323    910.47211 
  600000   -201088.22    1.7726532  -0.00453958    63.904457    923.44487 
  605000   -201168.57    1.7599637 -0.0041176039    63.946491    936.45276 
  610000   -201152.77    1.7943511 -0.0015968658     63.95542    949.45548 
  615000   -201005.61    1.7990689 -0.0016531601    64.098065    962.40628 
  620000   -201124.05    1.7803183 -0.0010805753    64.108011    975.30495 
  625000   -201012.27    1.7544166 -0.0021800957    64.244756    988.24201 
  630000   -200955.49    1.8146975 -6.2197751e-06    64.269746    1001.1549 
  635000   -200957.61    1.7695038 -0.0016925925    64.276535    1014.1081 
  640000   -200745.43    1.8066683 -0.004339552    64.495908    1026.9918 
  645000   -200951.33    1.7751291 -0.0016995539    64.543974     1039.878 
  650000    -201110.8    1.7323469 0.0031372386    64.520288    1052.7096 
  655000   -200821.39    1.7666324 -0.0010471223    64.522274    1065.6097 
  660000   -201055.68    1.7770901 0.0037178751    64.497421    1078.4577 
  665000    -200853.4    1.7946137 0.00025233351     64.58945    1091.3177 
  670000   -200706.13     1.826091 -0.0031552911    64.777185    1104.1628 
  675000   -200905.74    1.7446934 -0.0033705266    64.745069    1117.0127 
  680000   -200729.87    1.7025612 -0.0001620873    64.691562    1129.8465 
  685000   -200715.62     1.758791 0.0017269298    64.737798     1142.675 
  690000   -200766.66     1.822203 0.0035200745    64.738888    1155.5367 
  695000   -200579.38    1.7998352 -0.0018891191    64.865723     1168.385 
  700000   -200833.43    1.7482205 0.00087591125     64.79972    1181.2199 
  705000   -200542.84    1.7772474 9.0650885e-05    64.891638    1194.0695 
  710000   -200445.17     1.821859 0.00062107643    64.883991    1206.8886 
  715000   -200569.05    1.7790653 0.0010545825     64.86083    1219.7101 
  720000    -200800.8    1.8105497 -0.0019357559    64.962613    1232.5278 
  725000   -200843.17    1.7875607  0.002537755    64.879427    1245.3383 
  730000   -200690.64    1.8018347 -0.0044187011    64.927723    1258.1113 
  735000   -200919.72     1.789626 -0.00087262692    64.884663    1270.9463 
  740000   -200808.67    1.7524274 -0.00089779463    64.845244    1283.7303 
  745000   -200693.07    1.7647023 0.0019700663    65.001481    1296.5114 
  750000   -200700.58    1.7937246 -0.0038839746    65.084987    1309.3131 
  755000   -200625.87    1.8023529 0.0011592028    65.038075    1322.1038 
  760000   -200755.85    1.7479157 0.0029576313    64.942758    1334.9377 
  765000   -200700.97    1.7869301 0.00023878631    65.035726    1347.7582 
  770000   -200710.56    1.8376962 0.0038732672     65.04816    1360.5494 
  775000   -200428.33    1.8213819 0.0018901235    65.083049    1373.3536 
  780000   -200594.25     1.799742 0.0046800272    65.152786    1386.1324 
  785000   -200672.54    1.7135019 -0.00012353227    65.176291    1398.8837 
  790000   -200523.88    1.7498492 -0.0017537897     65.26227    1411.6733 
  795000   -200488.96    1.7767444 0.00085341173    65.220128    1424.4325 
  800000   -200552.96    1.7313381 -0.0033139011    65.215652    1437.1769 
  805000   -200876.49    1.8050073 0.00064061281    65.084235    1449.9404 
  810000   -200841.75    1.7752358 0.0027122864      65.0367    1462.7065 
  815000   -200653.94    1.7672451 -0.0011830715    65.205066    1475.5019 
  820000   -200777.07    1.7282395 0.0046769174    65.177027     1488.279 
  825000   -200730.61    1.8165501 -0.00021306301    65.270547    1501.0711 
  830000    -200643.8    1.7464218 0.0014077244    65.122955    1513.8306 
  835000    -200644.2    1.8068664 -0.0005810109    65.174997    1526.5926 
  840000   -200684.33    1.7899646 0.0041029459    65.099174    1539.3903 
  845000   -200527.69    1.7759863 0.00019776933    65.032186    1552.1437 
  850000   -200426.22    1.7333743 -0.0014326919    65.153154     1564.908 
  855000   -200414.47    1.7819381 -0.0070916756    65.201852    1577.6806 
  860000   -200730.88     1.754149 -0.0037376625    65.077533    1590.4818 
  865000   -200761.69    1.8374744 -0.00020094009    65.009058     1603.319 
  870000   -200564.06    1.7690373 -0.0029127982    65.119906    1616.1572 
  875000   -200560.64     1.801378 -0.0011729499    65.165398    1628.9347 
  880000   -200760.17     1.726735 -0.0016136979    65.062535    1641.6908 
  885000   -200585.75    1.7366358 -0.001049189    65.066956    1654.5037 
  890000   -200680.28    1.7304474 -0.0044608927    65.144355    1667.3059 
  895000   -200745.55     1.766328 -0.0013743687    65.182573    1680.0542 
  900000   -200705.66    1.7394755  -0.00430065    65.204942    1692.8523 
  905000   -200603.51    1.8028843 0.00042021351    65.171467    1705.6035 
  910000   -200626.98    1.7753466 -0.006759374    65.319813    1718.3629 
  915000   -200750.18    1.8026255 -0.0022997893    65.253444    1731.1143 
  920000   -200534.26    1.8112299 0.00038740399    65.201712    1743.8547 
  925000   -200604.06    1.8059572  0.000542887    65.238028    1756.6369 
  930000   -200654.42    1.8039996 0.0017272366    65.259532    1769.3604 
  935000    -200639.3    1.7809713 0.00089285113    65.139081    1782.0907 
  940000   -200773.45    1.7896365 -0.0011415192    65.225225    1794.8524 
  945000   -200634.65    1.7811052 -0.0027168861     65.23651    1807.5878 
  950000   -200655.98    1.8032706 -0.004641811    65.352395    1820.3858 
  955000   -200781.22    1.7758926 -0.00078526486    65.191461    1833.1013 
  960000   -200475.53    1.7784324 -0.00033992473    65.272017    1845.8886 
  965000   -200522.16     1.801126 0.0012855011    65.230856    1858.5958 
  970000   -200852.18    1.8100901 -0.0041260908     65.25798    1871.3434 
  975000   -200925.92    1.7494284 -0.00033274051    65.187196    1884.0618 
  980000    -200597.5     1.739497 -0.0019561496    65.296437    1896.8224 
  985000   -200645.55    1.7810795 0.0030818094    65.169863    1909.5709 
  990000   -200735.73    1.7576809 -1.0871953e-05     65.23093    1922.3249 
  995000   -200807.44    1.7424399 -0.00036585799    65.271768    1935.0615 
 1000000   -200667.06    1.7489683 -0.0043082269    65.338834     1947.789 
 1005000   -200654.86    1.7890435 0.00083564004    65.307585     1960.576 
 1010000   -200587.48    1.7877805 0.0010138879    65.419465    1973.3399 
 1015000   -200658.19    1.8351415 0.0016119016    65.322028    1986.0934 
 1020000   -200608.03    1.7861461 -0.0021501261    65.356509    1998.8523 
 1025000   -200570.84    1.8007324 0.0051443556    65.277526    2011.5832 
 1030000   -200693.68    1.7482705 0.0015662741    65.225375    2024.3788 
 1035000    -200750.8    1.7879052  0.002312047    65.228738    2037.1159 
 1040000   -200695.61    1.7906752 0.00093480908    65.245596    2049.8682 
 1045000   -200759.38    1.7562584 -0.0011869108    65.217396    2062.6098 
 1050000   -200577.08    1.7700707 0.0033178609    65.134087     2075.437 
 1055000   -200603.46    1.7726067 0.00022028885    65.215052    2088.2199 
 1060000   -200628.05    1.7734959 0.0015979351     65.20508    2100.9762 
 1065000   -200567.68    1.8021025 0.00054397727    65.255591    2113.7698 
 1070000   -200540.31    1.7344016 0.0018741145    65.139163    2126.5441 
 1075000   -200647.77    1.7840269 -0.0014713678    65.245465    2139.2618 
 1080000   -200577.49    1.8105758 0.0015187603    65.385263    2152.0366 
 1085000      -200579    1.8186852 -0.004137536    65.465474    2164.7782 
 1090000   -200634.43    1.7372699 -0.0022518893    65.361611    2177.5184 
 1095000   -200593.46    1.7311307 -0.00043389157    65.251602    2190.3182 
 1100000   -200796.16    1.8181629 0.0025544566     65.23543    2203.0613 
 1105000   -200633.46    1.7779588 -0.0033953126    65.291939    2215.8329 
 1110000    -200720.1    1.7736552 0.00012848348    65.226362    2228.6294 
 1115000    -200661.4    1.8331137 9.5085487e-05    65.260534    2241.3794 
 1120000   -200659.37    1.8063419 -0.0029999928     65.35901    2254.1669 
 1125000   -200618.58    1.7975829 -0.0015820381    65.375483     2266.892 
 1130000   -200726.71    1.7834463 0.0012826008    65.279177    2279.6313 
 1135000   -200793.29    1.8085669 -0.001821717    65.347694    2292.4232 
 1140000   -200837.24    1.7868169 -0.002685552    65.358465     2305.216 
 1145000   -200686.74     1.839133 -0.0037903371    65.444321    2317.9775 
 1150000   -200658.39    1.7851844 -9.7851975e-05    65.388466    2330.7799 
 1155000    -200852.6    1.7561873 0.0011205061    65.331212    2343.5189 
 1160000   -200622.09    1.7575401 -0.00049443083    65.370327    2356.2414 
 1165000   -200489.94    1.7553294 -0.0036509579    65.466551    2369.0042 
 1170000   -200497.28    1.7993724 0.0009267259    65.434507    2381.7301 
 1175000   -200595.02    1.7667848 -0.0022707271    65.422872    2394.4742 
 1180000   -200775.49    1.8516285 -0.0062590943    65.539708    2407.1946 
 1185000   -200528.84    1.8181727 -0.0029747974    65.420092    2419.9998 
 1190000   -200473.07    1.7792914 0.0017449881    65.400556    2432.7852 
 1195000   -200659.81    1.7679033 0.0040216738    65.255877    2445.5649 
 1200000   -200715.75    1.7944136 -0.0022264311    65.296776    2458.2955 
 1205000   -200682.31    1.7861023 -0.00088322529    65.309738      2471.06 
 1210000   -200962.43    1.7832744 0.00032718157    65.217104    2483.8238 
 1215000   -200668.42    1.7851947 -0.0020625975    65.304279     2496.591 
 1220000   -200746.77    1.8008095 0.00037073274    65.223692    2509.3573 
 1225000   -200611.52    1.7966563 0.00057734633    65.207311    2522.1488 
 1230000   -200708.46    1.7995509 0.0064342508    65.133179    2534.9368 
 1235000    -200704.7    1.7671314 -0.0054293685    65.334794    2547.6953 
 1240000   -200617.28    1.7950247 -0.0012571702    65.294151    2560.4779 
 1245000   -200654.33    1.7766827 -0.00085281393    65.213945    2573.2517 
 1250000   -200617.46    1.7969482 -0.0021816199     65.30147    2586.0446 
 1255000   -200758.24    1.7553681 0.0019953052    65.217546    2598.8197 
 1260000   -200544.15    1.7823567 -0.00020015464    65.315654    2611.5918 
 1265000   -200790.77    1.7405149 0.0011402469    65.134196    2624.3639 
 1270000   -200675.89    1.8318364 4.0801933e-06    65.197093    2637.1303 
 1275000   -200703.87     1.779976 -0.0010880347    65.230678    2649.9478 
 1280000   -200572.85    1.7531359 -0.0047709957    65.256185    2662.7582 
 1285000   -200665.19    1.7246787 -0.0012314596     65.14464    2675.5367 
 1290000   -200608.36    1.7522579 9.0594937e-05    65.201954    2688.3476 
 1295000   -200653.89     1.725681  -0.00581046    65.307405    2701.1221 
 1300000   -200620.07    1.7721887 0.0010621158    65.262564    2713.9042 
 1305000   -200742.76    1.7743149 -3.3918025e-05    65.192126    2726.6763 
 1310000   -200919.14    1.7647731 0.00086239573    65.147516    2739.4195 
 1315000   -200905.95    1.7239215 -0.0023102555    65.145314     2752.166 
 1320000   -200822.79    1.8012658 0.00049708437    65.110779    2764.9624 
 1325000   -200794.68    1.7867388 -0.0006219168    65.076957    2777.7286 
 1330000   -200880.73    1.7661967 -0.0026170399    65.152454    2790.5275 
 1335000   -200776.33    1.7535907 -0.0045461913    65.296859    2803.3135 
 1340000   -200824.16    1.7728508 0.0019193025    65.121379    2816.1301 
 1345000   -200747.61    1.8101746 0.0042529524    65.162889    2828.9099 
 1350000   -200993.38    1.7625026 -1.0450395e-05    65.167983    2841.7048 
 1355000   -200826.77    1.7593916 -0.0052507226    65.216648    2854.4698 
 1360000   -200932.41    1.7556978 -0.0024429415    65.190708    2867.2581 
 1365000   -200638.78    1.8198719 -0.00087347454    65.237547    2880.0357 
 1370000   -200709.01    1.7583138 0.0012413479    65.217006    2892.7946 
 1375000   -200785.32    1.6972439 -0.0058834069    65.281821    2905.5742 
 1380000   -200658.51    1.7621834 -0.0035226568    65.255965    2918.3736 
 1385000   -200515.42    1.7123948 0.0050180581    65.294454    2931.1267 
 1390000   -200566.51    1.7530586 -0.0020485239    65.424997     2943.881 
 1395000   -200536.02    1.7952358  0.001271127    65.307382    2956.6895 
 1400000   -200756.18    1.7557988 0.0025612001    65.291908    2969.4047 
 1405000   -200594.07    1.7369527 -0.0019098635    65.313047    2982.1982 
 1410000   -200730.42    1.7436133 -0.0075142841    65.332381    2994.9876 
 1415000   -200773.65    1.7434586 -0.0035940793    65.254409     3007.749 
 1420000   -200837.22    1.7570008  0.001852968    65.166306    3020.5494 
 1425000   -200795.85    1.8040281 -0.0020841814    65.168127    3033.3136 
 1430000   -200505.16    1.8319959 0.00026496697    65.287517     3046.106 
 1435000   -200685.09    1.7787377 0.00067677905    65.190449     3058.874 
 1440000   -200656.73     1.778035 0.00041896811    65.268336    3071.6132 
 1445000   -200762.68    1.7528919 -0.0041099765    65.317134    3084.3645 
 1450000   -200896.26    1.8022813 0.00095388592    65.159174    3097.1608 
 1455000   -200723.34    1.7939423 0.0020822103    65.232623     3109.958 
 1460000   -200645.99    1.7925548 -0.00016922782    65.160476    3122.7351 
 1465000   -200807.87    1.8184806 0.0021737824     65.17839    3135.5195 
 1470000   -200895.05    1.7988496 -0.0046725301    65.118057    3148.3192 
 1475000   -200959.97    1.7561142 0.0017444394    64.944034    3161.1297 
 1480000   -200813.57    1.8211755 -0.0029272046    65.040338    3173.9832 
 1485000   -200637.25    1.7528772 -0.0042066934    65.093078     3186.801 
 1490000   -200607.54    1.7952019 -0.00050240183    65.055906     3199.603 
 1495000   -200730.21    1.7829844 0.0034078447    64.924078    3212.3742 
 1500000   -200659.85    1.7851729 -0.0047239252    65.231631    3225.1643 
 1505000   -200680.14    1.8136585 -0.0040695568    65.179219    3237.9478 
 1510000   -200642.73    1.7709051 -2.1691639e-05     65.22134    3250.7736 
 1515000    -200699.2    1.7911622 -0.0011347991    65.213945     3263.555 
 1520000   -200602.37    1.7931446 0.00093462981    65.207425    3276.3104 
 1525000   -200886.41    1.7758548 0.0035563263    65.025705    3289.0898 
 1530000   -200837.39    1.8218606 -0.0027632527    65.144338    3301.8929 
 1535000   -200707.64    1.7623146 -0.0034847553    65.201109    3314.7522 
 1540000    -200748.3    1.8222534 0.00022119239    65.104798    3327.5179 
 1545000   -200670.82    1.7905624 0.00068901025    65.201939    3340.3035 
 1550000   -200657.44    1.8213228 -0.0015136607    65.243789    3353.0829 
 1555000   -200871.38    1.8327444 -0.00023105488    65.119394    3365.8236 
 1560000   -200601.79    1.8243796  0.001371966    65.144389    3378.6263 
 1565000   -200621.46    1.7598621 -0.0010509404    65.195036    3391.4124 
 1570000   -200477.64    1.7405938 0.0033400494    65.114961    3404.2269 
 1575000   -200706.72    1.8447217 0.00063517097     65.20198    3416.9976 
 1580000   -200727.55    1.7570375 0.0030525674    65.156482    3429.7837 
 1585000   -200634.39    1.7991649 0.0012356077    65.184763    3442.5556 
 1590000   -200583.63    1.8291671 -0.0067710634    65.285098    3455.3235 
 1595000   -200626.33    1.7778349 0.0010184544    65.089201    3468.1044 
 1600000    -200720.8    1.7812456 -0.00036125685    65.141911    3480.9101 
 1605000   -200621.65    1.7944044 0.0019399529    65.183626    3493.7126 
 1610000   -200850.35    1.7356737 0.0017929271     65.20106    3506.4581 
 1615000   -200517.48      1.68024 -0.0029403048    65.288696    3519.2503 
 1620000    -200720.3    1.8561123 0.0028971947    65.125021    3532.0283 
 1625000   -200501.49    1.7645207 -0.005809866    65.370725    3544.8199 
 1630000   -200607.27    1.7716468 -0.0021329634    65.424857      3557.58 
 1635000   -200614.73    1.7773834 0.0011894815    65.377369    3570.3305 
 1640000   -200396.12    1.7517226 0.0030255421    65.343855    3583.1014 
 1645000   -200686.39    1.7861753 7.9997039e-05    65.371285    3595.8318 
 1650000   -200649.53    1.7875605 0.00084597173    65.366441    3608.6294 
 1655000    -200602.6    1.7641166 0.0043970135    65.328267    3621.3709 
 1660000   -200733.86    1.7985861 -0.00091720939    65.338895    3634.1471 
 1665000   -200670.03    1.7829966 -0.0017632777    65.414469    3646.9049 
 1670000   -200900.59    1.7406004 0.0051146853    65.199412    3659.6333 
 1675000   -200678.08    1.8315346 0.0037016452    65.317581    3672.3982 
 1680000   -200821.65    1.8038247  0.001722415    65.361229    3685.2051 
 1685000   -200824.62    1.7737161 0.0024561267    65.266299    3697.9657 
 1690000    -200712.5    1.7478646 -0.0026891101     65.37369    3710.7017 
 1695000   -200746.22    1.7758096 -0.00050662277    65.371159    3723.4508 
 1700000   -200494.89    1.7464527 0.00065957371    65.373045     3736.213 
 1705000   -200747.03    1.7742927 -0.003617762     65.43951    3748.9685 
 1710000   -200738.05    1.8006941 0.00074997352    65.383759    3761.7233 
 1715000   -200730.77    1.8301282 0.0050395888    65.315897    3774.4985 
 1720000   -200648.26    1.7720609 0.0015540136    65.311743    3787.2667 
 1725000   -200540.03    1.7810206 -0.0013605689    65.292722    3800.0361 
 1730000   -200767.39    1.7940155 -0.0058660838    65.306458    3812.8558 
 1735000   -200716.61    1.7160996 -0.00065508626    65.260073    3825.6271 
 1740000   -200653.19    1.7472086 0.0019708426     65.20672    3838.4223 
 1745000    -200563.9    1.8332314 0.0011002617    65.263941    3851.2117 
 1750000   -200652.55    1.7677298 0.0040754729    65.186454    3863.9963 
 1755000   -200732.13    1.7856625 0.0010011462    65.131679    3876.7593 
 1760000   -200634.89    1.7363041 -0.000167655    65.281762    3889.5588 
 1765000   -200506.06    1.8004427 -0.00049162064     65.30739    3902.3132 
 1770000   -200648.64    1.7793729 0.0032730088    65.201983    3915.0815 
 1775000    -200464.3    1.7404791 0.0022181251    65.249713    3927.8377 
 1780000   -200795.07    1.7766015 0.0025262952    65.154067    3940.6016 
 1785000   -200594.58    1.7969421 -0.0022885855    65.278528    3953.3948 
 1790000   -200460.31    1.7908647 -0.0023883222     65.32664      3966.17 
 1795000   -200549.82    1.7778869 0.0025407232     65.20635    3978.9382 
 1800000   -200730.22    1.8047682 0.0029999856    65.047214    3991.7162 
 1805000   -200759.47    1.7430393 -0.0010223637    65.104785    4004.5073 
 1810000   -200617.95    1.7459986 -0.0044119507    65.214797     4017.267 
 1815000   -200669.54    1.7816335 -0.0032388521    65.233853    4030.0567 
 1820000   -200762.71    1.8016765 0.00078591535    65.105715    4042.8377 
 1825000   -200669.08    1.7765136 0.00045140943    65.155503    4055.6143 
 1830000   -200579.71     1.813191 -0.00066559254    65.261197    4068.3784 
 1835000   -200661.54    1.8205279 -0.0015137437     65.31235    4081.1375 
 1840000   -200652.48     1.818756 -0.0015095207    65.251995    4093.9227 
 1845000   -200694.91    1.8118649 -0.0022746246    65.280967     4106.707 
 1850000   -200563.83    1.7313946 -0.00065197799    65.161739     4119.464 
 1855000   -200594.84    1.8029359 0.0032165095    65.236551    4132.2231 
 1860000   -200594.24    1.7431249 -0.0028320684    65.355559    4144.9981 
 1865000   -200705.43    1.7987095 0.00035853579    65.251795     4157.695 
 1870000   -200610.36    1.7551288 0.00013109249    65.229968    4170.4634 
 1875000   -200636.84     1.735602 -0.00043704812    65.273361    4183.2163 
 1880000   -200522.45    1.7562596 0.00044759921    65.211817    4195.9827 
 1885000    -200664.3    1.7680648 -3.5214515e-05    65.131751    4208.7558 
 1890000   -200637.16    1.8180152 -0.0024700659    65.175892     4221.517 
 1895000   -200612.43    1.7584897 -0.0017037515    65.180304    4234.3368 
 1900000   -200527.11    1.7682281 -0.0014428718    65.156953    4247.1372 
 1905000   -200695.93    1.7882967 0.0047982916    65.051488    4259.9104 
 1910000   -200708.18    1.7864871 -0.00020014417    65.119989     4272.675 
 1915000   -200621.78    1.7812701 -0.0012088877    65.211527    4285.4456 
 1920000   -200664.31    1.7729121 0.0029308182    65.153342    4298.2117 
 1925000   -200513.58    1.8303874 0.0050235366    65.063487    4310.9644 
 1930000   -200458.63    1.7556385 2.2536294e-05    65.192768    4323.7583 
 1935000   -200601.38    1.7369829 -0.0021807756    65.257295    4336.5262 
 1940000   -200764.33    1.7814808 -0.00022650011    65.201008       4349.3 
 1945000   -200676.26    1.7860214 -0.0018877557    65.215755    4362.0472 
 1950000   -200412.21    1.7736477 -0.0004281816    65.323321    4374.7929 
 1955000   -200641.78    1.8014568 -0.0029640505    65.236923    4387.5797 
 1960000    -200599.2     1.795193 0.00083927945    65.268007    4400.3629 
 1965000   -200589.99    1.6640762 0.00081614972    65.146181    4413.0996 
 1970000   -200650.76    1.7971339 -0.00017712468    65.257413    4425.8489 
 1975000   -200599.35    1.8176501 -0.0056513654    65.355933    4438.6725 
 1980000   -200563.29    1.7731035 0.0092495532    65.132328    4451.4466 
 1985000   -200607.66    1.7378336 0.0075394618     65.17644    4464.2335 
 1990000   -200775.11    1.7819954 0.0025972343    65.209153     4477.013 
 1995000   -200548.31    1.7253327 -0.0011116285    65.361992    4489.7817 
 2000000   -200795.86    1.7545015 -0.0031231077    65.315092    4502.5278 
 2005000   -200562.34    1.7393855 -0.0020995188    65.361933    4515.2923 
 2010000   -200564.68    1.8205079 -0.0022356283    65.377162    4528.0523 
 2015000   -200732.14    1.7843421 0.00034318165    65.270033    4540.8244 
 2020000   -200695.89    1.7270433 -0.0028365852    65.268813    4553.5913 
 2025000   -200623.99    1.7616629 0.0044313918     65.17963    4566.3475 
 2030000   -200505.51    1.7287604 -0.0010967737    65.325407    4579.1354 
 2035000   -200575.73    1.8464257 -0.0018701303    65.283649    4591.9101 
 2040000   -200271.87    1.8145447 0.0010047605     65.32923    4604.7082 
 2045000   -200447.29    1.7599278 0.0029848864     65.27645    4617.4762 
 2050000   -200579.86    1.8162901 -0.0010561645    65.265765    4630.2703 
 2055000   -200411.16      1.74895 -0.0051058668    65.396114    4643.0278 
 2060000   -200445.62    1.7987737 -0.0015467918    65.344386    4655.8072 
 2065000   -200558.91    1.8519526 -0.0033087808    65.336042    4668.6036 
 2070000    -200510.3    1.8504372 -0.00024312951    65.257433    4681.3637 
 2075000    -200653.5    1.7477872 0.0013486888     65.16658     4694.173 
 2080000   -200660.84    1.7389055 0.0025401094    65.152938    4706.9212 
 2085000   -200650.92    1.7729565 0.0012346076    65.205308    4719.6746 
 2090000   -200794.94    1.8123907 -0.0014950938    65.320622    4732.4511 
 2095000   -200536.91    1.7602437 -0.0013664214    65.408322    4745.2439 
 2100000    -200779.9    1.7935133 0.0028104387    65.197775    4758.0273 
 2105000   -200551.65    1.8266378 -0.0026846681    65.363435    4770.7555 
 2110000    -200525.8    1.7747546 0.00015204335    65.246235    4783.5243 
 2115000    -200741.7    1.7180026 5.2744933e-05    65.242475    4796.2978 
 2120000   -200612.89    1.8058395 0.00020513972    65.352598    4809.0569 
 2125000   -200542.24    1.8027603 -0.0067045169    65.453738    4821.8144 
 2130000   -200560.74    1.7986355 -0.0020003126    65.253625    4834.6312 
 2135000   -200662.48    1.7987296 -0.00062509833    65.228676    4847.4205 
 2140000    -200781.3    1.7811065 -0.00031979538    65.241913     4860.189 
 2145000    -200491.3    1.8252298 -0.00028579701    65.240798    4872.9585 
 2150000   -200566.41    1.7690825 -0.00082564955    65.320723    4885.7464 
 2155000   -200644.69    1.7794482 0.00045520343     65.32518    4898.4798 
 2160000   -200590.12    1.7895864 -0.0027480379     65.41482    4911.2463 
 2165000   -200637.16    1.7893051 -0.0027116447    65.354675    4923.9984 
 2170000   -200737.96    1.7824041 -0.00081201272    65.238123    4936.7938 
 2175000   -200758.07     1.737374 0.00088087703    65.210438    4949.5378 
 2180000   -200722.79    1.7804779 -0.00097752723    65.161016    4962.3302 
 2185000   -200586.33    1.8157456 -0.0036563373    65.318592    4975.1257 
 2190000   -200591.15    1.7588253 -0.0041189463    65.427246    4987.8853 
 2195000   -200667.99    1.8083296 -0.0025805902    65.339429     5000.664 
 2200000   -200532.42    1.7575154 -0.0036579006    65.383489    5013.4383 
 2205000   -200587.21    1.7783721  0.001153436    65.285298    5026.1473 
 2210000   -200765.62     1.772226 0.0042408811    65.122824    5038.9097 
 2215000   -200606.71    1.8092565 0.0029604015    65.155283    5051.6559 
 2220000   -200806.84    1.8226265 0.0061443018    65.077008    5064.4304 
 2225000   -200697.99    1.8101605 0.0019566966    65.166584    5077.1828 
 2230000    -200489.5    1.7977406 -0.00060510896    65.306951    5089.9251 
 2235000    -200755.8    1.7672569 -0.0007617159    65.314346    5102.7388 
 2240000   -200891.72    1.8065618 0.0029040993     65.18735    5115.4731 
 2245000   -200694.71    1.8041951 0.0030026269    65.204846    5128.2115 
 2250000   -200784.63    1.7236585 0.0036951426    65.053928    5140.9501 
 2255000   -200647.96    1.7910782 0.0017750944    64.978303    5153.7464 
 2260000   -200700.66    1.7574669 -0.0016141345    65.213124    5166.5664 
 2265000   -200590.91    1.7489869 -0.00026074678    65.158932     5179.346 
 2270000   -200626.66    1.7862585 -0.0037833202    65.254204    5192.1307 
 2275000   -200687.49    1.7632865 -0.0037013837    65.297471    5204.9167 
 2280000   -200692.52    1.8322369 0.0015338156    65.031296    5217.7078 
 2285000   -200397.69    1.7726627 -0.0017945351    65.273856     5230.487 
 2290000   -200705.57     1.777842 -0.00053080881    65.174455    5243.2644 
 2295000   -200848.21    1.8061325 0.0025871365    65.113296    5256.0448 
 2300000   -200533.46    1.7759102 -0.00096754542    65.259762    5268.8119 
 2305000   -200512.91    1.7759144 0.0049395833    65.180357    5281.5901 
 2310000    -200537.3    1.7976334 -0.0043597796    65.373767    5294.3112 
 2315000   -200614.29    1.7617033  0.001657725    65.302203    5307.0885 
 2320000   -200673.02    1.8031367 0.00048558125    65.349876    5319.8317 
 2325000   -200679.55    1.7778186 -0.00021670699    65.261781    5332.5637 
 2330000   -200515.42    1.7844845 0.0010055565    65.238341    5345.3437 
 2335000   -200618.43    1.7800202 -0.0016451781    65.319302    5358.0973 
 2340000   -200636.03    1.7788076 0.0027205064    65.169969    5370.8734 
 2345000   -200518.91    1.8099384 0.0053095978    65.200702    5383.6506 
 2350000   -200593.56    1.8097992 -0.0023482626    65.300392    5396.4308 
 2355000   -200942.74    1.7881796 -0.0015647846    65.238638    5409.2304 
 2360000   -200633.68    1.7924938 -0.0023508952    65.324783    5421.9852 
 2365000   -200726.38    1.7825264 -0.0034999162    65.259298    5434.7441 
 2370000   -200719.61    1.7811102 -0.0013161448    65.248991    5447.4931 
 2375000   -200675.56    1.8016647 -0.0022299756    65.342774    5460.2555 
 2380000   -200793.87    1.7423892 0.0043352904    65.128831    5473.0083 
 2385000   -200766.33    1.8001116 -0.0024981083    65.260279    5485.7396 
 2390000   -200764.69    1.7495111 0.00038880613    65.254572    5498.4959 
 2395000   -200687.53    1.8013844 0.0049212119    65.159331    5511.2513 
 2400000   -200769.01    1.7532144 -0.0004576118    65.180805    5523.9856 
 2405000   -200720.33    1.7582013 -0.0045149227    65.218328    5536.7433 
 2410000   -200712.87    1.7603406 0.0072240745     64.97769    5549.5369 
 2415000   -200674.32    1.7509988 0.0028629571    64.958322    5562.3524 
 2420000   -200749.26    1.8249787 0.0012937056    65.033475    5575.1386 
 2425000   -200672.13    1.8571782 -0.0024805408     65.06658    5587.9583 
 2430000   -200643.28    1.7431082 0.0013059554    65.044041    5600.7856 
 2435000    -200700.3    1.8468512 0.00099042092    65.022981    5613.5741 
 2440000   -200746.22    1.7958861 0.00083931911    65.083087     5626.369 
 2445000   -200707.43    1.7219291 -3.8764384e-05    65.143923    5639.1428 
 2450000   -200718.97     1.755095 0.0012920943    65.095486    5651.9355 
 2455000   -200717.99    1.7475737 0.0016887064    65.053816     5664.694 
 2460000   -200710.75    1.7610843 -0.0035157794    65.136929    5677.5162 
 2465000   -200927.07    1.8006591 -4.9666734e-05    65.069704     5690.281 
 2470000   -200708.91    1.7718049 -0.0018121258    65.141821    5703.0264 
 2475000   -200756.61    1.7135453 -0.0047657469    65.224305    5715.8589 
 2480000    -200739.1    1.7839375 0.00080874939    65.184998    5728.6336 
 2485000   -200683.59    1.7493768 0.0028218292    65.167645    5741.3932 
 2490000   -200877.15    1.7770167 0.0031008895    65.203601    5754.1572 
 2495000      -200448    1.7689775 -0.0065357561    65.391476    5766.9236 
 2500000   -200732.57    1.8238411 -0.0028536793    65.279444    5779.6878 
 2505000   -200562.06    1.8054789 0.0012535375    65.315331    5792.4779 
 2510000   -200658.76    1.8146195 0.0015876718    65.276872    5805.2536 
 2515000   -200642.42    1.7809094 -0.00042368813    65.285066    5818.0046 
 2520000   -200750.46    1.8167114 -0.00055073517    65.177855    5830.7321 
 2525000   -200560.87    1.7486076 -0.00018661252     65.25778    5843.4769 
 2530000   -200785.01    1.7451445 -0.0060200245    65.304797    5856.2306 
 2535000    -200664.8     1.771694 -0.0024459498    65.227689    5869.0022 
 2540000   -200648.87    1.8132309 -0.0050540152    65.281547    5881.7528 
 2545000   -200676.13    1.7722342 -0.001122869    65.266422    5894.5124 
 2550000   -200635.63     1.744526 0.0011101022    65.223731    5907.2606 
 2555000   -200626.23    1.7958612 -0.0013010301    65.274798    5920.0108 
 2560000      -200447    1.7737502 -0.0019627114    65.298857    5932.7508 
 2565000   -200812.19     1.805787 0.0065484929    65.062175     5945.523 
 2570000      -200667    1.8147626 -0.0062208807    65.342079    5958.2797 
 2575000   -200535.22    1.7750308 -0.0020243424    65.350183    5971.0186 
 2580000   -200567.67    1.7606355 -0.0021085098     65.35487    5983.7619 
 2585000   -200636.36     1.781857   0.00126513     65.23641    5996.4925 
 2590000   -200716.62    1.7526707 0.00049062389    65.324235    6009.2821 
 2595000   -200542.19    1.7971594 -0.001180692    65.389383    6022.0358 
 2600000   -200636.32    1.8153724 -0.00090450375    65.334865    6034.7486 
 2605000   -200760.42    1.7934771 0.0068326267    65.151484    6047.5148 
 2610000   -200715.89    1.7584189 -0.00077706918    65.107973    6060.2397 
 2615000   -200493.18     1.759657 -0.0011956717    65.208364    6073.0025 
 2620000   -200635.29    1.8088631 -0.00044381746    65.189034      6085.74 
 2625000   -200844.06    1.8101111 0.0013448686    65.288221    6098.4771 
 2630000    -200558.4    1.8084331 0.0024863631    65.312839    6111.2026 
 2635000   -200568.63    1.7920566 0.0019477444    65.348978    6123.9569 
 2640000   -200429.48    1.7855846 0.0028632727    65.346571      6136.69 
 2645000   -200642.25    1.8281212 -0.00085181615    65.426238    6149.4326 
 2650000   -200503.55    1.7741657 -0.00077313905    65.317658    6162.1933 
 2655000   -200650.99    1.7789842 -0.0082840471    65.354219    6174.9481 
 2660000   -200588.98    1.7941257 -0.0009102863    65.362486    6187.7175 
 2665000   -200509.12    1.7705917 0.0030815635    65.401099    6200.4473 
 2670000   -200660.45    1.7999816 0.0024999212    65.269837    6213.2119 
 2675000   -200603.41     1.791992 -0.0020258886    65.363549    6225.9446 
 2680000   -200622.24    1.7701474 -0.00027348068    65.353773    6238.6669 
 2685000   -200378.53    1.8023408 -0.0013025681    65.375877    6251.3931 
 2690000   -200581.58    1.7053257 -0.003824756    65.332962    6264.1694 
 2695000   -200530.22    1.7714899 -0.003175781    65.336429    6276.9253 
 2700000      -200625    1.7645459 -0.0032346693    65.211966    6289.6525 
 2705000   -200663.14    1.7423698 -6.0388337e-05    65.113154    6302.4196 
 2710000   -200488.57    1.7856161 -0.0034399097    65.206152    6315.2102 
 2715000   -200780.98    1.7667078 -0.0018697945    65.146174    6328.0052 
 2720000    -200768.5    1.7803795 0.0017602004    65.112656    6340.7476 
 2725000   -200844.62    1.7490373 0.0021840581    64.956994    6353.5067 
 2730000   -200773.69    1.7936991 0.0028422392    64.994249    6366.3069 
 2735000   -200788.63    1.7654299 -0.00013809358    65.082829    6379.0944 
 2740000   -200703.14    1.7682058 0.0047640531    65.023591    6391.8536 
 2745000   -200680.93    1.7288678 2.4047842e-05    65.117439    6404.6403 
 2750000   -200710.28    1.8070097  0.001692279    65.012951    6417.4123 
 2755000   -200749.39     1.705787 0.00017767103    65.098714    6430.2035 
 2760000   -200530.33    1.8193072 0.0056511635    65.068801    6442.9619 
 2765000   -200878.13    1.7800267 0.0010837185    65.084461    6455.7573 
 2770000    -200737.2    1.7208263 0.0003768814    65.128441    6468.5557 
 2775000   -200760.34    1.7909241 0.0014037038    65.110257    6481.2966 
 2780000    -200710.7    1.8002412 -0.0023982131    65.170274    6494.0617 
 2785000   -200759.85    1.8331249 0.0029380857    65.142573     6506.826 
 2790000   -200810.01    1.8189313 -0.0019494484    65.218027    6519.5779 
 2795000    -200674.9    1.7778351 -0.00028683507    65.230288    6532.3075 
 2800000   -200703.72    1.7762361 0.0040115813    65.251975     6545.081 
 2805000   -200682.14    1.7503923 -0.0011865923     65.22026    6557.8288 
 2810000   -200588.47    1.7874239  0.002936291    65.134361    6570.5828 
 2815000   -200579.13    1.8168221 0.0010352153    65.154106    6583.3759 
 2820000   -200627.42    1.8135641 0.00038612412     65.27166    6596.1661 
 2825000   -200578.78    1.7696234 -0.0047654049    65.309166    6608.9057 
 2830000   -200670.34    1.7581849  0.004903961    65.113492    6621.6703 
 2835000   -200760.15    1.7737322 0.0057399973    65.043702    6634.4095 
 2840000   -200539.25    1.7936123  0.002448525     65.18901    6647.1692 
 2845000   -200669.89    1.7992614 0.0068122465    65.157928    6659.9253 
 2850000   -200648.18    1.7908753 -0.0052184859    65.451018    6672.6995 
 2855000    -200752.9     1.768941 0.0028113125    65.354546    6685.4702 
 2860000   -200879.17    1.8076617 0.0041564986    65.178668    6698.2549 
 2865000   -200727.68    1.7458498 0.0019919513    65.279886    6711.0373 
 2870000   -200645.52     1.737009 -0.0026413791     65.32733    6723.8092 
 2875000   -200518.66    1.7266321 0.00090927018    65.258269    6736.5839 
 2880000   -200646.32    1.7950286 -0.00014084209    65.266394    6749.3554 
 2885000   -200789.92    1.8287499 -0.0025264804    65.378838    6762.1139 
 2890000   -200529.87    1.8278916 -0.0049679789    65.376732    6774.8511 
 2895000   -200613.22    1.7407491 0.0027826929    65.297108    6787.6029 
 2900000    -200514.4    1.7507894 0.00043960147    65.297721    6800.3925 
 2905000   -200443.16    1.7919395 -0.0033756578    65.378657    6813.1341 
 2910000   -200523.82    1.8016918 -0.0044783281      65.4527     6825.897 
 2915000   -200688.51    1.7846624 0.0019094648     65.37796    6838.6266 
 2920000   -200649.06    1.8021894 -0.00060718736    65.357035    6851.3538 
 2925000   -200516.29    1.7950229 -0.0018648982    65.374055    6864.0862 
 2930000   -200691.87    1.8403635 -0.0036156766    65.320044    6876.8712 
 2935000   -200670.95    1.7640195 -0.0031972944    65.407067    6889.6424 
 2940000   -200643.24    1.8019166 0.00040524966     65.26153    6902.4031 
 2945000   -200581.76    1.7856094 -0.0039042601    65.266782    6915.1656 
 2950000   -200681.68    1.8277765 0.0035754541    65.219922    6927.9097 
 2955000   -200543.48    1.7786116 -0.0066790652    65.431558    6940.6284 
 2960000   -200431.35    1.7446946 -0.002381273    65.406323    6953.3963 
 2965000   -200584.66    1.8291785  0.002924449    65.297645     6966.119 
 2970000   -200610.66    1.8139696 -0.0040776535    65.478392    6978.8523 
 2975000   -200696.01    1.7879355 -0.0011977715    65.408356    6991.5916 
 2980000    -200678.3    1.7648879 0.0015237403    65.227716    7004.3874 
 2985000   -200840.32    1.7499535 -0.0028696079    65.276017     7017.157 
 2990000   -200764.15    1.7947197  0.001003109    65.204841     7029.908 
 2995000   -200721.09    1.7681002 -0.0017952099    65.230258      7042.67 
 3000000   -200543.46     1.826188 -0.00090683649    65.272802    7055.4683 
 3005000   -200553.01    1.7686734 0.0017447425    65.248157    7068.2425 
 3010000    -200576.6     1.786643 0.0013044795     65.28441    7081.0279 
 3015000   -200579.75    1.7835803 0.0012622357    65.302112    7093.7442 
 3020000   -200707.99     1.805142 0.0012077527    65.235183     7106.533 
 3025000   -200634.59    1.7693043 0.00041764826    65.352125    7119.2591 
 3030000   -200729.44    1.7749007 0.0033501721    65.247428     7131.992 
 3035000   -200538.79     1.850547 -0.00051460139    65.396444    7144.7363 
 3040000   -200697.04    1.7280925 0.0043650735    65.246173     7157.463 
 3045000   -200625.46    1.7054839 0.0026286362    65.317063    7170.2663 
 3050000   -200685.72    1.8389337 0.0017121868    65.218166    7182.9793 
 3055000   -200626.37    1.7729196 0.0010857657    65.237045     7195.749 
 3060000   -200650.97    1.7480837 -0.00015983411    65.316906    7208.4773 
 3065000   -200636.23    1.7484636 -0.0034779358    65.282535    7221.2382 
 3070000   -200800.98    1.8017428 0.00095978718    65.153762    7233.9837 
 3075000   -200604.91    1.7751847 0.0026325094    65.177062    7246.7798 
 3080000   -200709.84     1.766325 0.00029791989    65.206845    7259.5545 
 3085000   -200500.44    1.7784447 -0.0014009091     65.37163    7272.3137 
 3090000   -200860.06    1.7327174 0.00036895892    65.170623    7285.1183 
 3095000   -200803.43    1.8019512 -0.0027485203    65.120502    7297.9333 
 3100000   -200660.77    1.8493955 0.00071176999       65.137    7310.7024 
 3105000   -200515.34    1.8026315 -0.00088127836    65.341163    7323.4543 
 3110000   -200848.11    1.7304479 0.00044546458    65.250584    7336.2642 
 3115000   -200607.11    1.8074916 0.0011060676    65.296725    7349.0409 
 3120000   -200462.87    1.7328223 -0.0056440678    65.374516    7361.7886 
 3125000   -200631.17    1.8050357 0.00033101434    65.189511    7374.5581 
 3130000   -200582.77    1.8240048 0.00045948619    65.215343    7387.3627 
 3135000   -200577.41    1.7608507 -0.0050159502     65.22676    7400.1734 
 3140000   -200641.47    1.8092007 0.0024647821    65.166867    7412.9527 
 3145000   -200691.52     1.777159 -0.0057674469    65.349026    7425.7056 
 3150000   -200456.77    1.7721221 -0.00034371121    65.397977    7438.4992 
 3155000   -200499.14    1.7576321 -0.00067418122    65.385331    7451.2539 
 3160000   -200585.92    1.7902864 -0.0038489502    65.457005    7464.0383 
 3165000   -200873.67    1.8032138 0.0062205347    65.156436    7476.8325 
 3170000   -200766.41    1.8097278 0.00027507377    65.260557    7489.6415 
 3175000    -200650.8    1.7903286 0.0059220845    65.164865    7502.4099 
 3180000   -200871.51    1.7754468 0.0032980388    65.186787    7515.1607 
 3185000   -200522.37    1.7892003 0.0004087994    65.284271    7527.9298 
 3190000   -200882.79    1.8361583 -0.00033666496     65.38815    7540.6743 
 3195000   -200773.26    1.8102484 0.0010620659    65.257844    7553.4317 
 3200000   -200745.39     1.772406 0.0027513431    65.136785    7566.1967 
 3205000    -200631.4    1.7680374 -0.0043201631    65.231047    7579.0057 
 3210000   -200817.55    1.8011279   0.00278741    65.037306     7591.778 
 3215000   -200835.95    1.7785902 -0.0035255691    65.260658    7604.5743 
 3220000   -200718.06    1.8090148 0.00040514185    65.107738    7617.3434 
 3225000   -200594.42    1.7919134 0.0041171373    65.151281    7630.1051 
 3230000   -200754.47    1.7604755 0.0018533546    65.087379    7642.8771 
 3235000   -200595.71    1.8070734 0.0015236263    65.263325    7655.6387 
 3240000   -200797.94    1.7970506 -0.001809379    65.204055    7668.4199 
 3245000   -200940.83    1.7913644 -0.0045513989    65.178907    7681.1982 
 3250000   -200753.62    1.7411408 -0.0015809614    65.211907    7694.0165 
 3255000    -200699.3    1.7966744 0.0047404649    65.144531    7706.8025 
 3260000   -200645.13    1.7983501 0.0038110874     65.18779    7719.5794 
 3265000   -200636.45    1.7977566 0.0046567438    65.169607    7732.3268 
 3270000   -200510.46    1.7811341 0.0055833689    65.175331    7745.1148 
 3275000   -200700.38    1.7546736 0.00071915811    65.161142    7757.8731 
 3280000   -200740.44    1.8047474 -0.0029749218    65.249877    7770.6792 
 3285000   -200668.29    1.7825001 -0.0011918093     65.28935    7783.4337 
 3290000   -200863.35    1.7748161 -0.0017313154    65.259751    7796.2059 
 3295000   -200923.94     1.750084 -0.00068329147    65.265508    7808.9838 
 3300000    -200837.2    1.8030189 -0.00035611715    65.269522    7821.7388 
 3305000   -200835.61    1.7705946 0.00082362226    65.244349    7834.4744 
 3310000   -200666.01    1.7910434 0.00052140991    65.375877    7847.2661 
 3315000   -200666.34    1.7881523 0.00090058056    65.418327    7860.0299 
 3320000   -200532.37    1.7814076 -0.0013327913    65.407567    7872.7828 
 3325000   -200673.02    1.7224808 0.0015219527    65.328392    7885.5759 
 3330000    -200640.8      1.80342 -0.001565071    65.457454    7898.3762 
 3335000   -200638.87     1.771655 0.0039637746    65.443752    7911.1379 
 3340000   -200415.57     1.754729   0.00274468    65.302614     7923.899 
 3345000   -200493.86     1.764368 0.0047640292    65.303342    7936.7162 
 3350000   -200384.52       1.7489 0.0038219915    65.312824     7949.484 
 3355000   -200561.75    1.7709911 -0.0020739443    65.515781    7962.2896 
 3360000   -200549.39    1.8478289 0.0020540594    65.399875    7975.0752 
 3365000   -200724.64    1.7703607 0.0046628428    65.236686    7987.8385 
 3370000   -200896.95    1.8338474 0.0022380991    65.190049     8000.657 
 3375000   -200793.74    1.7638337 -0.004597804    65.310456      8013.41 
 3380000   -200795.14    1.7716345 -0.0004630674    65.210238    8026.1918 
 3385000   -200731.29    1.7840077 -0.0043635977    65.378335    8038.9284 
 3390000   -200763.95    1.8183399 0.0022266321    65.233819    8051.7154 
 3395000   -200647.05    1.7998729 0.0023205062    65.263234    8064.5173 
 3400000   -200635.35    1.8140739 -0.0024302086    65.332988    8077.2753 
 3405000   -200757.13     1.791296 0.00081158983    65.308343    8090.0471 
 3410000    -200568.9      1.75915 -0.0020193388    65.335763    8102.8103 
 3415000   -200709.42     1.836135 0.0018076284    65.186295    8115.5921 
 3420000   -200724.54     1.733209 -0.0029479159    65.165091    8128.3644 
 3425000   -200503.12    1.7219611  0.003958216    65.161724    8141.1305 
 3430000   -200659.64    1.7637113 0.00077035455    65.108887    8153.9189 
 3435000   -200772.53    1.7540974 0.0025020571    65.035261    8166.6388 
 3440000   -200661.86    1.7686204 0.00025457103     65.07543    8179.4055 
 3445000   -200708.25    1.7620382 -0.0044988426    65.143146     8192.157 
 3450000   -200674.38    1.8414555 0.0035895738    65.016158    8204.9458 
 3455000   -200625.54    1.7554082 0.00070898708    65.156863    8217.7026 
 3460000   -200665.82    1.7547757 -0.0009766732    65.191653    8230.4939 
 3465000   -200790.85     1.733962 0.0023853071    65.129723    8243.2834 
 3470000   -200709.29    1.8223126 -0.0026672169    65.217809    8256.0236 
 3475000   -200720.48    1.7789993 0.0040136288    65.146957    8268.8027 
 3480000   -200370.49    1.7612355 -0.0033535205    65.291666    8281.5686 
 3485000   -200572.13    1.8056316 0.0020884366     65.19002    8294.3868 
 3490000   -200366.27    1.7500702  0.002390217    65.223697    8307.1342 
 3495000   -200535.18    1.8033263 0.0033998696    65.212795    8319.9135 
 3500000   -200520.37    1.7894182 -0.00067890856    65.332352    8332.7333 
 3505000   -200640.17      1.77265 -0.0026941987    65.339751    8345.4899 
 3510000   -200547.08    1.7849227 0.0039221976    65.198126    8358.2555 
 3515000   -200690.38    1.7688441 0.0047360491    65.198168    8371.0462 
 3520000   -200685.75    1.7275891 -0.00061589707    65.295881    8383.8007 
 3525000   -200626.53    1.7965901 0.0008965618    65.143069    8396.5499 
 3530000   -200701.09    1.7725589 0.00030568778    65.164425    8409.2925 
 3535000   -200695.42    1.7614384 -0.0044594488    65.178575    8422.0997 
 3540000   -200633.52    1.8261337 0.0042658535    65.060471    8434.9093 
 3545000   -200636.52    1.7776357 -0.00022553455    65.062024    8447.7441 
 3550000   -200775.24    1.8092078 -0.0023275611    65.046754    8460.5437 
 3555000   -200869.49    1.7866547 0.00031947212    65.045091    8473.2772 
 3560000   -200601.99    1.7618852 -0.0062620838    65.140075    8486.0391 
 3565000   -200568.54    1.7638016 -0.0021182892    65.112969    8498.8399 
 3570000   -200756.79    1.8164844 -0.00013585459    65.136785     8511.597 
 3575000   -200637.96    1.7438149 -0.0028919409    65.122588    8524.4056 
 3580000   -200843.78    1.7817852 -0.0021006047    65.128131    8537.1695 
 3585000   -200638.24    1.7605254 -0.0016129223    65.262776    8549.9768 
 3590000   -200747.71    1.7581511 0.0050773287     65.21339    8562.7657 
 3595000   -200754.02    1.7422158 -0.00041663976    65.218262    8575.5205 
 3600000   -200792.25    1.7923735 -0.0057539051    65.283463    8588.2916 
 3605000   -200697.21    1.8288916 -0.0030449596    65.269586    8601.0648 
 3610000    -200792.7    1.7558704 0.0033341114    65.176274    8613.8059 
 3615000   -200659.94    1.8176515 -5.2926836e-05    65.285468    8626.5835 
 3620000   -200589.61    1.7829406 -0.0014977627    65.406502    8639.3622 
 3625000   -200746.63      1.77035 -0.0011281176    65.364619    8652.1343 
 3630000   -200781.71    1.7791827 -0.006976651      65.3898    8664.9131 
 3635000   -200747.84     1.823473 0.0030098887    65.310543     8677.705 
 3640000   -200947.45    1.7652146 0.0010129089     65.17837    8690.4467 
 3645000   -200833.33    1.7945939 -0.0021361773    65.264874    8703.1974 
 3650000   -200933.69    1.7452676 0.0014241054    65.203897    8715.9779 
 3655000   -200771.95    1.7915182  0.003605437    65.250404    8728.7236 
 3660000   -200637.32    1.7305646 0.00054244449    65.284799    8741.4982 
 3665000   -200873.14    1.7902795 -0.0031894983    65.314738    8754.2634 
 3670000    -200848.9    1.7877364 -0.0015780789    65.261934    8767.0328 
 3675000   -200860.76    1.7933499 0.0033146751    65.143093    8779.8462 
 3680000   -200743.74    1.7336132 0.00065986594    65.211789      8792.59 
 3685000    -200816.1    1.7564305 0.0045915641    65.085666    8805.3727 
 3690000   -200823.66    1.7822017 0.0021335477    65.141752    8818.1249 
 3695000    -200832.9    1.7864533 0.00011511421    65.181176    8830.9307 
 3700000   -200735.73    1.8416318 0.0069415657    65.207389    8843.7022 
 3705000   -200885.48    1.7939703 0.0020796595    65.222683    8856.5045 
 3710000   -200664.52    1.7642405 -0.0036367797    65.313931     8869.268 
 3715000      -200785    1.7594775 -0.004474993    65.373932    8882.0302 
 3720000   -200702.85     1.780613 0.0035614799    65.344067    8894.8364 
 3725000   -200694.46    1.7486956 0.0041721924    65.290854    8907.5554 
 3730000    -200639.3    1.8226012 0.0016020705    65.312312    8920.3099 
 3735000   -200715.31    1.7874124  0.001817254     65.37404    8933.0863 
 3740000   -200633.69    1.8110974 -0.0016930087    65.418957    8945.8494 
 3745000   -200817.12    1.7472823 0.0035914425    65.251596    8958.5932 
 3750000   -200756.72    1.7966786  0.002363924    65.306993    8971.3428 
 3755000   -200650.89     1.767017 0.0023011087    65.417937    8984.1192 
 3760000   -200725.76    1.7604073 -0.0070760348    65.385658    8996.8939 
 3765000   -200789.55    1.7858507 0.0017673006     65.12136    9009.6919 
 3770000   -200742.21     1.781983 -0.0015789662    65.098195    9022.5214 
 3775000    -200618.5     1.760633 -0.0038029591    65.263881    9035.3433 
 3780000   -200577.97    1.8101955 -0.0012398586    65.203885    9048.1105 
 3785000   -200750.94    1.7731044 0.0012300893      65.0406    9060.8616 
 3790000   -200568.37    1.7538788  0.001434783    65.120076    9073.6437 
 3795000   -200721.88    1.7934906 -0.0013488603    65.174672    9086.4449 
 3800000   -200850.54    1.7761597 -0.00077645979    65.244616    9099.2361 
 3805000   -200689.99    1.7460587 0.0004002429    65.252891     9112.001 
 3810000   -200727.39    1.6969433  0.005561679    65.173303    9124.7651 
 3815000   -200581.38    1.8180623 -0.00099548274    65.443549    9137.5395 
 3820000   -200645.46    1.8272537 -0.00077919532    65.336692    9150.2929 
 3825000   -200574.31    1.7664626 0.0049058969    65.217675    9163.0764 
 3830000   -200725.78    1.7687448 0.0022586172    65.272138    9175.8418 
 3835000   -200764.72    1.7465025 0.0002211036    65.280873    9188.5846 
 3840000   -200744.29    1.7488242 0.00016041526    65.363322    9201.3679 
 3845000   -200762.54    1.8445984 0.0016827872    65.224461     9214.126 
 3850000    -200731.6    1.7612486 -0.0037794733     65.25594    9226.8937 
 3855000   -200600.52    1.7684508 -0.0024353556     65.30479    9239.7031 
 3860000   -200714.69    1.7633677 -0.001430387    65.312782    9252.4417 
 3865000   -200633.75    1.8085141 -0.00053799768    65.348555    9265.2667 
 3870000   -200481.39    1.7443969 -0.0045958952      65.4543    9278.0004 
 3875000   -200634.75    1.7779438 -0.0030591659    65.437578    9290.7636 
 3880000   -200659.99    1.7816781 0.0015607887    65.287239    9303.5447 
 3885000   -200770.56    1.8278461 0.00076764274    65.251032    9316.3034 
 3890000   -200628.21    1.7420152  0.001768106    65.255542    9329.0603 
 3895000   -200676.17    1.8257266 -0.0059641796     65.41181    9341.8369 
 3900000   -200554.06    1.8039821 -0.0012370567    65.238768    9354.6264 
 3905000   -200568.33    1.7323523 -0.0064837387    65.232141    9367.4308 
 3910000   -200613.61    1.8128482 0.0030697669    65.170494    9380.2181 
 3915000   -200846.62    1.8227373 0.00065427464    65.135265    9393.0318 
 3920000    -200908.5    1.7577008 0.0011562442    65.071315    9405.8248 
 3925000   -200609.06    1.7634664 0.0015797502    65.101479    9418.5718 
 3930000   -200710.87    1.7731206 0.0030462064    65.087064    9431.3527 
 3935000   -200580.42    1.8018339 0.0032478031    65.054564    9444.1287 
 3940000    -200408.1     1.774783 0.0008891965    65.123897    9456.9198 
 3945000    -200571.8     1.815479 -0.0005455041    65.255596    9469.6986 
 3950000   -200661.16    1.8128134 -0.0017945299    65.288182    9482.4993 
 3955000   -200627.29    1.8006863 -0.0024476115    65.317758    9495.2816 
 3960000   -200880.82    1.7403465  0.001052456    65.242943    9508.0338 
 3965000   -200640.02    1.7416769 -0.0006293423    65.314699    9520.7583 
 3970000    -200690.4    1.8359572 0.0022675649    65.280601    9533.5024 
 3975000   -200489.95    1.8112527 0.0023338678    65.406087    9546.2798 
 3980000    -200658.5    1.7499086 0.0014887095    65.320413    9559.0322 
 3985000   -200587.21    1.8186962 -0.00015230409    65.331994    9571.7781 
 3990000   -200614.88    1.7385745 -0.0035414608    65.386307    9584.5744 
 3995000   -200468.21    1.7284303 0.0010324445    65.320363    9597.3613 
 4000000   -200647.52    1.8274633 -0.0044122441    65.309305    9610.1315 
 4005000   -200492.69    1.7483737 -0.00024460814    65.260249    9622.8984 
 4010000   -200763.85    1.7499179 0.0010923682    65.224868     9635.674 
 4015000   -200560.41    1.7776059 0.0046958676    65.261118    9648.4488 
 4020000   -200682.32    1.7757046 0.0075457592    65.184319    9661.2294 
 4025000    -200460.7    1.8261497  0.001928397    65.419266    9673.9928 
 4030000   -200671.24    1.7234035 -0.0032798163    65.402617    9686.7289 
 4035000   -200766.86    1.8080405 0.0010151944    65.294305    9699.4801 
 4040000   -200601.12    1.7388397 -0.0015572342    65.328218    9712.2531 
 4045000   -200527.97    1.8156024 -0.0032786185    65.378503    9725.0147 
 4050000   -200496.14     1.786182 -0.0049658364    65.501035    9737.7965 
 4055000   -200571.88    1.8065753 0.0068029608    65.242394     9750.577 
 4060000   -200616.56    1.8167175 -0.0033480469    65.439727    9763.3651 
 4065000   -200631.34    1.7887762 -0.0069811229    65.507258    9776.1339 
 4070000   -200609.43    1.7456726 0.00070019032    65.324516    9788.9021 
 4075000   -200673.88    1.7810493 -0.00040672703    65.358086     9801.658 
 4080000   -200538.06    1.7833334 0.0002319123    65.287883    9814.4235 
 4085000   -200531.06    1.7792477 0.0023806131    65.187255    9827.1683 
 4090000   -200663.28    1.7821955 0.0022910694    65.324941    9839.9512 
 4095000   -200506.27    1.7815813 -0.00065370528    65.386979    9852.7024 
 4100000   -200552.44    1.8090495 -0.001952086    65.390051    9865.4721 
 4105000   -200880.51    1.7890433  0.003093847    65.179509    9878.2683 
 4110000   -200786.21    1.7543158  0.001661817    65.175188     9891.022 
 4115000   -200734.43    1.8025897 0.0055729554    65.101015    9903.8073 
 4120000   -200713.43    1.7788783 0.0037613384    65.128063    9916.6311 
 4125000    -200626.8    1.7854484 -0.0047972487     65.33268    9929.4036 
 4130000   -200769.47    1.7663055 0.0034530031    65.241841    9942.1929 
 4135000   -200650.94    1.7264635 -0.0017245007    65.227214    9954.9601 
 4140000   -200787.39    1.8066653 -0.0021589326    65.189413    9967.7144 
 4145000    -200823.8    1.7769952 -0.0035868685    65.183248    9980.4874 
 4150000   -200912.41    1.7515805 -0.0057731102    65.090602    9993.2684 
 4155000    -200668.2    1.7503289 0.0012831231    65.050735    10006.098 
 4160000    -200631.8    1.8136903 0.0046502104    65.029879    10018.867 
 4165000   -200639.92    1.7825023 -0.0013685104    65.066023    10031.623 
 4170000   -200710.97    1.7964979 -0.00026609656    65.043832    10044.422 
 4175000   -200598.14    1.7692867 -0.00012213876    65.160468    10057.156 
 4180000   -200734.48    1.7476612 -0.0035638669    65.147056    10069.915 
 4185000   -200712.48    1.7474636 0.0036829631    65.018221    10082.676 
 4190000   -200657.58    1.7569219 0.0015583806    65.052255    10095.495 
 4195000   -200782.71    1.7731001 -0.0076488273    65.037583    10108.305 
 4200000   -200723.39    1.8150338 0.0021692196    64.995653    10121.118 
 4205000   -200550.61    1.7715585 0.0057450627    65.032301    10133.887 
 4210000    -200656.3    1.7020431 -0.004062238    65.139439     10146.64 
 4215000   -200611.71    1.7301858 8.5181309e-05    65.128082    10159.427 
 4220000   -200599.28    1.7895895 -0.0040099943    65.163693    10172.236 
 4225000   -200744.44    1.7992046 0.00018444878    65.039042    10185.031 
 4230000    -200609.4     1.773512 0.00048621371     65.05581    10197.805 
 4235000   -200808.45    1.7756229 -0.0045958849    65.144323    10210.633 
 4240000   -200648.25    1.7708132 0.0036299171    65.040925    10223.447 
 4245000   -200705.76    1.8176735 -0.0047157633    65.173935    10236.223 
 4250000   -200642.31    1.8339345   0.00139268    65.106372    10248.995 
 4255000   -200642.57    1.7855553 -0.0044856077    65.259677    10261.771 
 4260000   -200739.83    1.7920161 -0.0018904707    65.198424    10274.588 
 4265000   -200532.59    1.7600124 -0.0016637517    65.192842    10287.356 
 4270000    -200743.2    1.8163577 -0.0052168219    65.229356    10300.139 
 4275000   -200836.66    1.7915401 0.0031879399    65.196766    10312.934 
 4280000   -200611.73     1.770818 0.00036971324    65.187852    10325.698 
 4285000   -200616.85    1.7565489 0.0046165884    65.103985    10338.499 
 4290000   -200715.68    1.8264899 7.8553197e-05    65.146184    10351.286 
 4295000   -200452.97    1.8003496 -0.00034303957    65.262982    10364.081 
 4300000   -200551.02    1.7719718 -0.0023794801    65.200425     10376.84 
 4305000   -200503.57    1.8151836 -0.00038219072    65.251576    10389.612 
 4310000   -200709.58    1.8144018 0.0007940453    65.149288    10402.403 
 4315000   -200496.95    1.8009091   0.00245817    65.288839    10415.181 
 4320000   -200404.75    1.7679678 -0.00047473179    65.164355    10427.973 
 4325000   -200547.13    1.7304785 -0.0071333657    65.155134    10440.773 
 4330000   -200539.03    1.7462281 -0.0020035236    65.092818    10453.581 
 4335000   -200529.92    1.8040212 0.0014300273     65.14297    10466.378 
 4340000   -200684.67    1.7521561 0.00082361906    65.087195    10479.166 
 4345000   -200554.35    1.7474878 -0.0029139614     65.22245    10491.952 
 4350000   -200448.72     1.782223 0.00029398373    65.284226    10504.723 
 4355000   -200653.54    1.8210415 -0.0022534992    65.279161    10517.464 
 4360000   -200453.62    1.7607573 -2.0440344e-05    65.325552    10530.264 
 4365000   -200464.41     1.748125 -0.0038898234    65.306019    10542.973 
 4370000   -200657.54    1.8391429 -0.003678561    65.292851    10555.749 
 4375000   -200688.17    1.7728881  0.002700914     65.13126    10568.489 
 4380000   -200692.31    1.8092227 0.0032651047    65.184065    10581.235 
 4385000   -200775.11    1.7868822 -0.000352612    65.269488    10594.019 
 4390000   -200646.31    1.7531426 -0.0025403073    65.274597    10606.762 
 4395000   -200521.47    1.8088062 -0.0001681917    65.309398    10619.539 
 4400000   -200678.07     1.780979 -0.0014350197    65.248789    10632.281 
 4405000   -200538.33    1.7741799 0.0049873238    65.228206    10645.054 
 4410000   -200509.05    1.7880113 0.0001924767    65.343505    10657.805 
 4415000   -200662.85    1.7635384 0.0011721568    65.337049    10670.491 
 4420000    -200643.7    1.7098926 -0.0036843516    65.302364    10683.252 
 4425000   -200740.26    1.8325518 0.00094517207    65.342282    10696.006 
 4430000   -200623.24     1.798746 0.0016796325    65.318203    10708.731 
 4435000   -200668.29    1.7655413 -0.0011556955     65.36742     10721.49 
 4440000   -200624.31    1.7673924 0.0035287144    65.318015    10734.254 
 4445000   -200642.18    1.7757368 -0.00036327569    65.266125     10746.98 
 4450000   -200621.01    1.7696305 0.0037016166    65.160863    10759.808 
 4455000   -200661.06     1.734016 -0.0043750945    65.325047    10772.571 
 4460000    -200824.3    1.7657401 -0.0010328425    65.278497    10785.342 
 4465000   -200698.13    1.8114938 -0.001768713    65.365158    10798.074 
 4470000    -200608.8    1.7820779 0.0018486513    65.262809    10810.862 
 4475000   -200559.59     1.768927 0.0078279601    65.127275    10823.625 
 4480000   -200684.16     1.749931 0.0020046131    65.189931    10836.346 
 4485000   -200731.32     1.758669 -0.001730488    65.425364    10849.088 
 4490000   -200749.01    1.8199055 0.0015608931    65.367905    10861.845 
 4495000   -200499.29     1.762724 -0.004077781    65.407726    10874.606 
 4500000    -200523.4    1.7647575 -0.0037960712    65.361377     10887.39 
 4505000    -200730.7    1.7331942 -0.00056566325    65.293602    10900.148 
 4510000   -200639.37    1.7776554 0.0048861011    65.086423    10912.887 
 4515000   -200574.23    1.7864137 -0.00054607173     65.31553    10925.655 
 4520000   -200787.73     1.766137 -0.002223157    65.310175    10938.412 
 4525000   -200450.96    1.8398554 0.0020192825    65.282023    10951.198 
 4530000   -200421.68    1.8116689 0.0052997318    65.204496    10963.973 
 4535000   -200683.11    1.7449158 0.0023400622    65.200798    10976.732 
 4540000   -200579.11    1.8464144 -0.0040633169    65.452121    10989.497 
 4545000    -200754.3    1.7440072 -0.0036714221    65.339323    11002.248 
 4550000   -200518.75    1.7599028 -0.0047899367    65.488561    11015.016 
 4555000   -200619.85     1.797128 -0.00032713234    65.342501    11027.748 
 4560000   -200610.96    1.8274448 0.0048255899    65.274743    11040.482 
 4565000   -200595.11    1.7418275 0.0037138457    65.315794    11053.232 
 4570000   -200561.14    1.7892808 0.00054883713    65.292159    11065.973 
 4575000    -200698.8    1.7514437 -0.00080513084    65.360016    11078.751 
 4580000   -200678.97    1.7846826 -9.150258e-05    65.285086    11091.539 
 4585000   -200644.31    1.8292687 -0.0030132398    65.391795    11104.311 
 4590000   -200761.88    1.8087216 0.0001282183    65.317366    11117.084 
 4595000   -200635.81    1.7655827 0.0042283311    65.226356    11129.846 
 4600000    -200520.5    1.8294852 -0.0016744627    65.309002    11142.595 
 4605000   -200759.67    1.8016372  0.003657327    65.112773    11155.356 
 4610000   -200627.57    1.7926535 0.0009059061    65.198297     11168.14 
 4615000   -200450.03    1.7366512 -0.0022040996    65.214309    11180.912 
 4620000    -200548.8    1.8059478 -0.00094553238    65.184265    11193.683 
 4625000   -200507.81     1.747262 -0.0007128601    65.303927    11206.468 
 4630000   -200607.04    1.7940517 0.0020859188    65.236332    11219.227 
 4635000   -200511.73    1.7787828 -0.0011185601    65.234719    11231.978 
 4640000   -200746.27    1.7639886 0.0035756549    65.061393    11244.741 
 4645000   -200681.95    1.7977156 -0.0004312097    65.195125    11257.536 
 4650000   -200664.94    1.7885236 0.0017248322    65.093498    11270.321 
 4655000   -200552.47    1.7151311 -0.00073187339    65.147074      11283.1 
 4660000   -200702.47    1.7814286 -0.0010441438    65.093059    11295.924 
 4665000   -200680.02    1.7930451 0.0050580265    64.994189    11308.682 
 4670000    -200670.8    1.8550645 -0.002402722    65.111384    11321.463 
 4675000   -200792.63     1.745812  0.002179811    64.966173     11334.26 
 4680000   -200877.17    1.7326865 0.00068720696    64.962299    11347.063 
 4685000   -200702.05    1.7786729  0.001884238    65.124754    11359.881 
 4690000   -200616.47    1.7440802  -0.00253583    65.188989    11372.691 
 4695000   -200673.76    1.7888465 0.00092838732    65.111409     11385.48 
 4700000   -200512.55    1.7606672 -0.0043443583    65.202272    11398.318 
 4705000   -200784.99     1.818909 0.0034543623     65.05728    11411.102 
 4710000   -200401.61      1.82709 0.0013575862    65.187664    11423.913 
 4715000   -200555.58    1.7823253 0.0033503096    65.148838    11436.689 
 4720000   -200554.39    1.7570628 0.0018990614    65.241664     11449.48 
 4725000   -200538.76    1.7984742 -0.00017026374    65.298513    11462.232 
 4730000    -200590.1    1.7220026 0.00076652096    65.181531     11475.05 
 4735000   -200662.42    1.7550177 0.00013002065     65.15206    11487.838 
 4740000   -200648.81    1.7751014 -0.0013899038    65.145846    11500.561 
 4745000   -200718.54     1.802476 0.0022428539    65.154027    11513.352 
 4750000   -200596.26    1.7685554 -7.4009999e-05     65.09634    11526.137 
 4755000   -200757.67    1.8360188 0.0013549464    65.048261    11538.964 
 4760000   -200777.55    1.8040598 0.0040598403    64.978382    11551.779 
 4765000    -200773.5    1.7889009 -0.0011997747    65.166504    11564.587 
 4770000   -200545.18    1.7845225 0.0028210852    65.132692    11577.354 
 4775000   -200619.44    1.7969486 0.0024508804    65.100169    11590.101 
 4780000    -200943.1    1.7494204 0.0019373564    65.127026    11602.868 
 4785000   -200864.14    1.7717942 0.0082197728    65.084108    11615.656 
 4790000   -200757.84     1.796453 -0.0035152301    65.265714    11628.461 
 4795000   -200760.89    1.7604587 -0.0037360834    65.283217    11641.219 
 4800000   -200706.44    1.8094972 -0.0029240753    65.251836    11654.011 
 4805000   -200652.52    1.7847371 0.00067762674    65.149856    11666.802 
 4810000   -200763.72     1.760383 -0.0064031797    65.229979    11679.626 
 4815000   -200768.38    1.7989782 0.0032532212    65.059376    11692.429 
 4820000   -200887.84    1.7734887 0.0011828638    64.994842    11705.241 
 4825000   -200801.18    1.7425756 -0.0076371037    65.155051    11718.049 
 4830000   -200549.79    1.7740955 0.0030609017    65.132129    11730.831 
 4835000   -200607.51    1.7541188 -0.0036814027    65.191052    11743.611 
 4840000   -200548.21    1.7351733 0.00056824087    65.140525    11756.388 
 4845000   -200599.44    1.7546268 -0.00038796251    65.120401    11769.155 
 4850000   -200978.86    1.8134986 0.0072624792    64.956171    11781.936 
 4855000   -200758.18     1.755681 0.0028694054    65.142164    11794.726 
 4860000   -200587.75    1.7843413 0.0036426336    65.234267    11807.489 
 4865000   -200803.28    1.7807422 0.0026978595    65.138517    11820.281 
 4870000   -200651.09     1.795111 0.0043990062    65.222233    11833.065 
 4875000   -200727.53    1.7440647 -0.0020543694    65.305615    11845.827 
 4880000   -200625.33    1.7727982 0.0015009853    65.231592    11858.592 
 4885000   -200588.99    1.7830405  0.001824052     65.22422    11871.371 
 4890000   -200578.27    1.7418058 -0.0027038287    65.299703    11884.099 
 4895000   -200591.65    1.8082311 -0.0047428956    65.416837    11896.887 
 4900000   -200593.72    1.8023168 0.0004361013    65.317402    11909.698 
 4905000   -200659.11    1.7525676 -0.0017219516    65.332283     11922.46 
 4910000   -200604.71    1.7829322 -2.7994646e-05    65.273863    11935.242 
 4915000   -200513.49    1.7785236 -0.00013223391    65.218686    11948.018 
 4920000   -200671.87    1.7848297 0.0022864067    65.129933    11960.811 
 4925000   -200595.98    1.8124348 -0.0029371266     65.22762    11973.576 
 4930000   -200554.35    1.7920297 -0.0041708394    65.237528    11986.353 
 4935000   -200595.41    1.7772447 0.0016120221    65.144926    11999.107 
 4940000   -200735.63    1.7664097  0.004559686    65.126269    12011.902 
 4945000   -200450.99    1.7522229 0.0017257339    65.242948     12024.71 
 4950000   -200451.94    1.7718197 -0.00063695092    65.156902    12037.467 
 4955000   -200632.63    1.7597069 -0.0034800088    65.223474    12050.249 
 4960000   -200745.09    1.7984666 -0.0014761907    65.278344    12063.038 
 4965000   -200528.23    1.7864454 0.00041438758    65.287636    12075.826 
 4970000   -200636.81     1.698709 -0.0048711916    65.419548    12088.604 
 4975000   -200562.95    1.7774943 0.0018927068    65.260692    12101.356 
 4980000   -200573.36    1.7905235 -0.0028424268    65.241506     12114.17 
 4985000   -200705.28    1.7702921 0.0030446855    65.168341    12126.978 
 4990000   -200738.57    1.7647065 -0.0013840074    65.253934    12139.745 
 4995000   -200639.39     1.765004 -0.0062274504    65.360027    12152.548 
 5000000   -200743.15    1.7806216 0.0021846052    65.214437    12165.314 
 5005000      -200551    1.7842365 0.00027658546    65.243171    12178.109 
 5010000    -200881.3    1.7675336 0.00053138099    65.176883    12190.867 
 5015000   -200719.74    1.7529625 0.0023962426    65.170999    12203.678 
 5020000   -200721.07    1.8147673  -0.00380927    65.226331    12216.443 
 5025000   -200910.27    1.7873414 -0.00012790746    65.134354    12229.226 
 5030000   -200801.62    1.7875477 -0.00073534942    65.157729    12242.049 
 5035000   -200843.64    1.7938123 0.0027322461    65.052002    12254.843 
 5040000   -200725.19     1.789588 -0.0014171241    65.097676    12267.656 
 5045000   -200701.01    1.8046205 -0.0040351128    65.161548     12280.44 
 5050000   -200597.01    1.7677079 0.0021465517    65.113658    12293.299 
 5055000   -200637.01    1.7927375 -0.00044943664    65.206493    12306.097 
 5060000   -200516.67    1.7526992 -0.0016825992    65.230292    12318.856 
 5065000    -200850.2    1.7451426 0.0018691568    65.179828    12331.638 
 5070000   -200660.18    1.7196784 -0.0020878589    65.270717    12344.413 
 5075000   -200660.93    1.7679806 -0.0012033085    65.182615    12357.159 
 5080000   -200791.86    1.7792736 0.0071934363    65.091519    12369.932 
 5085000   -200755.18    1.7767255 -0.0041757236    65.335753    12382.686 
 5090000   -200695.96    1.7781803 -0.0039950957    65.303202    12395.442 
 5095000   -200662.56    1.7159541 -0.00023603817    65.228993    12408.177 
 5100000   -200639.14    1.8102829 -0.00027370343    65.221042    12420.947 
 5105000   -200756.65    1.7624079 0.0017593321    65.086981    12433.734 
 5110000    -200850.6    1.7745698  0.002365769    65.001936    12446.502 
 5115000   -200600.75    1.7759896 0.0042583084    65.003348    12459.293 
 5120000   -200862.82    1.8226466 0.00043031741    65.088016    12472.063 
 5125000   -200507.87    1.7785569 -0.0048518955    65.214401    12484.858 
 5130000   -200580.26    1.8441318 -0.0034034681    65.194953    12497.646 
 5135000    -200673.8    1.7335124 0.0014729098     65.05113    12510.391 
 5140000   -200755.53    1.8289656 -0.0034721042    65.167643    12523.177 
 5145000   -200538.14    1.7460438 0.0023795125    65.070999    12535.948 
 5150000   -200567.44    1.7977477 -0.0016052219    65.117659    12548.725 
 5155000   -200654.67    1.7995851 0.0038374516    65.006048      12561.5 
 5160000   -200609.83    1.7466136 0.0026407046    64.938266    12574.238 
 5165000    -200447.5    1.7705316 -0.00012461084    65.088686     12586.98 
 5170000   -200578.83    1.7896339 -0.00061413343    65.220501    12599.774 
 5175000   -200384.28    1.7924866 0.00091596146    65.294387    12612.506 
 5180000   -200634.74    1.8195296 -0.0024704211    65.272379    12625.292 
 5185000   -200496.06    1.7749223 -0.0046482511    65.301881    12638.077 
 5190000   -200744.36    1.7172747 0.0038372545    65.094209    12650.854 
 5195000   -200709.34    1.7140005 6.9427992e-05    65.112266    12663.647 
 5200000   -200710.65    1.7680346 -0.00090087217    65.108652    12676.414 
 5205000   -200859.28    1.7781148 -0.0017545787    65.161966    12689.209 
 5210000   -200708.47    1.7576093 -0.00018575744    65.153168    12702.013 
 5215000    -200759.5    1.7794973  0.004190018    65.068484     12714.81 
 5220000   -200824.68    1.7853598 -0.00086029818    65.169514    12727.587 
 5225000   -200920.21    1.7720267 -0.00013640574    65.161106    12740.346 
 5230000   -200746.62     1.759219 -0.0027327961    65.216917    12753.157 
 5235000   -200971.97    1.7454393 -0.0017233678    65.162197    12765.961 
 5240000   -200847.23     1.759133 -0.004249972    65.272634    12778.761 
 5245000   -200547.88    1.8194821 7.731943e-05    65.279427    12791.534 
 5250000   -200713.36    1.7468932 -0.005021006    65.375351    12804.284 
 5255000   -200869.56    1.8076431 0.0027179747    65.130264    12817.061 
 5260000   -200555.32    1.7940959 -0.0033327838    65.211564    12829.842 
 5265000   -200849.52    1.8061311 -0.0018090597    65.134778    12842.632 
 5270000   -200799.81    1.7391774 -0.0024787629    65.137943    12855.385 
 5275000   -200844.61    1.7202589 -0.0042213181     65.07879    12868.193 
 5280000   -200711.04    1.8194188 -0.0017917461    65.093772    12880.984 
 5285000   -200703.51    1.7524956 -0.0030411154    65.122847    12893.786 
 5290000   -200691.23    1.7668657 -0.0030610669    65.135794    12906.562 
 5295000   -200490.31    1.7594768 0.0035011697    64.996978    12919.366 
 5300000   -200628.26    1.7364179 -0.0067590094    65.112057    12932.189 
 5305000   -200476.03    1.7648925 0.0072600119    64.931204    12944.967 
 5310000    -200887.9      1.76654 -0.0062914821    65.044387    12957.783 
 5315000   -200728.42    1.8083052 0.0033598746    64.876022    12970.613 
 5320000   -200700.49     1.829101 0.0007564648    64.889879    12983.442 
 5325000   -200645.94     1.809243 0.00064805292    64.862519    12996.268 
 5330000   -200367.14    1.7419288 0.0041332087    64.890303    13009.086 
 5335000   -200527.89    1.8293967 0.0020939501    64.916019    13021.931 
 5340000   -200608.32    1.8039624 0.00096094355    64.965189    13034.718 
 5345000   -200738.58    1.8139597 -0.00037024033    64.946626    13047.554 
 5350000   -200703.11    1.7553397 -0.0013274363    65.042428     13060.35 
 5355000   -200417.29    1.7558203 2.6546748e-05    65.016636    13073.176 
 5360000   -200367.42     1.760674 -0.00073299004    65.004617    13086.012 
 5365000    -200324.7    1.7181567 -0.0045701115    65.121151    13098.804 
 5370000      -200575    1.7607878 4.7362698e-05    65.137927    13111.579 
 5375000   -200528.42    1.8315747 0.0022434215    65.144711    13124.321 
 5380000   -200688.31    1.7455618 -0.0010374572    65.107458     13137.15 
 5385000   -200557.49    1.7675349 0.00038141374    65.027942    13149.908 
 5390000   -200598.94    1.7890058 0.00031345688    65.101749    13162.662 
 5395000   -200658.69     1.767127 -0.00050370079    65.168637    13175.441 
 5400000   -200638.51    1.7715219 -0.00028617765    65.146815    13188.211 
 5405000   -200688.25    1.7539916 -0.0010729747    65.041663    13201.049 
 5410000   -200800.47    1.7907587 0.0017216378    64.990378    13213.835 
 5415000      -200563    1.7725588 -0.0031913063    65.136605    13226.617 
 5420000    -200392.3    1.8148684  0.001799197     65.16531    13239.405 
 5425000   -200634.29    1.7582838 -0.00084536079    65.168511    13252.175 
 5430000   -200495.29    1.7368987 -0.0036463025     65.27803    13264.937 
 5435000    -200699.2    1.7768354 0.0031392472    65.249536    13277.727 
 5440000   -200871.77    1.7990654 0.0071393383    65.084589    13290.492 
 5445000   -200483.15    1.8113557 0.0039428061    65.217082    13303.266 
 5450000   -200608.83    1.7754622 -0.0035686205    65.380657    13316.023 
 5455000   -200641.37    1.7656678  0.002191419    65.240525    13328.785 
 5460000   -200669.06    1.7287828 -0.004759984    65.393136    13341.575 
 5465000   -200643.74    1.8138658 -0.0013724528    65.345016    13354.285 
 5470000   -200441.29    1.7936429 0.00096407652    65.383057    13367.017 
 5475000   -200705.02    1.7659305 0.0044571316    65.254166    13379.745 
 5480000   -200608.82    1.7877411 0.00056505823     65.29682    13392.514 
 5485000   -200894.32    1.7410904 0.0037950372    65.195798    13405.254 
 5490000   -200537.09    1.7223755 -0.0027858387    65.336857    13418.009 
 5495000   -200571.19    1.7847388 -7.1648663e-05    65.215978    13430.782 
 5500000    -200720.4      1.78336 -0.0046548049    65.312218    13443.556 
 5505000   -200552.67      1.79837 0.0047734389    65.216359    13456.319 
 5510000   -200496.68    1.7223632 -0.0037285523    65.375386    13469.093 
 5515000   -200552.91    1.7751358 -0.0048136388    65.387569    13481.837 
 5520000   -200561.43    1.7222598 -0.0025667676    65.233432     13494.62 
 5525000    -200675.1    1.7356233 -0.0027585304    65.289776    13507.365 
 5530000   -200633.66    1.7770951 -0.0010941167    65.347789    13520.127 
 5535000    -200663.5    1.7749959 -0.00036580811    65.231072    13532.882 
 5540000   -200613.17    1.7365372 -2.8880155e-05    65.156778    13545.668 
 5545000   -200618.99    1.7558064 -0.0015437432    65.192932    13558.472 
 5550000   -200550.23    1.7785454 0.00056804966    65.203473     13571.26 
 5555000   -200615.18    1.7786563 -0.0013962199    65.211454    13584.007 
 5560000   -200576.06    1.8005667 -0.0040259294    65.229441    13596.756 
 5565000   -200760.49     1.806024 -0.0060973331     65.30476    13609.535 
 5570000   -200625.57    1.8464101 -0.0042198842    65.234883    13622.306 
 5575000   -200530.63    1.7853841 -0.0092814178    65.367787    13635.111 
 5580000   -200652.01    1.7704474 -0.0013491489    65.259251    13647.891 
 5585000   -200497.46    1.7879057 -0.003905995    65.287403     13660.68 
 5590000   -200599.06     1.787479 -0.0012032237    65.238039    13673.447 
 5595000   -200739.12     1.762973 1.3857272e-05    65.228366    13686.206 
 5600000   -200564.96    1.8080711 0.0037099723    65.220142    13698.962 
 5605000   -200694.73    1.7815888 0.0010236466    65.197367    13711.729 
 5610000   -200727.63    1.8034847 0.00024031238    65.260838    13724.503 
 5615000   -200795.28    1.7719031 -0.0038422655    65.177232    13737.278 
 5620000   -200602.72     1.780628 -0.0039245342    65.195344    13750.093 
 5625000   -200739.38    1.7785117 -0.0026554754    65.083553    13762.887 
 5630000   -200623.26    1.7944637 0.00062312943    65.055668    13775.671 
 5635000   -200564.13    1.7924974 -0.00079684811    65.071908    13788.448 
 5640000   -200657.99    1.7729781 0.0035778812    65.039668    13801.256 
 5645000   -200648.59    1.7451603 -0.0041065026    65.218494    13814.027 
 5650000   -200491.82    1.7332125 -0.0054453608    65.111824    13826.841 
 5655000   -200653.93    1.7969284 0.0016396292    65.070622    13839.629 
 5660000   -200679.64    1.7974586 0.0025077873    65.082155    13852.429 
 5665000   -200468.26    1.7277351 0.00036132315    65.151514    13865.228 
 5670000   -200542.38    1.7617295 0.00014316926    65.233884    13878.061 
 5675000   -200647.34    1.7921398 -0.0041457387     65.28052    13890.815 
 5680000   -200577.66      1.77477 0.0044361564    65.179665    13903.601 
 5685000    -200737.2    1.6947742 -0.00091694168    65.219557    13916.392 
 5690000   -200636.39    1.7963074 -5.0785003e-05    65.220903    13929.177 
 5695000      -200697    1.7986253 -0.002850545    65.336296    13941.919 
 5700000   -200735.94     1.772037 0.0016724016    65.228777    13954.717 
 5705000    -200691.1       1.7586 -0.0033094109     65.49913    13967.483 
 5710000   -200683.83    1.7929948 -0.00076625085    65.389768    13980.219 
 5715000   -200723.07    1.7774696 0.0009810175    65.297081    13992.997 
 5720000    -200545.8    1.7472506 0.0027623758    65.369619    14005.756 
 5725000   -200669.82    1.8607533 0.0034468605    65.272078    14018.485 
 5730000   -200518.54    1.8357963 -0.0061047035    65.452841    14031.282 
 5735000   -200588.44    1.7844724 0.0013488063    65.294419    14044.066 
 5740000    -200505.3     1.795407 -0.0071907499    65.467205    14056.852 
 5745000   -200650.93    1.7875487 -0.0042070444    65.295228    14069.642 
 5750000   -200724.87    1.7615375 0.00043610426    65.227572    14082.406 
 5755000   -200828.67    1.7672717 -0.0019829617    65.283287    14095.193 
 5760000   -200688.72    1.7678197 -0.0024809993    65.322377    14107.962 
 5765000   -200777.98    1.7736123 -0.0020770513    65.331726    14120.753 
 5770000   -200729.75    1.7878815 0.0010741337    65.263037    14133.513 
 5775000    -200630.9    1.7836597 -0.0018430354    65.344325     14146.25 
 5780000    -200792.2    1.7092686 0.0032186357    65.186733     14159.02 
 5785000   -200707.17    1.7932733 0.0063014711    65.173094    14171.791 
 5790000   -200607.95      1.77992 -0.0016550272    65.277186    14184.541 
 5795000   -200717.62    1.8295884 0.0029961219    65.151354     14197.34 
 5800000    -200585.4    1.8097999 0.00084426837    65.299736    14210.146 
 5805000   -200424.22    1.7987964 0.0018166334    65.313384    14222.909 
 5810000   -200676.11    1.7542042 -0.0017000023    65.353532     14235.66 
 5815000   -200694.16     1.741168 -0.001801279    65.407557    14248.389 
 5820000   -200719.09    1.7502763 -0.0034843853    65.309984    14261.138 
 5825000   -200734.62    1.7808516 0.0011229551    65.234985    14273.906 
 5830000   -200544.31    1.7731102 -0.00040537511    65.304956     14286.69 
 5835000   -200847.45    1.7499638 0.0032050147    65.150312    14299.437 
 5840000   -200633.32    1.7810725 -0.0012673121     65.24463    14312.242 
 5845000    -200759.6    1.7275394 -0.00086066389    65.279548    14325.035 
 5850000   -200649.12    1.7942048 0.00025990759    65.332891    14337.786 
 5855000   -200674.84    1.7826271 -0.00098872055    65.305197    14350.557 
 5860000   -200761.39    1.7719224 -0.0024754838    65.196221    14363.307 
 5865000   -200372.49    1.8859207 -0.00045930433     65.31928    14376.127 
 5870000   -200669.49    1.7410998 0.0012744069    65.196972     14388.93 
 5875000   -200572.14     1.741715 -0.0026537423    65.215461    14401.759 
 5880000   -200762.71    1.7729646 0.0037754705     65.01304    14414.511 
 5885000   -200572.52    1.8082947 -0.0019219313    65.215305    14427.329 
 5890000    -200681.8    1.7375148 -0.0027155301    65.174316    14440.129 
 5895000    -200820.2    1.7607811 0.0057641286    64.971196    14452.924 
 5900000   -200643.87     1.739414 -0.0064369149    65.192827    14465.765 
 5905000   -200795.62    1.8133409 0.0021428719    64.928693    14478.568 
 5910000   -200661.82    1.7755498 0.0018816005     64.95789    14491.393 
 5915000   -200577.84    1.7859497 -0.0035789252    65.075826    14504.192 
 5920000   -200606.62    1.7534863 -0.00083211762    65.050838    14517.056 
 5925000   -200770.29    1.7868924 -0.003636465    65.086769    14529.835 
 5930000   -200720.01    1.8303534 -0.0026083544    65.041991    14542.705 
 5935000   -200708.15    1.7563418 0.0019444866    64.931209    14555.558 
 5940000    -200829.8    1.7980817 0.0015371383    64.956744     14568.41 
 5945000   -200633.75     1.800232 0.0018481821    65.071659    14581.193 
 5950000   -200650.35    1.7824057 -0.0067043851    65.130214    14594.014 
 5955000   -200653.96    1.7843615 -0.0065505312    65.126714    14606.835 
 5960000   -200671.62    1.7531166 0.00079202813     65.09659    14619.609 
 5965000   -200638.63    1.7270279 -0.0017907792    65.097043    14632.403 
 5970000   -200684.51    1.7635258 -0.0015173325    65.118971    14645.165 
 5975000   -200629.81    1.7829567 0.0016007056    65.030392    14657.965 
 5980000   -200686.38    1.8093296 -0.00047023194    64.933863     14670.75 
 5985000   -200677.93    1.7423993 0.00025575854    65.008987    14683.514 
 5990000   -200704.46    1.7590596 -0.0013808028    65.061042    14696.286 
 5995000   -200564.89    1.7769696 -8.9606207e-05     65.10392    14709.053 
 6000000   -200650.54    1.7516215 -0.0011039855    65.081139    14721.824 
 6005000   -200712.21    1.8125016 -0.0012264463    65.072147    14734.592 
 6010000   -200685.02     1.801234 -0.0012620136     65.15047    14747.397 
 6015000   -200687.59    1.8046909 0.00031056105    65.022983    14760.201 
 6020000   -200777.84    1.7640861 -0.0062654441    65.156437    14773.016 
 6025000   -200773.48    1.7521649   0.00584835    64.973514    14785.829 
 6030000   -200397.55    1.8040119 -0.00097208886    65.175952    14798.644 
 6035000    -200677.6    1.7304545 -0.00073393955    65.150901    14811.434 
 6040000   -200541.95    1.8040562 0.00096091921    65.117984    14824.252 
 6045000   -200596.81     1.783468 -0.0026360168    65.127749    14837.025 
 6050000   -200791.64    1.7653399 -0.00092299597    65.109582    14849.823 
 6055000   -200751.09    1.7996075 0.0050676977    65.104277    14862.649 
 6060000   -200580.12    1.7605347 0.00040985905    65.121545    14875.473 
 6065000   -200414.26    1.7305311 -0.0010219537    65.216322    14888.278 
 6070000   -200734.52    1.7829976 0.0039582002    65.110297    14901.073 
 6075000   -200594.53     1.779156 0.00096611452    65.180261    14913.861 
 6080000   -200542.83     1.819623 -0.0022166575    65.149966    14926.629 
 6085000   -200589.95    1.7880825 0.00068662972    65.107649    14939.404 
 6090000   -200693.91    1.7596652 -0.003768292    65.159423    14952.232 
 6095000      -200743     1.793059 -0.0019328065    65.148144    14965.032 
 6100000   -200491.74    1.7737476 -0.0077925414    65.266104     14977.83 
 6105000   -200705.13     1.792357 -0.0035588002    65.152613    14990.632 
 6110000   -200663.69    1.7656646 0.00083063623    65.106758    15003.455 
 6115000    -200526.9    1.7345517 0.00035226353    65.207321    15016.237 
 6120000   -200671.53    1.7932319 -0.0020497948    65.224643    15029.015 
 6125000   -200845.03    1.8266117 -0.0018755466    65.181064     15041.76 
 6130000   -200602.59    1.8269307 0.0033237888    65.106643    15054.532 
 6135000   -200704.53    1.8132261 -0.0011394588    65.130743    15067.299 
 6140000   -200598.49     1.801539 0.0015136645     65.15889    15080.065 
 6145000   -200602.12    1.7686739 0.0031677798    65.160528    15092.863 
 6150000   -200715.96    1.8133696 0.0063421469    65.120061    15105.663 
 6155000   -200760.97    1.7644643 -0.0037431462    65.380702      15118.5 
 6160000   -200736.54    1.7505395 0.0026114795    65.195978     15131.29 
 6165000   -200596.69    1.7863504 -0.0081346917    65.381967    15144.068 
 6170000   -200469.54    1.8096491 0.0028689616    65.319885     15156.84 
 6175000   -200574.53    1.7747621  0.002197015    65.266352    15169.645 
 6180000   -200514.25    1.7966441 0.0016110294    65.289714    15182.379 
 6185000   -200783.82    1.7666198 -0.0027370665    65.246015    15195.113 
 6190000   -200830.48     1.762991  0.001013274    65.211263    15207.881 
 6195000   -200674.49    1.7949094 0.0013195159    65.286353    15220.616 
 6200000   -200882.69    1.6845912 0.0015186205    65.186852    15233.382 
 6205000   -200580.55    1.7753427 0.0019006559    65.312603    15246.168 
 6210000   -200542.63    1.7932125 -0.0022183821    65.271593    15258.909 
 6215000   -200665.29    1.7634086 0.0013995786    65.226119    15271.671 
 6220000    -200605.8    1.7628457 0.0020638257    65.270842    15284.443 
 6225000   -200540.88    1.7491006 0.00030659512    65.240185    15297.194 
 6230000   -200652.65    1.7968418 0.0035123637    65.120337    15309.971 
 6235000   -200571.98    1.8060004 9.5918355e-05    65.270967     15322.77 
 6240000   -200384.18    1.7606622 -0.0026287351    65.326874    15335.573 
 6245000   -200738.75    1.7755048 0.0022792778    65.141463    15348.334 
 6250000   -200695.16    1.7879891 0.00073995904    65.264358     15361.06 
 6255000   -200626.14    1.7561895 0.0023079501    65.095281     15373.84 
 6260000   -200664.61    1.8045144 0.0027507614    65.141303    15386.631 
 6265000   -200869.18      1.78506 0.0047144991    65.145391    15399.427 
 6270000   -200577.08    1.8208453 -0.00035029391    65.244616    15412.196 
 6275000   -200626.03    1.7614833 -0.0034474028    65.246044    15425.005 
 6280000   -200740.09    1.7856753 0.0048964062    65.165419    15437.796 
 6285000   -200569.55     1.793706 -0.0030508176    65.336061    15450.566 
 6290000   -200618.31    1.7920124 -0.0047617858    65.351508    15463.301 
 6295000   -200716.87    1.8052641 0.00084427639     65.23112    15476.087 
 6300000   -200681.57    1.7832212 0.00056892955    65.282609    15488.855 
 6305000   -200567.02     1.783606 -6.545313e-06    65.255738    15501.615 
 6310000   -200716.59    1.8165605 0.00067719412    65.261238    15514.344 
 6315000    -200537.2    1.7822838 0.0068483328    65.150626    15527.105 
 6320000   -200686.54    1.7719266  0.002264404    65.225084    15539.845 
 6325000   -200788.82    1.7721331 0.0018381864    65.228279    15552.592 
 6330000   -200788.13    1.8001025 -0.0005422897    65.262806    15565.349 
 6335000   -200640.74    1.8101504 0.00016011601    65.255612    15578.091 
 6340000   -200703.71     1.769467 0.0047326433    65.192049    15590.827 
 6345000   -200760.86    1.7760819 0.00019565179    65.275388    15603.618 
 6350000   -200627.25    1.7691131 -9.6733534e-05    65.282779    15616.387 
 6355000      -200606    1.7762925 -0.00044447135     65.37412    15629.142 
 6360000   -200547.08    1.7441568 -0.00079414496    65.362264    15641.874 
 6365000   -200640.95    1.7159212 -0.00029313745    65.308952    15654.678 
 6370000   -200502.12    1.7815828 -0.0040652751    65.319592    15667.476 
 6375000   -200587.74    1.8180086 0.0018684162     65.29985    15680.209 
 6380000   -200780.87     1.779118 -0.0032513412    65.282138    15692.938 
 6385000   -200754.58    1.7341318 -0.0054575283    65.328134    15705.731 
 6390000   -200535.21    1.7820689 -0.0040567863    65.379043    15718.513 
 6395000   -200598.98    1.8344328 -0.0023196189    65.317862    15731.279 
 6400000   -200778.12    1.8012484 0.0014985967     65.26569    15744.026 
 6405000    -200733.8    1.8574944 0.0080952913       65.111    15756.797 
 6410000   -200748.14    1.8042796 -0.0046090332    65.331254    15769.585 
 6415000   -200716.55    1.7403066 -0.0032189054     65.33158    15782.377 
 6420000   -200538.19    1.8020379 -5.7067431e-05    65.335734    15795.139 
 6425000   -200692.88    1.8067649 -0.00097211558    65.312377    15807.907 
 6430000   -200539.46    1.7563159 -0.002295554    65.367136    15820.666 
 6435000      -200680     1.726054 -0.00086163299    65.304602    15833.465 
 6440000   -200692.23    1.7825206 0.0027564118    65.185737    15846.223 
 6445000   -200614.73    1.7521335 0.0028401585     65.25473    15858.998 
 6450000   -200707.22    1.7026455 -0.0039043672    65.378629    15871.767 
 6455000   -200448.88    1.7511175 0.0034715211    65.257406    15884.569 
 6460000   -200583.67     1.766528 0.0013890475    65.254845    15897.328 
 6465000   -200719.63    1.7573423 0.0051445014    65.140757    15910.122 
 6470000   -200618.66    1.8524616 0.0013590148    65.254182    15922.883 
 6475000      -200528    1.7275763 -0.0052127103    65.312998    15935.642 
 6480000   -200613.47    1.7226127 -0.0012135533    65.253107    15948.414 
 6485000    -200614.2    1.7957634 0.0039278299    65.042576     15961.15 
 6490000   -200510.83    1.8022388 -0.00044746084    65.237215    15973.889 
 6495000   -200659.56    1.7703089 -0.0028651639    65.175279    15986.649 
 6500000   -200605.65    1.7701068 0.0019984721    65.160837    15999.404 
 6505000    -200610.8    1.7710345 0.0022980643    65.197431    16012.149 
 6510000   -200721.29    1.6928092 0.0033520725    65.181646    16024.889 
 6515000   -200643.78    1.7864868 0.0039628978    65.142134    16037.626 
 6520000   -200812.75    1.7463079 -0.0038224518    65.253985    16050.403 
 6525000   -200755.82    1.7658645 -0.0023324007    65.186776    16063.144 
 6530000   -200844.19    1.7822374 -0.0017141425    65.118899    16075.933 
 6535000   -200646.75    1.7610334 0.0068499115    65.024726    16088.727 
 6540000   -200658.02    1.7544952 0.00079035232    65.071557    16101.514 
 6545000   -200642.46    1.7635124 -0.0011330068    65.211588    16114.245 
 6550000   -200551.55    1.7840411 0.0010045185    65.147677        16127 
 6555000    -200647.6    1.8023561 -0.00068482959    65.265213    16139.783 
 6560000   -200746.39    1.7623645 0.0015274015    65.212471    16152.593 
 6565000   -200828.96      1.75891 0.00085912619    65.253663    16165.361 
 6570000   -200856.56    1.8452162 0.00037426431    65.197202    16178.114 
 6575000   -200964.88    1.7863913 -0.00082746645    65.167543    16190.872 
 6580000   -200729.83    1.8219705 -0.0028649535    65.155147    16203.653 
 6585000   -200576.99    1.7777407 -0.00045568586     65.17809    16216.454 
 6590000   -200563.91    1.7318485 0.0023227075    65.212909    16229.267 
 6595000   -200821.72    1.7504808 0.00029826406    65.121193     16242.03 
 6600000   -200730.99    1.8010098 0.0039044762    65.054636    16254.788 
 6605000   -200729.84    1.7561102 -0.0082784259    65.271284     16267.55 
 6610000   -200689.86    1.7580891 -0.00018598532    65.208207    16280.323 
 6615000   -200460.11    1.7605199 0.0036849571    65.162895    16293.077 
 6620000   -200848.92    1.7765194 0.0081514325    65.006096    16305.855 
 6625000   -200605.15    1.7868261 0.0017431367    65.204304    16318.666 
 6630000   -200710.22    1.7241943  0.003430339    65.246142    16331.431 
 6635000   -200796.24    1.7099928 -0.0030420822    65.336732    16344.161 
 6640000   -200730.44    1.7594218 -0.0012757856     65.36317    16356.915 
 6645000      -200563    1.7956699 0.0015037694     65.29188    16369.618 
 6650000   -200611.61    1.7536845 0.0071085376    65.196851    16382.402 
 6655000   -200672.22    1.8183399 0.0039602465    65.249434     16395.22 
 6660000    -200562.8    1.7916118 0.0028294672    65.221266     16408.01 
 6665000   -200749.72    1.7865716 -0.0056738819      65.3668    16420.833 
 6670000   -200667.19    1.7693592 0.00061684864    65.248194    16433.572 
 6675000   -200651.27    1.7781128 -0.0008589509    65.230918     16446.37 
 6680000    -200737.2    1.7448725 0.0079789753    65.150329    16459.164 
 6685000   -200950.09    1.7774797 -0.0033208648    65.332405    16471.926 
 6690000    -200780.2      1.76503 -0.0042610119    65.426803    16484.702 
 6695000   -200698.82    1.8138909 0.0012730286    65.314604    16497.478 
 6700000   -200609.91    1.7629534 0.00070653657    65.377197    16510.231 
 6705000   -200761.92    1.7720265 0.0044201093     65.32012    16523.015 
 6710000   -200631.34    1.7741799 0.0015248475    65.432685    16535.737 
 6715000   -200838.45    1.8170432 0.0031614177    65.304562    16548.478 
 6720000   -200698.82     1.740546 -0.0030743629    65.454254    16561.221 
 6725000   -200628.16    1.8406206 0.0018274399    65.393192    16573.962 
 6730000      -200840    1.7866356 -0.0025167632    65.343771    16586.717 
 6735000   -200870.47    1.7572804 0.0010197428    65.327467     16599.48 
 6740000   -200790.65    1.7616463 0.0018191121    65.324673    16612.243 
 6745000   -200836.94    1.7348306 0.0071071677    65.268092     16625.03 
 6750000   -200712.51    1.7848384 0.0025829088    65.310146    16637.837 
 6755000   -200743.52    1.7516906 0.0035288069    65.285418    16650.626 
 6760000   -200581.16    1.7445656 -0.0017921197    65.435864    16663.394 
 6765000    -200714.6    1.7708182 0.00085085867    65.299547    16676.142 
 6770000   -200782.45    1.7512731 0.00069870473    65.356835    16688.896 
 6775000    -200655.8    1.8106116 -0.0036105356    65.357273    16701.632 
 6780000   -200824.38    1.7873745 0.0031670872    65.257913    16714.429 
 6785000      -200603    1.7765472 0.0027879737    65.259175    16727.205 
 6790000   -200727.07     1.741159 0.0018714257    65.277534    16740.004 
 6795000    -200697.4    1.7230037 -0.0028633995    65.277848    16752.779 
 6800000   -200603.56    1.8251468 0.0014000264    65.201239    16765.549 
 6805000   -200787.35    1.7532354 -0.0025452871    65.212246    16778.347 
 6810000   -200843.78    1.7409887 -0.0015161361    65.171862    16791.106 
 6815000   -200743.75    1.7793404 -0.00055302484    65.202087    16803.887 
 6820000   -200480.91    1.7341133 0.00017040507    65.186362    16816.639 
 6825000   -200580.29    1.7725013 0.00099674759    65.114711    16829.416 
 6830000   -200558.19    1.7366344 0.00064891569    65.212549    16842.162 
 6835000   -200825.23    1.7827875  0.001131698    65.196938    16854.997 
 6840000   -200576.13    1.7704496 -0.00033693417    65.227928    16867.815 
 6845000   -200734.71    1.7742821 -0.00069942184    65.193616    16880.614 
 6850000   -200715.72    1.7935337 -0.0027835046    65.285019    16893.381 
 6855000    -200721.7    1.7856869 0.0027372204    65.143784    16906.151 
 6860000   -200645.98     1.775761 -0.00011101532    65.180969    16918.958 
 6865000   -200882.65    1.7726827 0.0014465776    65.075172    16931.733 
 6870000   -200642.55    1.7641514 0.0026099301    65.149203    16944.536 
 6875000   -200741.01     1.748238 -0.0030481264    65.248413    16957.313 
 6880000   -200554.01    1.7281764 -0.0083191017    65.393583    16970.088 
 6885000   -200610.43     1.840706 -0.0029921656    65.285492    16982.862 
 6890000   -200584.42    1.7732878 -0.00046302862    65.294682    16995.612 
 6895000   -200581.82    1.8059293 -0.0028846829    65.370993    17008.374 
 6900000   -200513.83    1.7845746 -0.00080857043    65.293924    17021.186 
 6905000   -200625.09    1.7522752 -0.0028086927    65.353468    17033.963 
 6910000    -200675.3    1.7877902 0.0043361484    65.157753    17046.749 
 6915000   -200496.67    1.7977195 -0.0012086648    65.417346    17059.539 
 6920000   -200511.49    1.7397174 2.8099467e-05    65.363981    17072.305 
 6925000   -200650.45    1.7341396 -0.0016479926    65.226232    17085.057 
 6930000    -200633.3    1.8087365 0.0029865726    65.083269    17097.841 
 6935000   -200562.63     1.773553 -0.0039806358    65.197351    17110.624 
 6940000   -200665.63    1.7936853  0.004237522     65.10821    17123.411 
 6945000   -200514.86    1.8019792 0.00098627921    65.141549    17136.178 
 6950000   -200569.46    1.7756091 0.0040665771    65.158143    17148.965 
 6955000   -200618.59    1.8103735 -0.00052738601     65.17638     17161.72 
 6960000   -200598.75    1.8252535 0.00023262595    65.228592    17174.462 
 6965000   -200638.39    1.7303708 -0.0015497629    65.200784    17187.234 
 6970000   -200749.98    1.7830572 -0.0055973365    65.322754    17199.994 
 6975000   -200854.12    1.7522824 0.0060602624    65.093405    17212.748 
 6980000   -200786.16    1.7992607 0.0019294804    65.221323    17225.529 
 6985000   -200777.27    1.7786426 0.0010808769    65.263503    17238.306 
 6990000   -200639.65    1.7902683 -0.00057021551    65.341537    17251.078 
 6995000   -200764.17    1.7765249 0.0020207876    65.165125    17263.863 
 7000000   -200539.56    1.7809511 0.00047301091    65.344871    17276.636 
 7005000   -200551.26    1.7760376 0.00040220358    65.321925    17289.393 
 7010000   -200824.13    1.7965575 -0.00041851643     65.26812    17302.168 
 7015000   -200654.15    1.8143809 -0.0020792621    65.405481    17314.926 
 7020000   -200588.82    1.8067419 0.00073512563    65.340426    17327.684 
 7025000   -200748.86     1.815925  0.003634464    65.211168    17340.464 
 7030000   -200589.53     1.794825 0.00065302569    65.216812    17353.239 
 7035000   -200510.42    1.7716341 0.0016089741    65.322785    17365.977 
 7040000   -200531.13    1.7743327 0.00046710346    65.298207    17378.749 
 7045000   -200524.46    1.7739041 -0.0018328582    65.280582    17391.512 
 7050000   -200539.66     1.746881 -0.002019391    65.156517    17404.252 
 7055000   -200418.25    1.7725524 -0.0011345519    65.243566    17417.043 
 7060000   -200534.84    1.7584552 -0.0032937851    65.323189    17429.834 
 7065000   -200549.81    1.7622707 0.0024058865    65.242001    17442.596 
 7070000   -200561.15    1.8180777 0.0049601805    65.250282    17455.393 
 7075000   -200627.89    1.7634518 -4.2059857e-05    65.303633    17468.158 
 7080000    -200540.5    1.7572017 8.2155233e-05    65.377823    17480.908 
 7085000   -200496.34    1.7930685 0.0035643911    65.250528    17493.639 
 7090000   -200681.81    1.7985332 0.00040842496    65.256713    17506.433 
 7095000   -200598.43     1.757297 -0.0019045922    65.380599    17519.207 
 7100000   -200739.29    1.6888456 -0.0038510679    65.281327    17531.947 
 7105000   -200430.71    1.7623929 -0.00093533357    65.296437     17544.69 
 7110000   -200806.03    1.7796727 -0.00082156015    65.245509    17557.475 
 7115000   -200643.83     1.777983 -0.00096491863    65.218872    17570.245 
 7120000   -200510.81    1.7982015 -0.0028232588    65.177251    17583.022 
 7125000   -200621.63    1.7325596 -0.00020498656    65.056539    17595.794 
 7130000   -200599.74    1.8144147 0.0017657475    65.178283    17608.582 
 7135000   -200763.69    1.8044352 -0.0014502766    65.239976    17621.397 
 7140000   -200692.36     1.800705 0.0051552489     65.07534    17634.164 
 7145000   -200595.51     1.809639 -0.0044591732    65.235901    17646.968 
 7150000   -200581.49    1.8093162 -0.0032186719    65.255189    17659.788 
 7155000    -200461.2    1.7676668 0.00056357159     65.23057    17672.614 
 7160000   -200751.81    1.7799529 -0.0013575382    65.135317    17685.417 
 7165000   -200613.52    1.7889697 -0.0015418827    65.212261    17698.193 
 7170000   -200807.24    1.7849749 -0.0015633286    65.153106    17710.978 
 7175000   -200653.88    1.8302576 -0.002011622    65.184172    17723.747 
 7180000   -200661.98     1.731713 -0.0032038133    65.260598    17736.493 
 7185000   -200630.69    1.7624568 0.0025994662    65.130808    17749.287 
 7190000   -200683.67    1.7758794 0.0016310037    65.193084    17762.063 
 7195000   -200581.04    1.8427572 0.0020749951     65.26085    17774.801 
 7200000   -200622.87    1.8079007 -0.0014029261    65.186365    17787.573 
 7205000   -200574.87    1.8227233 -0.0047167777     65.28619    17800.374 
 7210000   -200599.97    1.7713318 -0.0028521686    65.185727    17813.167 
 7215000   -200542.86    1.8076412 -0.0033180878    65.251413    17825.958 
 7220000   -200793.54    1.7325246 0.0022774858    65.062853    17838.763 
 7225000   -200694.13     1.828794 0.0046300086    65.072386    17851.538 
 7230000   -200532.51    1.7600787 0.0027410543    65.113699    17864.371 
 7235000   -200398.65    1.7489873 -0.0049740391    65.274721    17877.167 
 7240000   -200674.75    1.8181118  0.003342353    65.121818     17889.96 
 7245000   -200759.68    1.7398374 0.0018673801     65.13283    17902.739 
 7250000   -200584.53    1.7769347 0.0020599511    65.178474    17915.475 
 7255000   -200555.95    1.7326255 -0.0047659714    65.323603    17928.232 
 7260000   -200728.97    1.8457187 -0.0014654647    65.229212    17940.981 
 7265000   -200653.34    1.8172905 0.0038311283    65.184664    17953.726 
 7270000   -200766.32    1.7399344 0.00094875135     65.19224    17966.513 
 7275000   -200683.37    1.8194326 0.0031097002    65.206105    17979.262 
 7280000   -200721.74    1.7746712 -0.00096099887    65.251804        17992 
 7285000   -200586.12    1.7987062 0.0027870472    65.189152    18004.744 
 7290000   -200522.13     1.780739 0.0012636709    65.216759    18017.519 
 7295000   -200667.48    1.7954031 0.0010078842    65.282979    18030.262 
 7300000   -200644.35    1.7607953 0.0025260797     65.28507    18043.023 
 7305000   -200566.13    1.7923899 0.00051297348    65.325277    18055.768 
 7310000   -200670.38     1.783362 0.00039543752    65.238905    18068.545 
 7315000   -200634.03    1.7318517 0.0035417354    65.195486    18081.304 
 7320000   -200791.73    1.7675599 0.0015304239    65.227517    18094.065 
 7325000   -200664.13    1.7671807 0.0014856674    65.213868    18106.841 
 7330000   -200513.72    1.8225372 -0.0049651239    65.425918    18119.648 
 7335000   -200560.16    1.7789077 -0.00069836286    65.358241    18132.412 
 7340000   -200475.71    1.7531928 -0.002591556     65.36446     18145.16 
 7345000   -200639.21    1.7897131 0.00068756449    65.338131    18157.922 
 7350000   -200656.46    1.7578796 0.0028728873    65.299174    18170.712 
 7355000   -200510.52     1.769222 -0.0035152987    65.392655    18183.516 
 7360000   -200661.12    1.7740573 0.0028667446    65.192822    18196.279 
 7365000   -200821.84    1.7457426 0.00012222722    65.168512     18209.09 
 7370000   -200738.81    1.8405651 -0.0012265007    65.276847    18221.847 
 7375000   -200806.87    1.7651273 0.0027471507    65.122168    18234.594 
 7380000   -200623.83    1.7064321 -0.0015921802    65.217555    18247.372 
 7385000   -200741.51    1.7573148 -0.00072424435     65.19078    18260.181 
 7390000   -200582.44    1.7770877 -0.0014387653    65.315169    18272.964 
 7395000   -200666.72    1.8025551 0.0046032853    65.113796    18285.742 
 7400000   -200882.56    1.8096712 0.0062319814    65.078158    18298.589 
 7405000   -200602.02    1.7797357 -0.0026024371    65.270243    18311.361 
 7410000    -200808.2    1.7955508 0.00094944303    65.205867    18324.152 
 7415000   -200818.25    1.7641625 0.0010532739    65.205371    18336.928 
 7420000   -200764.61    1.7611951 0.00075634343    65.136974    18349.716 
 7425000   -200760.23     1.815415 0.0056644239     65.05429    18362.487 
 7430000   -200722.85    1.7650077 1.1056817e-05    65.211117    18375.271 
 7435000   -200933.29    1.7112831 0.0014858751    65.250103    18388.036 
 7440000    -200852.5     1.738213 -0.0039724009    65.326598    18400.803 
 7445000   -200839.77    1.7465192 -0.0026735072     65.34229    18413.557 
 7450000   -200659.31    1.7783366 -0.00037603825    65.385833    18426.339 
 7455000   -200788.62    1.7670655 -0.0011173192    65.338944    18439.078 
 7460000   -200993.04    1.8375601 -0.00028632111    65.351589    18451.844 
 7465000   -200839.14    1.7903212 -0.00088648144    65.332596    18464.635 
 7470000    -200909.4    1.8024759 -0.0007155768    65.348964    18477.379 
 7475000   -200632.08    1.7551958 -0.0023605235    65.499961    18490.146 
 7480000    -200681.8    1.8929638 0.00061687527    65.371856    18502.911 
 7485000   -200683.34    1.7481862 -0.0024468366    65.299751    18515.658 
 7490000   -200897.82    1.8084542 -0.0018293811    65.304646     18528.42 
 7495000   -200660.81    1.7302173 -0.00021058991    65.271936    18541.146 
 7500000   -200792.94    1.7449712 0.0077794885     65.16233    18553.938 
 7505000      -200529    1.7284849 0.0079763269    65.240687    18566.725 
 7510000   -200462.27    1.7449625 -0.0032505891    65.400694    18579.508 
 7515000   -200813.67    1.7636321  0.002134644    65.183101    18592.263 
 7520000   -200568.13    1.7416825 0.00029825155    65.275467    18605.034 
 7525000   -200904.32    1.7738551 0.0063010555    65.032351    18617.837 
 7530000   -200755.38    1.7495548 -0.0019866157    65.331954    18630.589 
 7535000   -200737.95    1.7508573 -0.0021826502     65.39168    18643.345 
 7540000   -200614.04    1.8199376 -0.0017412242    65.372823    18656.093 
 7545000   -200687.65    1.7759504 -0.0036686755    65.408618    18668.842 
 7550000   -200604.95    1.8157838 -0.0039586761    65.395353    18681.606 
 7555000   -200447.88    1.7470256 -0.0061054476    65.504495    18694.375 
 7560000   -200519.15    1.7599094 -0.0019357863    65.488515    18707.139 
 7565000   -200719.61    1.7394769 0.0014137194    65.333567    18719.915 
 7570000   -200581.08    1.7647784 0.0027143559    65.323262    18732.672 
 7575000   -200766.84    1.7689131 0.0006106427    65.356464    18745.431 
 7580000   -200592.46    1.7006923 0.00092913141    65.373569     18758.18 
 7585000   -200584.85     1.817783 -0.0013235131    65.412765    18770.963 
 7590000    -200513.2    1.7798133 0.0010327634    65.315848    18783.702 
 7595000   -200559.37    1.8203724 -0.0038572495    65.341397    18796.517 
 7600000   -200673.61    1.7304013 -0.0033244351     65.29795    18809.309 
 7605000   -200572.22    1.7576539 -0.00071926481    65.348848    18822.085 
 7610000    -200678.7    1.7847422 0.0019229612    65.263469     18834.86 
 7615000   -200712.66    1.8061729 0.0015905915    65.248734    18847.641 
 7620000    -200741.5    1.8057473 -0.0029574403    65.314613    18860.398 
 7625000    -200706.1      1.71587 -0.00070299882    65.300078    18873.164 
 7630000   -200756.77    1.8010296 0.0039515977    65.088141    18885.943 
 7635000   -200669.34     1.710753 -0.0041381327    65.236831    18898.681 
 7640000   -200795.32     1.760369 0.0034407487     65.07049    18911.444 
 7645000   -200582.94    1.7667718 -0.0026360952    65.240802    18924.203 
 7650000   -200829.07     1.753483 -0.0032074955    65.183913    18937.008 
 7655000   -200657.56    1.7827933 0.00082042717    65.237381    18949.807 
 7660000   -200827.03     1.759243 -0.00079914698    65.237669    18962.564 
 7665000   -200800.78     1.817739 -0.0030146272    65.262664    18975.348 
 7670000   -200840.15    1.8165233 0.00059276203    65.113343    18988.102 
 7675000   -200719.86    1.7962744 -0.0016572381    65.164806    19000.905 
 7680000   -200648.02    1.7689973 0.0012277002    65.087245    19013.718 
 7685000   -200740.11     1.788331 -0.00055575355    65.128042    19026.492 
 7690000   -200722.21    1.7730492 -0.0028061587    65.272288    19039.286 
 7695000    -200748.9    1.7796781 0.00095982106    65.196212    19052.072 
 7700000   -200761.18    1.7779161 -0.0031609442    65.200521    19064.843 
 7705000    -200741.4     1.778827 -0.00019103873    65.169699    19077.638 
 7710000   -200681.18    1.7606305 0.00078985791    65.039937    19090.401 
 7715000   -200817.36    1.7747253 0.0025283343    64.903113    19103.209 
 7720000   -200785.05    1.8263386 0.0036905376     64.90004    19116.045 
 7725000   -200658.03    1.7962476 -0.003914548    65.088996    19128.825 
 7730000   -200741.07    1.7643518 -0.0015830651    64.963082    19141.625 
 7735000   -200802.76    1.7899262 -0.0036212979    65.064041    19154.475 
 7740000   -200758.58    1.7693202 -0.0023525523    65.126062    19167.224 
 7745000   -200643.23     1.747295 -0.00055363357    65.044835     19180.03 
 7750000   -200773.82    1.7877097 0.0016336505    65.003812    19192.838 
 7755000   -200679.52      1.78839 0.0006427728    65.044425    19205.611 
 7760000   -200623.27    1.7933516 -0.00041106418    65.153953    19218.396 
 7765000   -200655.83    1.7948312 -0.00040676416    65.089257    19231.192 
 7770000   -200614.12    1.7789034 -0.0073075746    65.176226    19244.018 
 7775000   -200478.46    1.8173978 -0.00057598014    65.076451    19256.801 
 7780000    -200449.3    1.8044034 -0.0012846493    65.083531    19269.608 
 7785000   -200620.85    1.8300149 -0.0020727575    65.089853    19282.381 
 7790000   -200809.87    1.7414113  0.001303094    64.922765    19295.197 
 7795000   -200673.67    1.7615545 0.00093133878    64.947444    19307.984 
 7800000   -200550.16    1.7823025  0.004058246    64.931294    19320.808 
 7805000    -200545.7    1.8125124 0.0048816817    64.970718    19333.641 
 7810000   -200597.21    1.7572287 0.0043012089    64.919968    19346.424 
 7815000   -200764.08    1.7680674 -0.0016630692     65.01995    19359.209 
 7820000   -200754.94    1.7372011 0.00047372729    65.123582    19371.987 
 7825000   -200563.54    1.7599646 -0.0041311032    65.309876     19384.79 
 7830000   -200690.42    1.8304216 -5.863718e-05     65.10193    19397.538 
 7835000   -200576.86    1.7942114 0.0019647357     65.07433    19410.347 
 7840000   -200575.39    1.7928172 -0.0057032049     65.20733    19423.113 
 7845000   -200693.65    1.7940237 -0.00044734765    65.147654    19435.859 
 7850000   -200684.51    1.7724244 0.0018562171    65.114418    19448.636 
 7855000    -200764.5    1.7440694 0.0041688598     65.05783     19461.44 
 7860000    -200886.4    1.8184817 0.0030760014    65.155445    19474.214 
 7865000   -200878.38    1.8155752 -0.00024392752     65.19735    19486.963 
 7870000   -200651.42    1.8081633 0.0026574009    65.154705    19499.779 
 7875000    -200569.6    1.8004124 -0.00014399107    65.175976    19512.554 
 7880000   -200689.36    1.7965664 -0.0079683438    65.250706    19525.342 
 7885000   -200743.25    1.7683355 3.3777967e-05    65.202553     19538.11 
 7890000   -200606.81     1.781073 0.0023352593    65.068752    19550.896 
 7895000   -200685.16    1.7884754 0.0023705431    65.178479     19563.66 
 7900000   -200650.62     1.774629 0.0039069638    65.137879    19576.448 
 7905000   -200617.37    1.7831057 2.2195449e-05    65.223469    19589.229 
 7910000   -200740.42    1.7846327 0.0028960818    65.146631    19601.983 
 7915000   -200714.33    1.7416786 -6.4436401e-06    65.236581    19614.732 
 7920000   -200635.94    1.7716819 -0.0034408138    65.306268    19627.494 
 7925000   -200532.58    1.7501433 -1.3953905e-05    65.261721    19640.237 
 7930000   -200665.94    1.8057412 -0.0029127639    65.299428    19652.987 
 7935000   -200520.35    1.7876637 -0.0014108737    65.271066    19665.752 
 7940000   -200580.83    1.7638129 -0.0054755757    65.328849    19678.545 
 7945000   -200647.82    1.7870514 0.0029708995    65.179584    19691.325 
 7950000   -200740.25    1.7568663 -0.00028907092    65.173131    19704.089 
 7955000   -200706.03    1.7671735 0.0019339278     65.19042    19716.833 
 7960000   -200594.88    1.7376967 0.0019302196    65.233101    19729.627 
 7965000   -200564.26    1.8179016 0.0037862663    65.150158    19742.404 
 7970000   -200695.84    1.8156479 0.0028875624    65.111722    19755.172 
 7975000   -200697.35    1.7942744 -0.001105329    65.160775    19767.943 
 7980000   -200802.53    1.7512006 0.0022127682     65.08284    19780.741 
 7985000   -200789.07     1.718057 -0.0018858624    65.153885     19793.53 
 7990000    -200536.5    1.7941705 -0.00027457189     65.23857    19806.314 
 7995000   -200715.55    1.7381271 -0.0040839189    65.275689    19819.092 
 8000000   -200694.75    1.7588366 0.0042020613    65.191214    19831.878 
 8005000   -200886.69     1.817688   0.00223324    65.208889    19844.682 
 8010000   -200762.98    1.7514471 -0.00074371198    65.224076    19857.421 
 8015000   -200701.11    1.8480655 0.0013532466    65.139938    19870.207 
 8020000   -200593.83    1.8036011 -0.00065173639    65.249976    19882.988 
 8025000   -200586.97    1.7860183 -0.0015226135    65.253207     19895.77 
 8030000   -200634.84    1.7814694 -0.0022278968    65.221887    19908.502 
 8035000    -200763.2    1.7236169 -0.002906592    65.188236    19921.283 
 8040000   -200668.83    1.8065733 -0.00010211351    65.170421    19934.083 
 8045000   -200428.53    1.7817325 -0.0029470266    65.425346    19946.854 
 8050000   -200763.64    1.8062316  0.005753812    65.153018    19959.645 
 8055000   -200729.22    1.7691368 -0.0022123135    65.262394    19972.418 
 8060000   -200686.89    1.7929436 -0.0030972397    65.298394    19985.178 
 8065000   -200833.71    1.8250697 -0.00050180026    65.138928    19997.974 
 8070000   -200790.54    1.7737031 0.0046781392    65.116187    20010.748 
 8075000   -200798.81    1.7854353 0.0036496407    65.092188    20023.542 
 8080000   -200822.69    1.7650953 0.00085857763    65.130098    20036.352 
 8085000   -200645.78    1.7895837 0.0027673298    65.082166    20049.125 
 8090000   -200490.79    1.7390332 -0.0071468939    65.331952    20061.895 
 8095000   -200661.11    1.7419395 -0.0033280733    65.241552    20074.699 
 8100000    -200786.5    1.7909681 0.0041902514    65.152698    20087.467 
 8105000   -200812.59    1.7336841 -0.0031363551    65.240768    20100.237 
 8110000   -200515.18    1.7854287 0.00088260685     65.16765    20113.033 
 8115000   -200723.51    1.7914827 -0.0022485904     65.21638    20125.825 
 8120000   -200695.69    1.7895331 0.0020411058    65.206288    20138.602 
 8125000   -200736.36     1.818455 0.0014981757     65.16885    20151.372 
 8130000   -200562.53    1.8133898 0.0074779332    65.115414    20164.146 
 8135000   -200572.02    1.7903934 -0.0043530302    65.275588    20176.912 
 8140000   -200505.41    1.7958465 -0.0015679479    65.228677    20189.671 
 8145000   -200439.69      1.80471 -0.0033803851    65.280487    20202.399 
 8150000    -200529.5    1.7958902 0.0024943418    65.212703    20215.166 
 8155000   -200744.38    1.7512451 0.0018431388    65.215128    20227.929 
 8160000   -200719.09    1.8546608 0.0022102842    65.314019    20240.722 
 8165000   -200594.81    1.8009209 0.00026747033    65.271171    20253.463 
 8170000   -200425.74    1.7713258 -0.00020720985    65.306088    20266.235 
 8175000   -200562.64    1.7945321  0.000539862    65.221392    20278.987 
 8180000    -200775.7    1.7488123 0.0042070402    65.101371    20291.762 
 8185000      -200690    1.7718829 -0.0033720663    65.328675    20304.528 
 8190000   -200701.52     1.817458 -0.00090981454    65.319073    20317.298 
 8195000   -200592.61    1.8299524 -0.00034869224    65.252585     20330.08 
 8200000    -200697.2    1.8224866 0.0029992263    65.212101     20342.84 
 8205000   -200499.32     1.823368 0.0012453261    65.226964    20355.592 
 8210000   -200524.71    1.8086672 0.00047558479    65.289984    20368.398 
 8215000   -200483.71    1.7998557 -0.00015278051    65.190195    20381.165 
 8220000   -200592.83    1.8019688 0.0036926098    65.132536    20393.984 
 8225000   -200657.02    1.7967643  0.004575087    65.180674    20406.765 
 8230000    -200677.4    1.7489405 -0.0017829954     65.28017    20419.542 
 8235000   -200737.79    1.7633116 -0.0026100275    65.290987    20432.316 
 8240000   -200619.57    1.7682989   0.00258398    65.331261    20445.052 
 8245000    -200676.4    1.8322566 0.0030718827    65.277107    20457.813 
 8250000   -200691.37    1.7827756 -0.0011573126    65.280738    20470.524 
 8255000    -200351.2    1.7901846 -0.0035207258    65.355021    20483.307 
 8260000   -200671.36    1.7994248 -0.00021387458    65.300862    20496.054 
 8265000   -200838.92    1.7656417 -7.6061648e-05    65.129838    20508.816 
 8270000   -200721.44    1.8078367 0.0013492142    65.081725    20521.611 
 8275000    -200677.8    1.7710612 0.0063773244    64.955243    20534.393 
 8280000   -200521.18    1.7818253 -0.00094302222    65.123683    20547.209 
 8285000   -200655.99    1.7574461 -0.00031633586    65.156041    20559.998 
 8290000   -200569.69    1.7919243 0.0024464506    65.232974    20572.753 
 8295000   -200704.22      1.79662 0.0020645396    65.124085     20585.57 
 8300000   -200762.57    1.8122023 0.0050830356     65.00884    20598.389 
 8305000   -200730.59    1.7346231 -0.00036854216    65.067817    20611.241 
 8310000      -200815    1.8176591 -0.0012038459    65.178559    20624.045 
 8315000   -200715.54    1.8310304 -0.001360355    65.225488    20636.853 
 8320000   -200657.27    1.7728168 -0.0029201503    65.242318    20649.655 
 8325000    -200752.1     1.738615 -0.00083050315    65.262273    20662.465 
 8330000    -200519.2      1.83092 0.0042284431    65.274287    20675.251 
 8335000   -200571.87    1.8068366 0.0020883012    65.291007    20688.023 
 8340000   -200552.03    1.7693149 0.0045039112     65.16725    20700.804 
 8345000   -200720.47    1.7468455 -0.0031534907    65.244178    20713.575 
 8350000   -200716.33     1.771533 0.0027816155    65.150997    20726.365 
 8355000   -200535.15    1.7507827  0.004132256    65.160735    20739.138 
 8360000   -200551.64    1.8093874 0.0089548663    65.068879     20751.92 
 8365000   -200513.56    1.8292629 -0.0011573291    65.282136    20764.696 
 8370000   -200681.18    1.7553997 0.0051333174     65.06907    20777.485 
 8375000   -200716.53    1.8010899 0.0011278599    65.097807    20790.288 
 8380000   -200772.08    1.8317618 0.0034048914     65.11201    20803.099 
 8385000   -200669.78    1.7309038 0.00092047087    65.175401    20815.895 
 8390000   -200708.56    1.7709618 -0.0044380034    65.250423    20828.684 
 8395000   -200787.73    1.7560934 -0.00084818471    65.121245    20841.491 
 8400000   -200736.17    1.8268013 0.0002411542    65.078497    20854.276 
 8405000   -200705.59    1.7663003 -0.0022160706    65.198345    20867.023 
 8410000   -200585.77    1.7726988 0.00066183825    65.073346    20879.826 
 8415000   -200691.21    1.8093239 -0.0011527188    65.130006     20892.59 
 8420000   -200510.53    1.7536077 -0.0043949427    65.263071    20905.421 
 8425000   -200799.29    1.8203263 0.0049924496    65.061378    20918.172 
 8430000    -200659.9    1.7428751 -0.00056534521    65.093935    20930.936 
 8435000   -200784.02    1.7385182 -8.6282685e-05    65.026143    20943.736 
 8440000   -200489.97    1.7517903  0.003409317    65.064539    20956.521 
 8445000    -200642.3    1.7706879 0.0033007008    65.036094    20969.312 
 8450000   -200628.75     1.792428 0.0013057407    65.107819     20982.08 
 8455000    -200520.5    1.7657985 -0.0038502838    65.180573    20994.905 
 8460000   -200804.15    1.8110211 -0.00021315523     65.10271     21007.71 
 8465000   -200644.06    1.7830381 -0.0035669222    65.190269    21020.502 
 8470000   -200571.33    1.7751503 -0.0021843561    65.175914    21033.279 
 8475000   -200717.16    1.7787763  0.003500563    65.067934    21046.097 
 8480000   -200594.17    1.7269296 0.0001192177    65.107804    21058.845 
 8485000   -200748.98    1.8025452 0.0012519482    65.123654    21071.627 
 8490000   -200645.74    1.7322836 -0.0016512329     65.12839    21084.433 
 8495000   -200517.71    1.7508574 -0.0022314544    65.169375    21097.219 
 8500000   -200536.92    1.7862788 -0.0026298836    65.252571    21109.985 
 8505000   -200690.27    1.7787411 0.00031006171    65.130216    21122.759 
 8510000    -200670.8    1.7651697 -0.0028726256    65.153058     21135.54 
 8515000   -200686.79    1.7887401 0.00039196587    65.098097    21148.285 
 8520000   -200957.13    1.7954531 -0.001240423     65.12898    21161.045 
 8525000   -200648.52    1.7837624 -0.0016907786    65.133613     21173.84 
 8530000   -200641.87    1.7760628 0.00084336928    65.089758    21186.616 
 8535000   -200538.72    1.7215556 -0.0021655553    65.284234     21199.39 
 8540000   -200614.77    1.7482304 -0.0011103882    65.319932    21212.148 
 8545000   -200802.92    1.7528856 0.00077286262    65.237786    21224.918 
 8550000   -200583.08     1.758281 -0.0031929296    65.335355    21237.711 
 8555000   -200699.98    1.7547772 -0.00083117313    65.328854    21250.448 
 8560000   -200617.02    1.7735789 -0.0019115047    65.379564    21263.229 
 8565000   -200659.05    1.8335738 0.0019864896     65.27186    21276.006 
 8570000   -200721.54     1.762566 -0.0039380265    65.350317    21288.777 
 8575000   -200806.44    1.7389379 0.0011820871    65.193832    21301.502 
 8580000   -200532.94     1.778475 -0.0011497687    65.368575    21314.269 
 8585000   -200572.96    1.7848265 -0.0016353132    65.411034     21326.99 
 8590000   -200696.91    1.7727512 0.0021588263    65.212061    21339.733 
 8595000   -200539.84    1.7569406 0.00038903949    65.272722    21352.483 
 8600000   -200683.29    1.7712227 0.0019471667    65.300288    21365.215 
 8605000   -200566.43    1.7882894 0.0043716189    65.228141     21377.98 
 8610000   -200462.74    1.8162607 0.0040489363    65.280594    21390.762 
 8615000   -200623.35    1.8073268 0.0019286281    65.263767    21403.536 
 8620000   -200520.04    1.7885905 0.0039070183    65.191905    21416.285 
 8625000    -200564.7    1.7789428 0.0022542792    65.243096    21429.073 
 8630000   -200826.35    1.7956731 -0.0052906441    65.341093    21441.862 
 8635000   -200679.73    1.8487683 0.0030374782     65.19558    21454.664 
 8640000   -200785.78    1.8026962 -0.0021395114    65.242025    21467.407 
 8645000   -200780.47    1.7831073 -0.0019640269    65.263303    21480.209 
 8650000   -200738.52    1.7735244 0.00092582151    65.243344    21493.008 
 8655000   -200548.72    1.7779202 -0.0017280285    65.304463     21505.77 
 8660000   -200604.45    1.7803793 0.0042873775    65.142648    21518.538 
 8665000    -200546.4     1.767616 0.0063495014    65.091222     21531.32 
 8670000   -200570.52    1.8032494 0.0036655617    65.109629    21544.091 
 8675000   -200706.59    1.8068848 -0.0053761893     65.22893    21556.869 
 8680000   -200671.42    1.7922377 -0.0016577323    65.036674    21569.691 
 8685000   -200627.95    1.7739681 0.0021708634    64.994467    21582.472 
 8690000   -200584.27    1.7695048 0.0034914028    64.934074    21595.265 
 8695000   -200760.84    1.8328907 0.0036300397     64.95047    21608.076 
 8700000   -200643.22    1.7869757 -0.0019161426    65.022393    21620.879 
 8705000   -200668.09    1.7801903 -0.0012017364    65.007913     21633.69 
 8710000    -200641.1    1.7561719 -0.00024906133    65.009732    21646.495 
 8715000   -200794.33    1.7312326 0.0016921602    64.952251    21659.305 
 8720000   -200605.75    1.8124508 0.0030953253    64.996809    21672.112 
 8725000   -200699.06    1.7831876 -0.0023475526     65.04707    21684.968 
 8730000   -200525.28    1.8478742 -0.00016837815    65.000405    21697.796 
 8735000   -200703.57    1.7673974 -0.004274046    65.128648     21710.58 
 8740000   -200668.67    1.7922413 0.00035460303    65.118494     21723.39 
 8745000   -200668.29    1.7668751 0.0040478729    64.976898    21736.177 
 8750000   -200740.48    1.7551329 -0.0032542164    65.097192     21748.98 
 8755000   -200817.38    1.7937362 0.0039665687    64.984215    21761.785 
 8760000   -200796.57    1.7399833 -0.0026167663    65.028725    21774.611 
 8765000   -200763.99    1.7921197  0.001210117    65.094216    21787.391 
 8770000   -200768.75    1.7689562 0.00024220982    65.079777    21800.192 
 8775000   -200921.84    1.7603196 0.0017093439    65.066084    21812.963 
 8780000   -200644.66    1.7544065 0.00040753007    65.206178    21825.698 
 8785000   -200589.09     1.779787 0.0035665256    65.115845    21838.525 
 8790000   -200741.79    1.7684007 -0.0014448658    65.275316    21851.313 
 8795000   -200636.79    1.7713298 -0.0019628419    65.339682    21864.073 
 8800000   -200499.57    1.8146623 -0.0023427481    65.322618    21876.883 
 8805000    -200786.4    1.7476928 -0.00099227371    65.252034    21889.641 
 8810000   -200627.36    1.8039361  0.005845796    65.140839    21902.441 
 8815000   -200723.92    1.7582938 -0.0014722738    65.247572    21915.233 
 8820000   -200549.17    1.8117466 -0.0075585106    65.455513     21927.99 
 8825000   -200535.02    1.7738574 -0.0014626226    65.311114     21940.78 
 8830000    -200791.9    1.7539375 -0.00043676464    65.282405    21953.532 
 8835000   -200585.16    1.7386378 0.0028624706    65.346285    21966.257 
 8840000   -200608.59    1.8001215 -0.0019153369    65.343861    21979.068 
 8845000    -200680.4    1.7244551 -0.0038030222    65.288865    21991.823 
 8850000   -200716.86    1.7778908 0.0055212711    65.097844     22004.59 
 8855000   -200532.41    1.7343733 -0.00042457854    65.288675    22017.329 
 8860000   -200513.42    1.8149744 -0.00026831542    65.317172    22030.082 
 8865000   -200745.98     1.782771 0.0027609819    65.249943    22042.841 
 8870000   -200650.04    1.7688403 -0.0031967344    65.373832    22055.601 
 8875000    -200894.6    1.7801088 -0.00034183031    65.264059     22068.35 
 8880000   -200720.08    1.7577699 0.0017502826    65.255747    22081.095 
 8885000    -200865.4    1.8195563 -0.00069500625    65.280912    22093.853 
 8890000   -200636.17    1.7643703 -0.0030702578    65.326039    22106.615 
 8895000   -200662.13    1.7692802 -0.0040684605    65.355949    22119.408 
 8900000   -200798.78    1.7206979 -0.0041696619    65.374996    22132.222 
 8905000   -200838.31    1.7186017 -3.5864335e-05    65.224674    22144.988 
 8910000   -200773.42    1.8038522 0.0033288564    65.169872    22157.758 
 8915000   -200749.71    1.7647342 -0.00012640569    65.278754    22170.576 
 8920000    -200607.4    1.7950871 0.0045056889    65.129796    22183.343 
 8925000   -200583.98    1.7797762 0.0024862226     65.20525    22196.143 
 8930000   -200637.12    1.8092852 -9.0221132e-05    65.246734    22208.904 
 8935000   -200816.13    1.7759209 0.0028243056    65.067643    22221.705 
 8940000   -200827.98    1.7805503 0.0043725433    65.120652    22234.488 
 8945000   -200817.39    1.7574479 -2.8084233e-05    65.015763    22247.271 
 8950000   -200830.21    1.8104763 -0.0029123133    65.237906    22260.059 
 8955000   -200784.07    1.8089994  0.001329124    65.197516    22272.843 
 8960000   -200551.57    1.7933946 0.0076372276    65.066243    22285.613 
 8965000    -200592.6    1.7947819 0.0025288563    65.248312    22298.408 
 8970000    -200429.3    1.7858541 0.0004155507    65.296014    22311.194 
 8975000    -200530.7    1.7340133 -0.0038691008    65.305523    22323.991 
 8980000   -200797.91    1.7517028 -0.0014375952    65.205407    22336.779 
 8985000   -200692.06    1.7650649 -0.00062861734     65.24408    22349.595 
 8990000   -200749.51    1.8111502 -0.0033888572    65.317855    22362.349 
 8995000   -200524.57    1.7288691 0.0055454221    65.301803    22375.104 
 9000000   -200572.96    1.8127912 -0.00019413108    65.235943    22387.871 
 9005000   -200523.43    1.8015535 -0.0017310549    65.285253    22400.686 
 9010000   -200557.29    1.7679602 -0.002708064    65.317756     22413.45 
 9015000    -200809.8    1.7969369  0.001879739    65.216784    22426.266 
 9020000    -200852.8    1.7754003 -0.0015999818    65.267611    22439.062 
 9025000   -200777.84    1.7961584 9.9782321e-05    65.185561      22451.8 
 9030000   -200779.83    1.7392926 -0.0011319903    65.164388    22464.599 
 9035000   -200631.28    1.7695373 -0.0040690512    65.227884    22477.372 
 9040000   -200785.12    1.8243096 -0.00019808408    65.163763    22490.151 
 9045000   -200721.57    1.7636225 0.0022837737    65.164255    22502.893 
 9050000   -200801.63    1.8037609 0.00029876944    65.148689    22515.702 
 9055000   -200721.69    1.7835423 -0.0014903052    65.160274    22528.487 
 9060000   -200596.51    1.7945312 0.0013723647    65.184184    22541.247 
 9065000      -200762    1.8249093 -0.00038890985    65.222239    22554.035 
 9070000   -200660.44    1.7820427 0.0059224866    65.065653    22566.798 
 9075000   -200626.15     1.775157 -1.7158147e-05    65.178621    22579.557 
 9080000   -200702.47     1.787846 -0.001804606    65.220999    22592.373 
 9085000   -200351.44    1.7498136 0.0022779706    65.341772    22605.138 
 9090000   -200579.33    1.7897734 0.00092122428    65.358102    22617.903 
 9095000    -200460.7    1.8151922 0.0027176211    65.374912    22630.671 
 9100000   -200802.43    1.7963671 0.0042056968    65.162015    22643.479 
 9105000   -200573.44    1.7457081 -0.0016227292    65.359832    22656.235 
 9110000   -200731.57    1.8109739 -0.0027417855    65.439679    22668.986 
 9115000   -200525.29    1.7520476 -0.0015350472    65.348905    22681.751 
 9120000   -200570.23    1.8038974 0.0055333809    65.224685    22694.488 
 9125000    -200715.9    1.7459884 0.00081395859    65.340772    22707.261 
 9130000   -200505.74    1.8153221 -0.0014559143     65.36644    22720.021 
 9135000   -200522.21    1.7703574 -0.0012631532    65.335486    22732.813 
 9140000   -200781.05    1.7796114 0.0030684711    65.183737    22745.553 
 9145000   -200570.27    1.8044175 -0.0021704262    65.428843    22758.278 
 9150000   -200860.53    1.7807529  -0.00391968    65.327712    22771.051 
 9155000   -200843.34    1.7816948 -0.00022963026    65.260274    22783.813 
 9160000   -200597.33    1.7564631 -0.0036590893    65.311202    22796.573 
 9165000   -200397.68    1.7699991 0.0055252479    65.162532    22809.339 
 9170000   -200414.74    1.8021171 -0.0039062906    65.313144     22822.13 
 9175000   -200540.36     1.775903 -0.0045358961    65.327816    22834.873 
 9180000   -200539.89    1.7620785 -0.0043792333    65.317942    22847.659 
 9185000   -200525.68    1.8159205 -0.0026883815    65.352471    22860.441 
 9190000    -200811.1    1.7577085 0.0050215393    65.149376    22873.211 
 9195000   -200849.74    1.7773017 -0.0031618789     65.30967    22885.954 
 9200000   -200648.03    1.8108244 -0.0031486907    65.416375    22898.735 
 9205000   -200507.56    1.7999572 0.0013342912    65.443953    22911.478 
 9210000   -200651.81     1.776107 -0.0014356632    65.361668    22924.227 
 9215000   -200750.13    1.7915186 0.0010931819    65.348964     22936.97 
 9220000   -200512.81    1.7647362 0.00040224929    65.362124    22949.721 
 9225000   -200681.54    1.7411291 0.0018622658    65.385297    22962.481 
 9230000   -200554.76    1.7485984 0.0012658112    65.344836    22975.259 
 9235000   -200677.56    1.7743332 0.0012369177    65.445423    22988.018 
 9240000   -200517.57    1.7693493 -0.002497709    65.421728    23000.795 
 9245000   -200534.32    1.7752586 -0.00027177676    65.396165    23013.549 
 9250000   -200593.36    1.7778296 -0.0022180085    65.427045    23026.331 
 9255000   -200628.28    1.7325293 -0.0013118364     65.31859    23039.094 
 9260000   -200675.33    1.7478593 0.00085746769    65.323155    23051.854 
 9265000   -200624.12    1.8015523 -9.6920843e-05    65.339382    23064.635 
 9270000   -200706.67     1.791712 -0.0025150291    65.346956    23077.423 
 9275000   -200542.55    1.7993708 -0.00028307353    65.359764    23090.175 
 9280000   -200624.16    1.7516534 0.0018867043    65.288757     23102.92 
 9285000   -200797.25    1.7543541 -4.6412651e-05    65.269847    23115.655 
 9290000   -200738.55    1.8461937  0.001680686    65.209629    23128.461 
 9295000   -200642.72    1.7450649 -0.0055417651    65.366583    23141.202 
 9300000   -200715.59    1.7454456 0.0022262041    65.260434    23153.945 
 9305000   -200909.21    1.7546032 -0.0022191868    65.198836    23166.712 
 9310000   -200640.42    1.7987146 -0.0018283808    65.247134    23179.473 
 9315000   -200959.83    1.8087795 -0.00078968877    65.178925    23192.242 
 9320000   -200868.61    1.7838878 -0.0038817606    65.236092    23205.036 
 9325000   -200637.99    1.7383974 0.0040990783    65.151667    23217.849 
 9330000   -200624.26    1.7100344 0.0024791721    65.103201    23230.645 
 9335000   -200615.99    1.7584001 0.0019316907     65.10528     23243.44 
 9340000   -200638.56    1.7774807 0.00081699575      65.3032    23256.238 
 9345000   -200832.75    1.8585414 0.0023733267    65.142642    23268.974 
 9350000   -200810.76    1.8010756 0.0022206763    65.092108    23281.795 
 9355000   -200797.31    1.7609794 -0.0018231989    65.133793    23294.627 
 9360000      -200911    1.7347914 0.0034462056    64.941024    23307.423 
 9365000   -200706.57    1.7311278 0.0023844365    65.025324    23320.192 
 9370000   -200727.29    1.7911102 -0.0031842433    65.061149    23333.012 
 9375000   -200680.13    1.7636772 -0.0024524415    65.115361    23345.831 
 9380000   -200745.17    1.8043292 0.00069317757    65.126402    23358.654 
 9385000   -200876.33    1.7927744 -0.0093696898    65.307552    23371.451 
 9390000   -200835.64    1.8013628 -0.00081022147    65.261831    23384.212 
 9395000   -200834.77    1.7548809 0.0022847887    65.173203    23396.987 
 9400000   -200707.58    1.7895858 0.0024892802    65.199304    23409.752 
 9405000   -200794.46    1.8169945 -0.0016910715    65.253614    23422.525 
 9410000   -200577.78    1.7825138 0.00026054137    65.120946    23435.283 
 9415000   -200729.19    1.7969218 0.0036215085    65.115799    23448.056 
 9420000   -200756.46    1.7827497 -0.0023388051    65.199524    23460.874 
 9425000   -200676.32    1.8047302 -0.00077269509    65.155901    23473.679 
 9430000   -200706.55    1.7726968 -0.0024732879    65.170208    23486.427 
 9435000   -200771.75    1.7732337 0.0044518015    65.059004    23499.228 
 9440000   -200507.39    1.7516309 0.00039032314    65.122974     23511.99 
 9445000   -200526.44    1.8312991 0.00054781721    65.210508    23524.769 
 9450000   -200704.39    1.7686541 -0.00025995453    65.171155    23537.545 
 9455000   -200572.58    1.7890709 0.0040969357    65.046975     23550.31 
 9460000   -200828.87    1.7960175 0.00020552597    65.065014    23563.089 
 9465000   -200721.14    1.7818476 -0.0030853836    65.076541    23575.879 
 9470000   -200591.25    1.7732003  0.006896063    64.921482    23588.681 
 9475000    -200680.9    1.7706885 -0.0034098807    65.036482    23601.464 
 9480000   -200450.36    1.7813367 -0.00063413031    65.256966     23614.23 
 9485000   -200536.55    1.7809404 0.0056035234     65.07958    23627.023 
 9490000   -200636.56    1.7241747 -0.0037957093    65.111291    23639.815 
 9495000   -200603.16    1.7698341 -0.0020764084    65.043387    23652.628 
 9500000   -200695.42    1.7578463 -0.0019135398    65.137931    23665.398 
 9505000   -200689.01    1.7924986 0.00090756795     65.09902    23678.187 
 9510000   -200777.91    1.7558713 -0.0021832931    65.146191    23690.978 
 9515000   -200713.17    1.7731711 -0.00058347756    65.074044    23703.789 
 9520000   -200566.67    1.7503097 0.0011486824    65.131363    23716.608 
 9525000   -200609.11    1.8211074 0.0020575294    65.192443    23729.418 
 9530000   -200654.99    1.7737509 -0.0006308767    65.329857    23742.191 
 9535000   -200747.96    1.8352352 -0.0017050792    65.194232    23754.982 
 9540000   -200628.21    1.7519108 0.0020055328    65.127804    23767.771 
 9545000   -200802.32    1.7533944 0.0045630438    65.153349    23780.545 
 9550000   -200819.12    1.7532806 0.0017216566    65.178922    23793.341 
 9555000   -200773.35     1.752901 -7.852693e-05    65.192898    23806.129 
 9560000   -200567.94    1.7960993 0.0042098749     65.04916    23818.895 
 9565000   -200582.83    1.7810514 -0.0021524656     65.23945    23831.686 
 9570000   -200450.58    1.7646137 0.0015647113    65.264818    23844.477 
 9575000   -200544.78    1.7913605 0.0013705211    65.159409     23857.26 
 9580000   -200747.59    1.7214086 -0.00016507249    65.117616    23870.013 
 9585000   -200532.54    1.7636977 -0.0030941201    65.185826    23882.829 
 9590000   -200709.71    1.8019465 0.0011020602    65.035026    23895.649 
 9595000   -200794.63    1.7619816 -0.0027975785     65.08395    23908.471 
 9600000   -200602.39    1.7962917 -0.0011401872    65.145635     23921.29 
 9605000   -200692.47    1.7678235 -0.0022042212    65.229157    23934.065 
 9610000   -200669.67    1.7816894 0.0020390196    65.170709    23946.821 
 9615000   -200687.12    1.7232302 0.00024279791    65.209923    23959.574 
 9620000    -200529.7    1.8268697 0.00032923476    65.278747    23972.368 
 9625000   -200587.58     1.792769 0.0029057149    65.234189    23985.165 
 9630000   -200538.97    1.7628693 -0.004037152    65.364677    23997.923 
 9635000   -200855.36    1.7744714 -0.00068685546    65.233392    24010.708 
 9640000    -200812.1    1.7825259 0.0014851674    65.116365    24023.464 
 9645000   -200725.85    1.7328321 -0.0036948765    65.252718    24036.255 
 9650000   -200829.07    1.7608636 0.0025451574    65.148062    24049.054 
 9655000   -200976.58     1.798989 0.0047984895    65.017597    24061.854 
 9660000   -200845.18    1.7688484 0.0020507944    65.147009    24074.632 
 9665000   -200670.19    1.7322682 -0.00017372105    65.137797    24087.441 
 9670000    -200686.1    1.7786667 -0.0041709457    65.197152    24100.202 
 9675000   -200706.45    1.7508933 -0.0043881205    65.247483    24113.033 
 9680000   -200634.18    1.8005543 -0.0006610668    65.165883    24125.846 
 9685000   -200943.52    1.7487083 0.0019725331    65.127087    24138.624 
 9690000   -200736.12    1.7270415 -0.0031590905     65.30731    24151.423 
 9695000   -200786.18    1.8111772 -0.0051057247    65.279617    24164.198 
 9700000   -200700.93    1.8053276 -0.0018215807    65.281915    24176.996 
 9705000   -200561.27    1.7613838 -0.0045824551    65.269083    24189.767 
 9710000   -200652.63     1.760411 3.8606077e-05    65.195652    24202.548 
 9715000   -200685.84    1.7785382 -0.0025528111    65.169658    24215.326 
 9720000   -200876.68    1.7294365 0.00050366444    65.139055    24228.122 
 9725000   -200746.34    1.7846298 0.00051922796    65.142711    24240.854 
 9730000   -200719.43    1.7575051 -0.0018964739    65.255265    24253.603 
 9735000   -200638.97     1.723939 -0.00051761035    65.280248    24266.412 
 9740000   -200726.93    1.7941597 0.0027342657    65.069387    24279.178 
 9745000   -200763.37    1.7815249 0.0015999317    65.135215    24291.976 
 9750000   -200727.96    1.7560269 0.0023950641    65.130397    24304.734 
 9755000   -200714.76    1.7782591 0.0028197131     65.21148    24317.489 
 9760000   -200870.82    1.7974011 -0.001891379    65.259307    24330.276 
 9765000   -200822.17    1.7187307 0.00082251402    65.091952    24343.039 
 9770000   -200741.11    1.7880197 0.0003311601    65.214643    24355.832 
 9775000   -200672.17    1.7511801 -0.00086854806    65.248739    24368.592 
 9780000   -200685.82    1.7840451 -0.0011702026    65.230231    24381.355 
 9785000   -200754.77    1.7226647 0.0033627403     65.11106     24394.12 
 9790000   -200777.97    1.8083484 -3.8429546e-05    65.162974    24406.925 
 9795000   -200777.68    1.7783307 -0.0021743089    65.162173    24419.705 
 9800000   -200601.77    1.7821781 -0.0048686564    65.194317    24432.523 
 9805000   -200570.01    1.8133773 0.0024425662    65.122157     24445.29 
 9810000   -200678.97    1.7675444 -0.0015324661    65.108296    24458.107 
 9815000   -200674.73    1.8613689 0.00037083019    65.046742    24470.888 
 9820000   -200816.83      1.79109 -0.0014429635    65.107333    24483.707 
 9825000   -200731.63    1.8472711 0.0027443805    64.988261    24496.492 
 9830000   -200638.45    1.7856821 -0.0027137527    65.116362    24509.311 
 9835000    -200657.2    1.7910599 -0.0019871265    65.160844    24522.112 
 9840000   -200676.56    1.7305985 -0.0012701936    65.136663    24534.942 
 9845000   -200700.05    1.7822693 0.0028242356    65.116254    24547.763 
 9850000   -200611.04    1.7571586 -0.0015316681    65.306684    24560.549 
 9855000   -200614.17    1.7688682  0.005027484    65.212642    24573.344 
 9860000   -200681.35     1.784976 -0.0052463788    65.343945    24586.101 
 9865000   -200565.75    1.7829236 0.0020551834     65.24238    24598.862 
 9870000   -200899.18    1.7474395 0.00083154928    65.154534    24611.638 
 9875000   -200594.32    1.7758487 0.0023046118    65.223331    24624.446 
 9880000   -200724.31    1.7510463 -8.9573328e-05    65.219513    24637.257 
 9885000   -200780.16    1.7691089 -0.00017136704    65.211479    24650.041 
 9890000   -200931.98    1.7722578 0.0022065251    65.154753    24662.842 
 9895000   -200757.51    1.7388418 -0.003938731    65.293881    24675.652 
 9900000   -200660.73    1.8175392 -0.0027496723    65.285582    24688.479 
 9905000    -200869.4    1.7898488 0.0044831467    65.164885    24701.255 
 9910000   -200706.09    1.7574808 -0.0013643985    65.258002    24714.066 
 9915000   -200733.19    1.7207517 0.00042797764    65.183916     24726.88 
 9920000   -200701.65    1.7514713 -0.0050572983    65.328227     24739.66 
 9925000   -200686.78    1.7736042 -0.0019972412    65.324456    24752.434 
 9930000    -200624.9     1.801451 -0.0025173612    65.377678    24765.181 
 9935000   -200694.33    1.7849632 0.0017367395    65.242215    24777.975 
 9940000   -200641.39    1.7668325 0.00052138643    65.335415    24790.708 
 9945000   -200697.35     1.754779 0.0016944306    65.272964    24803.465 
 9950000   -200695.35    1.8286671 -0.0006378157    65.390678     24816.22 
 9955000   -200865.41    1.7703789 -0.0011698297    65.339683    24828.978 
 9960000   -200751.38    1.7962834  0.002474421    65.316463     24841.75 
 9965000    -200712.9    1.7607966 0.00099626349    65.275845    24854.525 
 9970000   -200703.34    1.7529242 -0.00089145346    65.292481    24867.293 
 9975000   -200622.53    1.7885342  0.006361343    65.277615    24880.043 
 9980000   -200586.34    1.7643326 -0.0016159577    65.468844    24892.808 
 9985000    -200612.1    1.7961667 0.0028363841    65.298063    24905.562 
 9990000   -200859.11    1.7828421 -3.1694995e-05    65.303158    24918.338 
 9995000   -200833.51    1.7592461 0.00096104796    65.251688    24931.104 
10000000   -200743.63    1.7718217 0.0023654189    65.143757    24943.853 
10005000    -200683.4    1.7804793 -0.003868428    65.284656    24956.638 
10010000   -200665.41    1.7790633 0.0018715007    65.201946    24969.409 
10015000   -200406.69    1.7490144 -0.0057038779    65.367993     24982.15 
10020000   -200571.47    1.7808166 0.0010152279    65.259461    24994.969 
10025000   -200375.34    1.7665596 -0.002480111    65.299535    25007.723 
10030000   -200683.09    1.7933007 -0.0018367242    65.226685    25020.512 
10035000   -200679.45    1.7805968 -1.7837158e-05    65.167924     25033.26 
10040000   -200565.18    1.7972042 0.0026631716    65.152107    25045.983 
10045000    -200713.3    1.7775812 0.0028674571    65.087579    25058.754 
10050000   -200435.19    1.7660942 2.1477841e-05    65.132382    25071.497 
10055000   -200540.56    1.8043627 0.00054662739    65.189603    25084.239 
10060000    -200578.3    1.7565914 -0.0022372395    65.195422    25096.974 
10065000   -200478.71    1.7417799 0.0013380333    65.192072    25109.714 
10070000    -200606.5    1.7577458 0.0027633467    65.130713    25122.509 
10075000   -200499.95      1.80598 -0.0011876548    65.237627     25135.29 
10080000   -200571.52    1.8252625 -0.0015447983    65.225291     25148.12 
10085000   -200629.78    1.6938915 0.00031401383    65.146292    25160.879 
10090000   -200612.53    1.7503445 0.00053737505    65.275429    25173.661 
10095000   -200756.83    1.7876237 0.0038402315    65.174198    25186.419 
10100000   -200585.36    1.7704258 0.00039592891    65.306056    25199.189 
10105000   -200510.45    1.7599994 -0.0033379756    65.441043    25211.964 
10110000   -200642.26    1.7309536 -0.0015853749    65.283031    25224.742 
10115000   -200681.51    1.7674555 -0.0019637101     65.30358    25237.499 
10120000   -200593.79    1.7257095 0.0015366592    65.199907    25250.265 
10125000   -200645.72    1.7992989 0.0008880241    65.287738    25263.004 
10130000    -200642.5    1.7788214 -0.0045492662      65.3607    25275.773 
10135000   -200697.92     1.779198 -0.0042910849    65.445312    25288.534 
10140000   -200645.36    1.8118335 -0.0026260294    65.333585    25301.288 
10145000   -200710.36    1.8213579 -0.0025419072    65.413458    25314.063 
10150000    -200634.6    1.7876772 2.3994078e-05    65.401212    25326.839 
10155000   -200788.32    1.7501428 -0.0018723505     65.46717    25339.575 
10160000   -200666.69    1.7914813 -0.0015440249    65.421992    25352.307 
10165000   -200566.39    1.8269653 0.0020778698    65.420168     25365.02 
10170000   -200645.01    1.7549032 -0.00018208084    65.302162    25377.785 
10175000   -200549.92    1.7821382 0.0059315019     65.21429    25390.517 
10180000   -200506.52    1.7578756 0.0053203813     65.22242    25403.264 
10185000   -200702.11    1.7968009 0.0091435253    65.200543    25416.028 
10190000    -200529.2    1.7835008 0.0044917517    65.375672    25428.762 
10195000   -200646.03    1.7745531  0.001867462    65.435313    25441.511 
10200000   -200680.21    1.8034588 -0.0055135359    65.557246    25454.281 
10205000   -200695.61    1.7916133 0.0083580731    65.360727    25467.034 
10210000   -200725.54    1.7517179 0.0030214561    65.434925    25479.768 
10215000    -200642.9    1.7247293 -0.0036625332    65.484019    25492.516 
10220000   -200779.01    1.8400974 0.00049202879    65.331368    25505.235 
10225000   -200644.52    1.7594713 -0.0011710593    65.387265    25517.986 
10230000   -200710.51    1.8267465 0.0024607838    65.348728    25530.754 
10235000   -200769.26    1.8292386 -0.002336807    65.463061    25543.491 
10240000   -200822.68    1.7710263 0.0017854654    65.348417    25556.226 
10245000    -200593.3    1.8154647 0.0025614949    65.370177    25568.995 
10250000    -200586.2    1.8288279 -0.00022457996    65.469001     25581.74 
Loop time of 25581.7 on 8 procs for 10000000 steps with 2304 atoms

Performance: 33774.090 tau/day, 390.904 timesteps/s
95.7% CPU use with 8 MPI tasks x 1 OpenMP threads

MPI task timing breakdown:
Section |  min time  |  avg time  |  max time  |%varavg| %total
---------------------------------------------------------------
Pair    | 4038.5     | 4484.5     | 5039.9     | 472.3 | 17.53
Bond    | 0.90162    | 1.028      | 1.3025     |  14.6 |  0.00
Kspace  | 10800      | 10929      | 11035      |  80.5 | 42.72
Neigh   | 658.87     | 670.14     | 696.52     |  56.7 |  2.62
Comm    | 981.01     | 1009.6     | 1027.6     |  48.5 |  3.95
Output  | 0.86944    | 0.89949    | 1.1056     |   8.2 |  0.00
Modify  | 6131.6     | 7755.5     | 8649.9     |1066.2 | 30.32
Other   |            | 730.7      |            |       |  2.86

Nlocal:        288.000 ave         295 max         280 min
Histogram: 1 1 1 1 0 0 0 0 3 1
Nghost:        5875.12 ave        5895 max        5853 min
Histogram: 2 0 0 1 0 1 1 0 2 1
Neighs:         0.00000 ave           0 max           0 min
Histogram: 8 0 0 0 0 0 0 0 0 0
FullNghs:      240832.0 ave      247904 max      233316 min
Histogram: 1 1 2 0 0 0 0 1 2 1

Total # of neighbors = 1926654
Ave neighs/atom = 836.22135
Ave special neighs/atom = 0.0000000
Neighbor list builds = 82359
Dangerous builds = 0

## ----- deletion for small NPs and salt ----- ##
#    reset_timestep 0

#    label checking

#    compute     peatom    all   pe/atom
#    variable    exppe    atom    exp(2*c_peatom/${ttemp})
#    compute     aveS    small   reduce ave v_exppe
#    compute     aveCl   anion   reduce ave v_exppe
#    compute     aveNa   cation  reduce ave v_exppe

#    fix AVE all ave/time 5 ${repeat} ${freq} c_aveS c_aveCl file average.dat
#    thermo 10000
#    thermo_style custom step pe c_press lx cpu
#    thermo_modify norm no flush yes
#    fix AVE all ave/time 1 ${repeat} ${freq} c_aveS c_aveCl c_aveNa
#    variable    chempNP equal ${ttemp}*(ln(v_numS/vol)+ln(v_numCl/vol)*25+ln(f_AVE[1])+ln(f_AVE[2])*25)
#    variable    chempS  equal ${ttemp}*(ln(v_numNa/vol)+ln(v_numCl/vol)+ln(f_AVE[2])+ln(f_AVE[3]))
#    timestep 0.0005
#    run ${freq}

#    print "done! ChempNP= ${chempNP}" append potential.dat
Total wall time: 7:27:09
