LAMMPS (27 Oct 2021)
OMP_NUM_THREADS environment is not set. Defaulting to 1 thread. (src/comm.cpp:98)
  using 1 OpenMP thread(s) per MPI task
package gpu 0
package gpu 2 neigh no pair/only on
#Lammps gcmc code for electrolytes

## ----- Simulation times ----- ##
    variable t_nve      equal 50000             #nve/limit
    variable t_deform 	equal 50000            #nvt
    variable t_pressed 	equal 50000            #nvt
    variable t_relaxed 	equal 100000            #nvt
    variable t_eq 	equal 10000000           #nvt

    variable smallc	equal 10
    variable bigc	equal -80
    variable numB	equal 256
    variable numS	equal ${numB}*8
    variable numS	equal 256*8
#    variable numCl	equal ${numS}*${smallc}+${bigc}*${numB}

## ----- Environment setting ----- ##
    boundary p p p
    atom_style full

## ----- System Variables  ----- ##
    variable    ttemp       equal   $b          	#reduced temperature
    variable    ttemp       equal   1.8          	
    variable    ppress      equal   0			#osmetic pressure
    variable    cutoff_pppm equal   27.8	        #cutoff for the real part of pppm
    variable	ipress      equal   0.1

    variable    bigd        equal   10                      #LJ sigmas
    variable    smalld      equal   2
#    variable    Cl_d        equal   0.4
    variable    d_bs        equal   0.5*(${bigd}+${smalld})
    variable    d_bs        equal   0.5*(10+${smalld})
    variable    d_bs        equal   0.5*(10+2)
#    variable    d_sNa       equal   0.5*(v_smalld+v_Na_d)
#    variable    d_sCl       equal   0.5*(v_smalld+v_Cl_d)
#    variable    d_bNa       equal   0.5*(v_bigd+v_Na_d)
#    variable    d_bCl       equal   0.5*(v_bigd+v_Cl_d)
#    variable    d_NaCl      equal   0.5*(v_Na_d+v_Cl_d)

    variable    cut_small   equal   ${smalld}*1.122462	    #cutoffs for LJ
    variable    cut_small   equal   2*1.122462	    
    variable    cut_big     equal   ${bigd}*1.122462
    variable    cut_big     equal   10*1.122462
#    variable    cut_Na_d    equal   ${Na_d}*1.122462
#    variable    cut_Cl_d    equal   ${Cl_d}*1.122462
    variable    cut_bs      equal   ${d_bs}*1.122462
    variable    cut_bs      equal   6*1.122462
#    variable    cut_bNa     equal   ${d_bNa}*1.122462
#    variable    cut_bCl     equal   ${d_bCl}*1.122462
#    variable    cut_sNa     equal   ${d_sNa}*1.122462
#    variable    cut_sCl     equal   ${d_sCl}*1.122462
#    variable    cut_NaCl    equal   ${d_NaCl}*1.122462

## ----- Initialization and grouping ----- ##
    read_data config_fcc8.dat
Reading data file ...
  orthogonal box = (-80.000000 -80.000000 -80.000000) to (80.000000 80.000000 80.000000)
  2 by 2 by 2 MPI processor grid
  reading atoms ...
  2304 atoms
Finding 1-2 1-3 1-4 neighbors ...
  special bond factors lj:    0        0        0       
  special bond factors coul:  0        0        0       
     0 = max # of 1-2 neighbors
     0 = max # of 1-3 neighbors
     0 = max # of 1-4 neighbors
     1 = max # of special neighbors
  special bonds CPU = 0.002 seconds
  read_data CPU = 0.014 seconds

    set type 1 charge   ${bigc}    	#large NPs
    set type 1 charge   -80    	
Setting atom values ...
  256 settings made for charge
    set type 2 charge   ${smallc}       #small NPs
    set type 2 charge   10       
Setting atom values ...
  2048 settings made for charge
#    set type 3 charge   1       #Na+
#    set type 3 charge   -1      #Cl-

    mass    *   0.2
    mass    1   25.0

    group big       type 1
256 atoms in group big
    group small     type 2
2048 atoms in group small
#    group cation    type 3
#    group anion     type 3

## ----- Interaction setting ----- ##
    pair_style lj/cut/coul/long ${cut_big} ${cutoff_pppm} #lj/cut/coul/long/soft 2.0 0.5 5.0 ${cut_small} ${cutoff_pppm}
    pair_style lj/cut/coul/long 11.22462 ${cutoff_pppm} 
    pair_style lj/cut/coul/long 11.22462 27.8 
    #Between regular particles (4*5/2=10)
    pair_coeff  1   1   2.0     ${bigd}     ${cut_big}	        # big-big
    pair_coeff  1   1   2.0     10     ${cut_big}	        
    pair_coeff  1   1   2.0     10     11.22462	        
    pair_coeff  2   2   2.0     ${smalld}   ${cut_small}	    # small-small
    pair_coeff  2   2   2.0     2   ${cut_small}	    
    pair_coeff  2   2   2.0     2   2.244924	    
#    pair_coeff  3   3   2.0     ${Na_d}     ${cut_Na_d}		    # Na-Na
#    pair_coeff  3   3   2.0     ${Cl_d}     ${cut_Cl_d}       	# Cl-Cl
    pair_coeff  1   2   2.0     ${d_bs}     ${cut_bs}	        # big-small
    pair_coeff  1   2   2.0     6     ${cut_bs}	        
    pair_coeff  1   2   2.0     6     6.734772	        
#    pair_coeff  1   3   2.0     ${d_bNa}    ${cut_bNa}	        # big-Na
#    pair_coeff  1   3   2.0     ${d_bCl}    ${cut_bCl}	        # big-Cl
#    pair_coeff  2   3   2.0     ${d_sNa}    ${cut_sNa}       	# small-Na
#    pair_coeff  2   3   2.0     ${d_sCl}    ${cut_sCl}       	# small-Cl
#    pair_coeff  3   4   2.0     ${d_NaCl}   ${cut_NaCl}       	# Na-Cl
#    pair_modify pair lj/cut/coul/long shift yes
    pair_modify shift yes
    kspace_style	pppm	5.0e-4

## ----- Simulation setup ----- ##
    neighbor 1.2 bin
    neigh_modify delay 0 every 1 check yes #one 2000

    compute temp all temp
    compute press all pressure temp

    thermo 5000
    thermo_style custom step pe temp c_press lx cpu
    thermo_modify norm no flush yes

   # dump moldump all custom 50000 ${xyzname} id type q x y z

## ----- Thermalization of system ----- ##
    timestep 0.0002

    fix 1 all nve/limit 0.05
    fix 2 big langevin ${ttemp} ${ttemp} 0.2 1234567
    fix 2 big langevin 1.8 ${ttemp} 0.2 1234567
    fix 2 big langevin 1.8 1.8 0.2 1234567
    fix 3 small langevin ${ttemp} ${ttemp} 0.008 123456
    fix 3 small langevin 1.8 ${ttemp} 0.008 123456
    fix 3 small langevin 1.8 1.8 0.008 123456

    fix freeze big setforce 0.0 0.0 0.0
    fix zeromom all momentum 1 linear 1 1 1 angular
    run ${t_nve}
    run 50000

CITE-CITE-CITE-CITE-CITE-CITE-CITE-CITE-CITE-CITE-CITE-CITE-CITE

Your simulation uses code contributions which should be cited:

- GPU package (short-range, long-range and three-body potentials):

@Article{Brown11,
 author = {W. M. Brown, P. Wang, S. J. Plimpton, A. N. Tharrington},
 title = {Implementing Molecular Dynamics on Hybrid High Performance Computers - Short Range Forces},
 journal = {Comp.~Phys.~Comm.},
 year =    2011,
 volume =  182,
 pages =   {898--911}
}

@Article{Brown12,
 author = {W. M. Brown, A. Kohlmeyer, S. J. Plimpton, A. N. Tharrington},
 title = {Implementing Molecular Dynamics on Hybrid High Performance Computers - Particle-Particle Particle-Mesh},
 journal = {Comp.~Phys.~Comm.},
 year =    2012,
 volume =  183,
 pages =   {449--459}
}

@Article{Brown13,
 author = {W. M. Brown, Y. Masako},
 title = {Implementing Molecular Dynamics on Hybrid High Performance Computers â€“ Three-Body Potentials},
 journal = {Comp.~Phys.~Comm.},
 year =    2013,
 volume =  184,
 pages =   {2785--2793}
}

@Article{Trung15,
 author = {T. D. Nguyen, S. J. Plimpton},
 title = {Accelerating dissipative particle dynamics simulations for soft matter systems},
 journal = {Comput.~Mater.~Sci.},
 year =    2015,
 volume =  100,
 pages =   {173--180}
}

@Article{Trung17,
 author = {T. D. Nguyen},
 title = {GPU-accelerated Tersoff potentials for massively parallel Molecular Dynamics simulations},
 journal = {Comp.~Phys.~Comm.},
 year =    2017,
 volume =  212,
 pages =   {113--122}
}

@Article{Nikolskiy19,
 author = {V. Nikolskiy, V. Stegailov},
 title = {GPU acceleration of four-site water models in LAMMPS},
 journal = {Proceeding of the International Conference on Parallel Computing (ParCo 2019), Prague, Czech Republic},
 year =    2019
}

CITE-CITE-CITE-CITE-CITE-CITE-CITE-CITE-CITE-CITE-CITE-CITE-CITE

PPPM initialization ...
  using 12-bit tables for long-range coulomb (src/kspace.cpp:340)
  G vector (1/distance) = 0.11438956
  grid = 60 60 60
  stencil order = 5
  estimated absolute RMS force accuracy = 0.00041211524
  estimated relative force accuracy = 0.00041211524
  using double precision KISS FFT
  3d grid and FFT values/proc = 42875 28800
  generated 0 of 1 mixed pair_coeff terms from geometric mixing rule
Neighbor list info ...
  update every 1 steps, delay 0 steps, check yes
  max neighbors/atom: 2000, page size: 100000
  master list distance cutoff = 29
  ghost atom cutoff = 29
  binsize = 14.5, bins = 12 12 12
  1 neighbor lists, perpetual/occasional/extra = 1 0 0
  (1) pair lj/cut/coul/long/gpu, perpetual
      attributes: full, newton off
      pair build: full/bin
      stencil: full/bin/3d
      bin: standard
Per MPI rank memory allocation (min/avg/max) = 11.45 | 11.54 | 11.62 Mbytes
Step PotEng Temp c_press Lx CPU 
       0 1.7992005e+08            0    175.78446          160            0 
    5000   -68337.883    1.6065075 -0.0042668387          160     39.28745 
   10000   -73828.468    1.6779637 -0.0043247682          160    78.396239 
   15000   -78320.575    1.5693728 -0.0043722594          160    117.44795 
   20000   -82401.901    1.6465922 -0.0043151175          160    156.47715 
   25000   -85982.766    1.6300954 -0.004481247          160    195.40309 
   30000   -89537.074    1.6004155 -0.0044514699          160    234.37606 
   35000   -92843.099    1.6215692 -0.0043074539          160    273.37493 
   40000   -95999.847    1.6301954 -0.0042635192          160    312.28875 
   45000   -98805.413    1.6465637 -0.0043169244          160    351.18895 
   50000   -101239.99    1.5745587 -0.0040505017          160    390.11284 
Loop time of 390.113 on 8 procs for 50000 steps with 2304 atoms

Performance: 2214.743 tau/day, 128.168 timesteps/s
99.7% CPU use with 8 MPI tasks x 1 OpenMP threads

MPI task timing breakdown:
Section |  min time  |  avg time  |  max time  |%varavg| %total
---------------------------------------------------------------
Pair    | 9.2715     | 9.5798     | 9.8953     |   8.5 |  2.46
Bond    | 0.0070512  | 0.0097838  | 0.011271   |   1.4 |  0.00
Kspace  | 374.02     | 374.65     | 375.1      |   1.8 | 96.03
Neigh   | 0.061038   | 0.068833   | 0.075667   |   2.0 |  0.02
Comm    | 2.3241     | 2.5872     | 2.9695     |  13.2 |  0.66
Output  | 0.00035941 | 0.0012008  | 0.0070657  |   6.4 |  0.00
Modify  | 2.677      | 2.7221     | 2.7882     |   2.2 |  0.70
Other   |            | 0.4991     |            |       |  0.13

Nlocal:        288.000 ave         313 max         260 min
Histogram: 2 0 0 1 0 2 1 0 0 2
Nghost:        1330.00 ave        1354 max        1297 min
Histogram: 1 0 1 0 1 2 0 0 1 2
Neighs:         0.00000 ave           0 max           0 min
Histogram: 8 0 0 0 0 0 0 0 0 0
FullNghs:      16564.5 ave       18884 max       14067 min
Histogram: 2 0 0 1 0 3 0 0 0 2

Total # of neighbors = 132516
Ave neighs/atom = 57.515625
Ave special neighs/atom = 0.0000000
Neighbor list builds = 75
Dangerous builds = 0

#    compute     peatom      all     pe/atom
#    variable    exppe       atom    exp(2*c_peatom/${ttemp})
#    compute     aveS        small   reduce ave v_exppe
#    compute     aveCl       anion   reduce ave v_exppe
#    compute     aveNa       cation  reduce ave v_exppe
#    thermo ${every}
#    thermo_style custom step pe temp lx vol c_aveS c_aveCl c_aveNa cpu
#    thermo_modify norm no flush yes
#    variable    chempNP     equal   temp*(ln(2304/vol)+ln(18300/vol)*10+ln(c_aveS)+ln(c_aveCl)*10)
#    variable    chempS      equal   temp*(ln(5500/vol)+ln(18300/vol)+ln(c_aveNa)+ln(c_aveCl))
#    label checking
#    run ${every}
#    if "${chempNP}>${mu_np}" then 'print "ChempNP=${chempNP}; expel"' "jump gcmc.in checking" else 'print "done!"'

    fix deforming all deform 10 x final -33 33 y final -33 33 z final -33 33 remap x
    run ${t_deform}
    run 50000
PPPM initialization ...
  using 12-bit tables for long-range coulomb (src/kspace.cpp:340)
  G vector (1/distance) = 0.11438956
  grid = 60 60 60
  stencil order = 5
  estimated absolute RMS force accuracy = 0.00041211524
  estimated relative force accuracy = 0.00041211524
  using double precision KISS FFT
  3d grid and FFT values/proc = 42875 28800
  generated 0 of 1 mixed pair_coeff terms from geometric mixing rule
Per MPI rank memory allocation (min/avg/max) = 11.45 | 11.54 | 11.62 Mbytes
Step PotEng Temp c_press Lx CPU 
   50000   -101239.99    1.5745587 -0.0040505017          160            0 
   55000   -107524.35    1.6640637 -0.0034467272        150.6    41.916804 
   60000    -114335.5    1.6207581 -0.0035396122        141.2    83.841851 
   65000   -121865.08    1.6438772 -0.0039279579        131.8    125.86744 
   70000   -129896.48    1.6242739 -0.0035953887        122.4    167.97628 
   75000   -138090.17    1.6069919 -0.0015091164          113    210.13698 
   80000   -146465.51    1.6314675 0.0026566508        103.6    252.40651 
   85000   -155128.42    1.6015377  0.010204896         94.2    294.65316 
   90000   -163748.73     1.625025  0.029988574         84.8    337.06952 
   95000    -172192.4    1.6164222  0.074718601         75.4    379.67711 
  100000   -181901.91    1.6947043   0.17713886           66    422.71495 
Loop time of 422.715 on 8 procs for 50000 steps with 2304 atoms

Performance: 2043.930 tau/day, 118.283 timesteps/s
99.7% CPU use with 8 MPI tasks x 1 OpenMP threads

MPI task timing breakdown:
Section |  min time  |  avg time  |  max time  |%varavg| %total
---------------------------------------------------------------
Pair    | 9.9514     | 10.362     | 10.683     |   8.5 |  2.45
Bond    | 0.0070383  | 0.009744   | 0.011907   |   1.5 |  0.00
Kspace  | 376.4      | 376.79     | 377.24     |   1.6 | 89.14
Neigh   | 0.78889    | 0.86338    | 0.92448    |   5.0 |  0.20
Comm    | 3.657      | 4.0636     | 4.4284     |  11.8 |  0.96
Output  | 0.00048139 | 0.0048214  | 0.011384   |   5.7 |  0.00
Modify  | 25.244     | 27.831     | 29.927     |  35.0 |  6.58
Other   |            | 2.789      |            |       |  0.66

Nlocal:        288.000 ave         304 max         277 min
Histogram: 2 1 0 1 1 1 0 1 0 1
Nghost:        5856.00 ave        5887 max        5820 min
Histogram: 1 1 0 1 1 0 0 1 2 1
Neighs:         0.00000 ave           0 max           0 min
Histogram: 8 0 0 0 0 0 0 0 0 0
FullNghs:      235163.0 ave      250200 max      225436 min
Histogram: 2 1 0 2 0 1 0 1 0 1

Total # of neighbors = 1881306
Ave neighs/atom = 816.53906
Ave special neighs/atom = 0.0000000
Neighbor list builds = 338
Dangerous builds = 0

    unfix 1
#    unfix 2
    unfix freeze
    unfix deforming

    timestep 0.002

    fix 1 all   nph	            iso ${ipress} ${ipress} 1.0
    fix 1 all   nph	            iso 0.1 ${ipress} 1.0
    fix 1 all   nph	            iso 0.1 0.1 1.0
    run ${t_pressed}
    run 50000
PPPM initialization ...
  using 12-bit tables for long-range coulomb (src/kspace.cpp:340)
  G vector (1/distance) = 0.1206864
  grid = 32 32 32
  stencil order = 5
  estimated absolute RMS force accuracy = 0.00049681107
  estimated relative force accuracy = 0.00049681107
  using double precision KISS FFT
  3d grid and FFT values/proc = 9261 4096
  generated 0 of 1 mixed pair_coeff terms from geometric mixing rule
Per MPI rank memory allocation (min/avg/max) = 9.326 | 9.329 | 9.331 Mbytes
Step PotEng Temp c_press Lx CPU 
  100000   -181861.89    1.6947043   0.17877275           66            0 
  105000   -200232.65    1.8081445  0.098977671      61.8813    14.167282 
  110000   -201864.54      1.79151  0.099455408    60.938251    28.551441 
  115000   -203178.63    1.7304885   0.10666439    60.337598    43.124452 
  120000   -203970.79    1.7621243   0.10184311    60.117553    57.780464 
  125000   -204209.18    1.8466011    0.0986642    60.144868    72.434777 
  130000   -204404.42    1.8596069  0.098469044    60.097782    87.076649 
  135000   -204474.48    1.7701113  0.099717883    60.084097     101.7488 
  140000   -204823.93    1.7575548   0.10021083    60.071883    116.42135 
  145000   -204804.66    1.7737269  0.095913511    60.084205    131.07461 
  150000   -205054.65    1.8240433  0.091624535    60.097034    145.71117 
Loop time of 145.711 on 8 procs for 50000 steps with 2304 atoms

Performance: 59295.329 tau/day, 343.144 timesteps/s
97.2% CPU use with 8 MPI tasks x 1 OpenMP threads

MPI task timing breakdown:
Section |  min time  |  avg time  |  max time  |%varavg| %total
---------------------------------------------------------------
Pair    | 14.839     | 18.513     | 20.698     |  40.4 | 12.71
Bond    | 0.0048861  | 0.0054468  | 0.0062799  |   0.7 |  0.00
Kspace  | 65.804     | 66.49      | 67.382     |   7.2 | 45.63
Neigh   | 6.9377     | 7.1328     | 7.4468     |   5.4 |  4.90
Comm    | 6.0988     | 6.1641     | 6.2107     |   1.4 |  4.23
Output  | 0.00031893 | 0.00048362 | 0.0016192  |   0.0 |  0.00
Modify  | 42.312     | 45.354     | 46.871     |  20.3 | 31.13
Other   |            | 2.051      |            |       |  1.41

Nlocal:        288.000 ave         291 max         283 min
Histogram: 1 0 0 1 0 2 0 0 3 1
Nghost:        7253.00 ave        7267 max        7235 min
Histogram: 1 1 0 0 2 0 0 1 1 2
Neighs:         0.00000 ave           0 max           0 min
Histogram: 8 0 0 0 0 0 0 0 0 0
FullNghs:      314691.0 ave      317726 max      308647 min
Histogram: 1 0 0 1 0 2 0 0 0 4

Total # of neighbors = 2517526
Ave neighs/atom = 1092.6762
Ave special neighs/atom = 0.0000000
Neighbor list builds = 789
Dangerous builds = 0
    unfix 1
    fix 1 all   nph	            iso ${ipress} ${ppress} 1.0
    fix 1 all   nph	            iso 0.1 ${ppress} 1.0
    fix 1 all   nph	            iso 0.1 0 1.0
    run ${t_relaxed}
    run 100000
PPPM initialization ...
  using 12-bit tables for long-range coulomb (src/kspace.cpp:340)
  G vector (1/distance) = 0.12137582
  grid = 30 30 30
  stencil order = 5
  estimated absolute RMS force accuracy = 0.00050278678
  estimated relative force accuracy = 0.00050278678
  using double precision KISS FFT
  3d grid and FFT values/proc = 8000 3600
  generated 0 of 1 mixed pair_coeff terms from geometric mixing rule
Per MPI rank memory allocation (min/avg/max) = 9.786 | 9.804 | 9.816 Mbytes
Step PotEng Temp c_press Lx CPU 
  150000   -205054.52    1.8240433  0.091629631    60.097034            0 
  155000   -204934.61    1.8283614  0.099901145    60.089641    14.130941 
  160000   -204955.86    1.8116708   0.09197143    60.179496     28.35778 
  165000   -204983.02    1.7893969  0.086246387    60.257016    42.516537 
  170000   -205068.77    1.8024479  0.079678477    60.277781    56.608865 
  175000   -205121.61    1.8601811  0.073486714    60.397069    70.801475 
  180000   -204902.32    1.7807043   0.07267471    60.407572    84.965973 
  185000   -205071.32    1.8009041  0.060721881    60.495592    99.083804 
  190000   -204864.53    1.7858845  0.066507251    60.539256    113.22332 
  195000   -204725.37    1.7767437  0.050604191    60.759393    127.28946 
  200000   -204796.73    1.8057485  0.056470506    60.664361    141.34147 
  205000   -204803.71    1.8132432  0.035784868     60.95211    155.42571 
  210000   -205060.74     1.812449  0.032118548    60.943355    169.46348 
  215000   -204992.16    1.7738055   0.03001937    61.000238    183.40386 
  220000   -204588.37    1.8988343  0.032179723    61.074039    197.42368 
  225000   -204425.67    1.8047052  0.028360796    61.236576    211.40657 
  230000   -204476.06    1.8847851  0.021511064    61.324903    225.37242 
  235000   -204385.39    1.7271285  0.014469733    61.392857     239.3035 
  240000   -204107.22    1.8044024 0.0089903607    61.553864    253.20282 
  245000   -203798.51    1.8079911 0.0077892023    61.746144    267.09444 
  250000   -203376.78    1.7442599 -0.0034978673    61.982533    280.92458 
Loop time of 280.925 on 8 procs for 100000 steps with 2304 atoms

Performance: 61511.130 tau/day, 355.967 timesteps/s
94.2% CPU use with 8 MPI tasks x 1 OpenMP threads

MPI task timing breakdown:
Section |  min time  |  avg time  |  max time  |%varavg| %total
---------------------------------------------------------------
Pair    | 53.847     | 58.866     | 64.919     |  40.3 | 20.95
Bond    | 0.0094718  | 0.01118    | 0.013028   |   1.0 |  0.00
Kspace  | 107.73     | 109.27     | 110.72     |  12.2 | 38.90
Neigh   | 14.001     | 14.33      | 14.835     |   6.5 |  5.10
Comm    | 12.273     | 12.343     | 12.411     |   1.3 |  4.39
Output  | 0.00063763 | 0.0012811  | 0.0057533  |   4.7 |  0.00
Modify  | 63.824     | 78.962     | 86.812     |  90.6 | 28.11
Other   |            | 7.146      |            |       |  2.54

Nlocal:        288.000 ave         293 max         281 min
Histogram: 1 0 1 1 0 1 0 1 0 3
Nghost:        6831.50 ave        6891 max        6768 min
Histogram: 1 0 1 2 0 0 1 1 1 1
Neighs:         0.00000 ave           0 max           0 min
Histogram: 8 0 0 0 0 0 0 0 0 0
FullNghs:      285452.0 ave      290919 max      277658 min
Histogram: 1 0 0 2 1 0 0 1 1 2

Total # of neighbors = 2283620
Ave neighs/atom = 991.15451
Ave special neighs/atom = 0.0000000
Neighbor list builds = 1587
Dangerous builds = 0
    unfix 1

    timestep 0.001
    dump moldump all custom 10000 ${xyzname} id type q x y z
    dump moldump all custom 10000 r8f0_coulombic_1.8.lammpstrj id type q x y z
    fix 1 all   nph                 iso ${ppress} ${ppress} 1.0
    fix 1 all   nph                 iso 0 ${ppress} 1.0
    fix 1 all   nph                 iso 0 0 1.0
    run ${t_eq}
    run 10000000
PPPM initialization ...
  using 12-bit tables for long-range coulomb (src/kspace.cpp:340)
  G vector (1/distance) = 0.12064783
  grid = 30 30 30
  stencil order = 5
  estimated absolute RMS force accuracy = 0.00054998948
  estimated relative force accuracy = 0.00054998948
  using double precision KISS FFT
  3d grid and FFT values/proc = 8000 3600
  generated 0 of 1 mixed pair_coeff terms from geometric mixing rule
Per MPI rank memory allocation (min/avg/max) = 11.05 | 11.07 | 11.08 Mbytes
Step PotEng Temp c_press Lx CPU 
  250000   -203376.82    1.7442599 -0.0034994072    61.982533            0 
  255000   -203540.66    1.7447947 -0.001702098    62.008607    13.450148 
  260000   -203473.94    1.7744253 0.0069662826    61.970499    26.886826 
  265000   -203361.92    1.7846495 -5.5205577e-05    62.090935    40.316163 
  270000   -203262.86    1.8027799   0.00469815    62.127543    53.742956 
  275000   -203219.41    1.7685814 0.0018332075    62.204737    67.145779 
  280000    -202969.7    1.8035501 -0.0017273902    62.295746    80.539054 
  285000   -203017.92     1.743232 0.0043361669    62.210826    93.918293 
  290000   -203178.62     1.794882  0.005821267    62.207422    107.30383 
  295000   -203055.56    1.8455566 0.0038964172    62.206814    120.72387 
  300000   -202882.07    1.8302548 -0.0002047043    62.319426    134.11632 
  305000   -202921.83    1.7730148 -0.0036265388    62.301337    147.52615 
  310000   -202822.16     1.797469 -0.0019496864    62.299971    160.92168 
  315000    -202688.3    1.8240368 -0.0019785344     62.42163    174.31926 
  320000   -202923.19    1.8237247 -0.002091003    62.402941    187.67603 
  325000   -202939.98    1.7389302 0.00031224534    62.322136    201.03506 
  330000    -202895.1    1.8346194 0.00045497939    62.281687    214.48899 
  335000   -202795.94    1.8172707 0.0031404881    62.398297    227.89177 
  340000   -202837.63    1.8135288 -0.0042679455     62.49506    241.22331 
  345000   -202769.58    1.7896183 -0.0019074672    62.464812    254.54054 
  350000   -202680.48    1.8161376  0.001435423    62.442791     267.8878 
  355000   -202775.85    1.8406686  0.001754565    62.412304    281.21789 
  360000   -202536.84    1.8011136 -7.3816904e-05    62.523262    294.53575 
  365000   -202416.03    1.8492757 0.0035992991    62.519586       307.87 
  370000   -202417.91    1.8135671 -0.002357752    62.619379    321.19613 
  375000   -202214.86     1.772042 -0.0036329604    62.730809    334.52328 
  380000   -202211.39    1.8231943 0.0066875301    62.612426    347.84975 
  385000   -202115.85    1.8672375 0.0035319354    62.765639    361.17026 
  390000   -202147.17    1.8022596 -0.0084674302    62.904966    374.47284 
  395000   -202011.85      1.78278 0.0021626397    62.851359    387.76471 
  400000   -202063.19    1.7961555 -0.00058525429    62.900503    401.08391 
  405000   -202185.71    1.7752944 0.0037105613    62.840325    414.33442 
  410000   -202184.76    1.7885166  -0.00153334    62.950489     427.5937 
  415000   -202096.38    1.7913773 0.0053631476    62.848334    440.88617 
  420000   -201937.82    1.7852729  -0.00018238    62.953634    454.10861 
  425000   -201971.93    1.8167935 -0.0061893733    63.029231    467.35007 
  430000   -201891.63    1.7594063 0.0042428579    63.036417    480.55949 
  435000   -201839.47    1.7712358 0.0058269749    63.166829    493.75249 
  440000   -201592.88    1.8137954 0.0023547438    63.244087    506.95579 
  445000   -201684.69     1.778736 0.0041190277    63.175569    520.13678 
  450000   -201874.24      1.81978 -0.00099864613    63.163655    533.34019 
  455000   -201620.71    1.8300952 -0.0033820299     63.26396    546.57252 
  460000   -201514.76    1.8012194 0.0036203714    63.336239    559.83638 
  465000   -201488.99    1.8389988 -0.0027904085     63.39452     573.0539 
  470000    -201480.1     1.777145 -0.0033202087    63.382026     586.2775 
  475000      -201505    1.8462474 0.0072193215    63.270339    599.50148 
  480000   -201230.15    1.7943563 -0.0042345008    63.560089    612.65893 
  485000   -201311.52    1.7863021 0.0010211429    63.545168    625.79609 
  490000   -201398.77    1.8239325 0.0032068817    63.478675    638.95449 
  495000   -201527.74    1.7929794 -0.00090036238    63.456874    652.13474 
  500000   -201526.16    1.7734219 -0.0017541646    63.466675    665.29348 
  505000   -201351.35    1.8201252 0.0045910296    63.487374    678.46768 
  510000   -201360.73     1.805195 -0.0039219511    63.746741    691.60619 
  515000      -201369    1.8071502 -0.0028238619    63.729751    704.73564 
  520000   -201372.44    1.7616534 -0.0026865856    63.663434    717.86094 
  525000   -201167.37    1.7535449 0.00066777918    63.612745    731.04262 
  530000   -201244.38    1.7743429 -0.0024981501    63.661967    744.20723 
  535000   -201145.03    1.8311839 -0.0014103411    63.756193    757.30347 
  540000   -201077.56    1.7837708 -0.001427066    63.781138    770.39497 
  545000   -201073.58    1.8006627 0.00070181655    63.862854    783.51875 
  550000   -201079.78    1.8349884 -0.0027207663    63.998556    796.60551 
  555000   -201112.57    1.8032899 0.0013007131    63.942025    809.69813 
  560000   -201034.11    1.8115466 0.0046053042    63.912706    822.76486 
  565000    -200862.8     1.732512 -0.0026269241    64.141619    835.85698 
  570000   -200826.86    1.7693561 0.0026746965    64.160313    848.86692 
  575000   -200970.45    1.8309959 0.00029689855    64.138067    861.89699 
  580000   -200881.87    1.7857347 -0.0042613505    64.323856    874.91842 
  585000    -200870.4    1.7721242 -0.0040954513    64.353062    887.91603 
  590000   -200765.93    1.7903318 -0.0020200833    64.354088    900.91322 
  595000   -200806.12    1.8277862 -0.00086065961    64.512945     913.9397 
  600000   -200730.21    1.8637749 -0.0040511382    64.528267    926.95253 
  605000   -201022.81    1.7654355 0.0039118051    64.375691    939.95048 
  610000   -200775.22    1.8127481 -0.0011476453     64.57543    952.94105 
  615000   -200819.85    1.7499092 0.0077252835    64.454591    965.91881 
  620000   -200882.65    1.7508859 -0.00016993452     64.60865    978.90716 
  625000   -200727.39    1.8145754 0.0028720443    64.615995     991.8611 
  630000   -200641.76    1.8268957 -0.0003624448     64.69031     1004.792 
  635000   -200556.01    1.8092086 -0.00075951585    64.754043    1017.7403 
  640000   -200870.59    1.7714901 -0.00054104481    64.664578    1030.7001 
  645000   -200497.45    1.7595397 0.0015839074    64.709246    1043.6935 
  650000   -200759.97    1.8055722 -0.0019748955    64.704921    1056.6644 
  655000    -200595.6    1.7984046 -0.00014732835    64.866379     1069.624 
  660000   -200681.64    1.7959015 0.0015597387    64.888892    1082.5575 
  665000   -200810.14    1.8068806 0.0020966174    64.934427    1095.5145 
  670000   -200531.05    1.8543244 -0.0006172984    65.040383    1108.4377 
  675000   -200618.82    1.7618383 0.0036315677    64.819234    1121.3556 
  680000   -200756.57    1.7838706 -0.00078045982    65.005717    1134.3227 
  685000   -200589.64    1.8380973 0.0049485933    64.890327    1147.2466 
  690000    -200689.5     1.809541 -0.0023008715    64.966591    1160.1805 
  695000   -200599.58    1.7946719 0.0063146494    64.884517    1173.1087 
  700000   -200478.98    1.7755566 0.0025375371    64.982248    1186.0274 
  705000   -200580.18    1.8108922 0.00028956434    64.954352    1198.8936 
  710000   -200625.53    1.8238301 0.0034606233    64.972689    1211.7985 
  715000   -200681.26    1.8389701 -0.0041078242    65.106287    1224.7097 
  720000   -200603.32    1.8211333 -0.0019136372    65.077629    1237.6293 
  725000   -200557.46    1.8015135 -0.0017713875    65.120155    1250.5432 
  730000   -200412.09    1.7833522 0.00017018868    65.172476      1263.42 
  735000   -200383.74    1.8249178 0.0028494793    65.089096    1276.3369 
  740000    -200604.6    1.8426623 0.00082152905    65.126267    1289.2414 
  745000   -200625.82    1.7671795 0.0033532585    65.047495    1302.1368 
  750000   -200541.66    1.7950749 -0.00065792611    65.115175    1315.0318 
  755000   -200594.35     1.806644 -0.0024528996    65.053678    1327.9634 
  760000   -200583.46    1.7766029 0.0035183787    64.950981    1340.8635 
  765000   -200583.43    1.8240126 -0.0039569683    65.077664    1353.7922 
  770000   -200562.44    1.7928093 -0.0001084313    65.018662    1366.7115 
  775000    -200640.8    1.8727253 0.0012100637    65.159775    1379.6066 
  780000   -200511.75    1.7745454 0.0034570346    65.056792    1392.4676 
  785000    -200524.6    1.7918036 -0.00062813687    65.169884    1405.3549 
  790000   -200780.17    1.7917676 0.0028016784    65.059838    1418.2537 
  795000   -200389.16    1.7548729 0.0066290464    65.048911    1431.1122 
  800000   -200460.32    1.7873563 -0.0013667849    65.183012    1444.0119 
  805000   -200566.32    1.8625489 0.0044061382     65.05329     1456.867 
  810000   -200316.22    1.8539394 -0.0015339713    65.310225    1469.7579 
  815000   -200434.23    1.7947838 0.0032216832    65.148749     1482.623 
  820000    -200725.8    1.7868342 0.0018894349    65.172198    1495.4829 
  825000   -200538.84    1.7820889 0.0036578292    65.222367    1508.3536 
  830000   -200496.83    1.7940472 0.0014986432    65.308705      1521.23 
  835000    -200572.6    1.7807964 -0.0025590793    65.327058    1534.0637 
  840000   -200505.11    1.7804453 -0.0031316252    65.365343    1546.9031 
  845000   -200535.48    1.7908998 -0.0025676505    65.235434    1559.7512 
  850000   -200646.18     1.796299 -0.00050512413    65.176023     1572.596 
  855000   -200421.71    1.7481379 0.00081017552    65.273041    1585.4106 
  860000      -200483    1.8246274 -0.00077384613    65.297302     1598.286 
  865000   -200562.87    1.7914799 -0.0031876141    65.303409    1611.1702 
  870000   -200636.79    1.7748715 0.0028478246    65.280333    1624.0547 
  875000   -200706.58    1.7564411 0.0013672406    65.316342    1636.9413 
  880000   -200657.03    1.8104696 0.0018050862    65.378214    1649.7604 
  885000   -200637.66    1.8433887 0.00075045837    65.289238    1662.6152 
  890000    -200613.9    1.8000426 -0.00042584295    65.296215    1675.4516 
  895000   -200416.35    1.8321868 -0.0027286859     65.36726    1688.3328 
  900000   -200572.09    1.7710171 -0.00096422811     65.23999    1701.1578 
  905000   -200446.92     1.779167 -0.0042476123    65.222358    1714.0704 
  910000   -200538.71    1.8097451 0.0011102077    65.263634    1726.9863 
  915000   -200619.46    1.8027233 -0.0037227188    65.294063    1739.8779 
  920000   -200602.06    1.7658361 0.0025537628    65.193772    1752.7104 
  925000   -200581.07    1.7886625 -0.00067218453    65.097308    1765.5931 
  930000   -200528.53    1.7929066 0.0014643005    65.077543    1778.5292 
  935000   -200726.04    1.8293438 -0.0017606342     65.10017    1791.4517 
  940000   -200477.54    1.8306691 0.0025528918    65.121986    1804.3475 
  945000   -200780.87    1.7850703 -0.00044835325    64.952443    1817.2658 
  950000   -200473.56    1.8161717 -0.002727406    65.111657    1830.1609 
  955000   -200476.32    1.7997919 -0.0048110046    65.091427    1843.0869 
  960000   -200656.53    1.8368574 0.0024234756    64.974745    1855.9989 
  965000   -200483.42    1.7908425 0.0032430725    64.920757     1868.926 
  970000   -200712.02    1.8240178 0.00032819735    65.018545    1881.8515 
  975000   -200722.49    1.7805672 -0.0018806814     65.08322    1894.7554 
  980000   -200555.87    1.7937204 0.00010367643    65.087496    1907.6332 
  985000   -200670.77    1.8106268 0.0042260069    65.119357    1920.5245 
  990000   -200613.22     1.758566 -2.7569179e-05    65.137893    1933.4097 
  995000   -200658.18    1.7875678  0.001033279    65.101332    1946.3039 
 1000000   -200653.03    1.8081907 -0.001403947    65.150673    1959.1444 
 1005000   -200521.76    1.8101648 0.0010299418    65.067256    1971.9449 
 1010000   -200671.65    1.7876786 -8.2088423e-05    65.094234    1984.7482 
 1015000   -200488.55    1.7869408 -0.0029329005    65.119673    1997.5566 
 1020000   -200573.96    1.7493894  0.004715929    64.912283    2010.3889 
 1025000   -200599.97    1.8111237  0.002825172    65.124767    2023.1945 
 1030000   -200594.49    1.8162218 0.0027041975    65.172935     2035.996 
 1035000   -200656.14    1.8022031 0.0011644949     65.05335    2048.8307 
 1040000   -200609.96    1.7445628 -0.0020788839    65.200243    2061.6432 
 1045000   -200652.16     1.756929 -0.0011081612    65.098172    2074.4664 
 1050000   -200311.07    1.8155156 -0.0018959464    65.120076    2087.3162 
 1055000   -200701.52    1.7984913 0.0033372773    64.980082    2100.1273 
 1060000    -200401.4    1.8056436 0.0046755679    65.021418    2112.9654 
 1065000   -200463.29    1.8097737 -0.0025932282    65.128272     2125.778 
 1070000   -200521.61     1.875269 -0.0016438147    65.165958    2138.6111 
 1075000   -200447.52    1.7610243 0.0027762548    64.974803    2151.4719 
 1080000   -200686.42    1.8082615 -0.0040473462    65.073172    2164.2835 
 1085000   -200529.66    1.7975161 -0.0018022408    65.021206    2177.0998 
 1090000   -200485.75    1.8158086 0.0031332865    64.972485     2189.951 
 1095000   -200569.65    1.7936243 0.0044204447    64.968713    2202.7871 
 1100000   -200634.84    1.8197675 -0.0014536451    65.048969    2215.6025 
 1105000   -200624.42    1.7786022 -0.0018908784    65.081668    2228.4382 
 1110000   -200391.59    1.8457596 0.0040667544    65.106459    2241.2741 
 1115000   -200279.26    1.7578907 -0.0028537176    65.239674    2254.0774 
 1120000   -200319.81    1.7951052 -0.0012549838    65.222019    2266.8308 
 1125000   -200477.06    1.8086558 0.00092625507    65.300812    2279.5728 
 1130000   -200584.41    1.8011825 0.0033742446    65.261217    2292.3838 
 1135000   -200454.52    1.8448333 0.00047018174     65.28496    2305.1723 
 1140000   -200563.95    1.7600289 3.1573622e-05    65.183513    2317.9497 
 1145000   -200424.59    1.8319336 -0.00017688549    65.264988    2330.7269 
 1150000   -200402.31    1.7695138 0.0004352097    65.204862    2343.5026 
 1155000   -200381.22    1.7948621 -0.0054118835    65.205635    2356.2883 
 1160000   -200365.39    1.7992288 0.0010200678    65.128582    2369.0912 
 1165000   -200601.71    1.8421479  0.001653138    65.071648    2381.9137 
 1170000   -200632.85    1.7603742 0.00081241081    65.033368    2394.7333 
 1175000   -200601.32    1.7954974 -0.0016257014    65.080265    2407.5319 
 1180000   -200547.41    1.8269182 -0.0010358041    65.072008    2420.3519 
 1185000   -200547.07    1.7733922 0.0028938572    65.084843    2433.1782 
 1190000   -200536.34    1.8116596 0.0034469156    65.023248    2446.0304 
 1195000   -200701.68    1.8178691 -0.00035240563    65.095407    2458.8177 
 1200000   -200782.09    1.8330352 -0.00088504194    65.116138    2471.6652 
 1205000   -200828.12    1.7703825 -0.0031268227    65.061987    2484.4669 
 1210000   -200676.74    1.8408437 -0.0043441691    65.010218    2497.3046 
 1215000   -200590.75    1.7295067 -0.0023187998    65.046235    2510.1745 
 1220000   -200664.85     1.815706 -0.0021103712    65.079831    2523.0341 
 1225000   -200436.07    1.7805773 0.0041612148    65.126847    2535.9008 
 1230000   -200671.24    1.7798483 -0.0015033439    65.124463    2548.7162 
 1235000   -200677.67    1.7776441  0.001131562    64.997133    2561.5579 
 1240000    -200475.8    1.7836557 -0.0022689672    65.124463    2574.3922 
 1245000   -200626.58    1.8293677 0.00044282072    65.018021    2587.2546 
 1250000   -200473.94    1.7642328 -0.0051154662    65.073374    2600.0735 
 1255000   -200507.55    1.7662523 -0.00054345736    64.967635    2612.9571 
 1260000   -200764.53     1.794754 0.0020343844    64.948019    2625.7734 
 1265000   -200771.82    1.8008597 -0.0035004453     65.11021    2638.5957 
 1270000   -200518.61    1.7979291 -0.0041234886    65.061317    2651.4197 
 1275000   -200661.45    1.7686656 -0.0041118035    64.988869    2664.2531 
 1280000   -200711.55    1.8139372 0.0019995756     64.90754    2677.1127 
 1285000    -200715.4    1.8435589 0.00069589576    65.058175    2689.9482 
 1290000   -200710.97    1.7526389 -0.00088267814    65.143763    2702.7783 
 1295000   -200780.45    1.8579005 -0.00025851901    65.089074      2715.62 
 1300000   -200761.16    1.8041871  0.004807613    64.956954    2728.4478 
 1305000   -200607.45    1.7874982 -0.0068079932    65.206438    2741.3001 
 1310000    -200952.4    1.7625645 0.0039311319     64.98955    2754.1075 
 1315000   -200699.59    1.7233109 0.0039710182    65.076615    2766.9758 
 1320000   -200528.45    1.7810838 -0.0045059414    65.242854    2779.7918 
 1325000   -200601.18     1.841846 -0.0021907366     65.13659    2792.5938 
 1330000   -200600.36    1.8165983 -0.003760423    65.214087    2805.3789 
 1335000   -200664.14    1.7752326 -0.003553396    65.214216    2818.2145 
 1340000   -200618.89    1.8329691 -0.0010796961    65.159551    2831.0687 
 1345000   -200546.78    1.7548204 -0.0013740732    65.191296    2843.8943 
 1350000   -200566.04    1.7622294 -0.00016889156    65.191769    2856.6565 
 1355000   -200419.86    1.7514112 0.0010690862    65.248135    2869.4453 
 1360000   -200374.55    1.8585962 -0.00071563611    65.320843    2882.2578 
 1365000   -200562.57    1.8026705 -0.00036321403    65.258678    2895.0194 
 1370000    -200611.6    1.8517905 -0.00063301162     65.21986    2907.8276 
 1375000   -200985.17    1.7952476 -0.0017364459    65.181548    2920.6124 
 1380000   -200672.06    1.7867894 -0.00053479164     65.24546    2933.3956 
 1385000   -200596.96    1.8364942 -0.0020547288    65.322672    2946.1639 
 1390000   -200581.47    1.8036165 0.00044333572     65.35581    2958.9598 
 1395000   -200548.66    1.7638366 -0.0023457757    65.395585    2971.7778 
 1400000    -200837.6    1.8251645 0.0018095453    65.246627    2984.5436 
 1405000    -200676.8     1.791295 0.0041819012    65.342011    2997.3753 
 1410000   -200532.11    1.8235328 0.0022407575    65.277345    3010.1693 
 1415000   -200623.95    1.7984705 -0.0014099725     65.39414    3022.9891 
 1420000   -200630.23    1.7390852 -0.0019831581    65.393259     3035.781 
 1425000    -200653.8    1.7694948 -0.0039523098     65.41422    3048.5919 
 1430000   -200842.19    1.8093038 -0.00091426798    65.301582    3061.3928 
 1435000   -200756.94    1.8061579 -0.0019006443    65.309624     3074.216 
 1440000   -200714.69    1.8251463 -0.005924049     65.32627    3086.9952 
 1445000   -200637.08    1.8117994  0.002324419    65.248512    3099.7375 
 1450000   -200567.01    1.7567477 0.0024327428    65.277945    3112.5228 
 1455000   -200495.98    1.7708934 -0.0036685235    65.292124    3125.2987 
 1460000   -200609.03    1.7639133 0.0034511712    65.161084    3138.0911 
 1465000   -200413.02    1.8159969 -0.00096487765    65.359556    3150.9067 
 1470000   -200408.89    1.7598143 0.0030602822    65.215205     3163.703 
 1475000    -200393.3    1.8075401 0.0010951305    65.179471    3176.4961 
 1480000   -200674.58    1.7705694 -0.00067064025    65.159822    3189.2815 
 1485000   -200794.88    1.7976336 0.0030889575    65.087511    3202.0728 
 1490000   -200510.79    1.7895585 0.0015326872    65.271354    3214.9048 
 1495000   -200756.38    1.7897972 -0.0052668591    65.342354    3227.7167 
 1500000   -200589.82    1.8013181 -0.00025110655    65.268668    3240.5519 
 1505000   -200676.04    1.7898323 0.0014014453    65.248001    3253.3692 
 1510000    -200501.8    1.7197816 0.0035270491     65.15687    3266.1971 
 1515000   -200700.55    1.7934437 0.0060723539    65.123811    3279.0058 
 1520000   -200706.21    1.8045452 0.00052198554    65.140959    3291.7859 
 1525000   -200622.53     1.813581 -0.00078890586     65.16681    3304.5816 
 1530000   -200708.46    1.7659937 0.0028198268    65.038342     3317.427 
 1535000   -200506.44    1.7550327 0.00099373513    65.097181    3330.1901 
 1540000   -200614.42    1.8134709 0.00094945764    65.145339    3343.0035 
 1545000   -200511.45    1.8098944 0.00034480688    65.272619    3355.8301 
 1550000   -200760.48    1.7943933 -0.001851574    65.324996    3368.6236 
 1555000   -200760.83    1.8597127 -0.0041979048    65.281908    3381.4243 
 1560000   -200648.69    1.7500477 0.0024112704     65.14729    3394.2162 
 1565000   -200805.04    1.8004919 -0.001032078    65.169207    3407.0508 
 1570000   -200478.07    1.7966389 -0.0045527086    65.371229    3419.8539 
 1575000   -200709.35    1.8098076 -0.0015663371    65.293382    3432.6617 
 1580000   -200604.07    1.7970244 3.0235785e-05     65.30109    3445.4506 
 1585000   -200420.28    1.8016577 0.0014815454    65.361125    3458.2301 
 1590000   -200626.68    1.7835166 -0.0022354941    65.247054    3471.0137 
 1595000   -200605.78     1.777594 -0.0011908499    65.295066    3483.8615 
 1600000   -200579.92    1.7883108 -0.0012595832     65.14023    3496.6609 
 1605000   -200772.72      1.77816 0.0042429598     65.02793      3509.42 
 1610000   -200775.75     1.811038 -0.0010261736    65.108102    3522.2884 
 1615000   -200570.64    1.7668343 -0.00050983088    65.168946    3535.0738 
 1620000   -200504.59    1.7808782 -0.00034735792    65.209291    3547.8682 
 1625000    -200734.9    1.8108299 0.0021605223    65.153962    3560.6577 
 1630000   -200362.62    1.8162492 0.0018358173    65.267167    3573.4538 
 1635000    -200590.5    1.7766685 0.0033290107    65.163684     3586.241 
 1640000    -200566.1     1.800199 -0.00046016915     65.24303    3599.0239 
 1645000      -200598    1.8185433 -0.00071342454    65.233121    3611.7982 
 1650000   -200512.86    1.7999632 0.0013387639    65.311195    3624.5446 
 1655000   -200532.67    1.8109314 -0.0039391366    65.472034    3637.3225 
 1660000   -200473.13    1.8048356 0.0014492555    65.369092    3650.1078 
 1665000   -200576.61    1.8681879 -0.001620532    65.447531    3662.8706 
 1670000   -200710.58    1.8318699 -0.0032393675    65.323655    3675.6694 
 1675000    -200431.2    1.8035209 -0.0021738744    65.366407    3688.4149 
 1680000   -200473.68    1.7707897  -0.00475265     65.41919    3701.2245 
 1685000   -200698.04     1.799795 -0.00036378784    65.200782    3714.0151 
 1690000   -200615.62    1.8000039 -0.0031613882    65.299012    3726.7762 
 1695000   -200509.62    1.7608426 0.0015098653    65.221964    3739.5466 
 1700000   -200500.35    1.8000057 0.00037681937    65.211668    3752.3545 
 1705000   -200390.17    1.7508092 -0.0047326341    65.531506    3765.1385 
 1710000   -200496.33    1.8055546 0.00024843355    65.568413    3777.8639 
 1715000   -200519.54    1.8079086 0.00092620412    65.451249    3790.6397 
 1720000   -200636.04    1.8305865 0.0035277927    65.346938    3803.4208 
 1725000   -200795.74    1.7651497 -8.5152882e-05    65.345463    3816.2273 
 1730000   -200645.23    1.7626892 0.0037334878    65.358771    3828.9942 
 1735000   -200559.36    1.7635742 -0.0013166343    65.434697    3841.7462 
 1740000   -200512.83     1.802451 -0.0012708354    65.499331    3854.5019 
 1745000   -200596.19    1.7795088 0.0026524371    65.390531    3867.2967 
 1750000   -200408.48    1.7792486 -0.00077244086    65.489718    3880.0381 
 1755000   -200554.03    1.8258999 0.0021908702    65.460037    3892.8157 
 1760000   -200458.39    1.8535503 0.00015347072    65.447735    3905.5966 
 1765000   -200633.14    1.7787323 0.0031439689    65.323895    3918.3683 
 1770000   -200529.15    1.7812775 -0.00045010354    65.468065    3931.1391 
 1775000    -200474.1    1.8100549 0.0039419013    65.318096    3943.9451 
 1780000   -200797.62    1.7724213 -0.0011398703    65.379216    3956.7396 
 1785000   -200664.31    1.7793444 0.00059542985    65.320863    3969.5232 
 1790000   -200682.62    1.8045224 -0.0001092209    65.285784    3982.3382 
 1795000   -200489.77    1.8263269 8.1648205e-05    65.354868    3995.1486 
 1800000   -200656.18    1.7634657 -0.0018654309     65.26021    4007.9457 
 1805000   -200486.11    1.8158491 0.00025145034    65.386194    4020.6998 
 1810000   -200501.61    1.7652504 0.0025411677    65.350914    4033.4572 
 1815000   -200462.32    1.7869793 -0.0022957788     65.33178    4046.2444 
 1820000   -200635.03    1.8002096 0.0025170709    65.169654     4059.065 
 1825000   -200735.98    1.8451668 -0.00064335402    65.277801    4071.8382 
 1830000   -200637.17    1.8303945 2.7610151e-07     65.31074    4084.6633 
 1835000   -200568.02    1.8210718 0.0011380615    65.209555    4097.4664 
 1840000   -200597.38    1.8183118 0.0036317591    65.232431     4110.307 
 1845000   -200528.44    1.7959703 0.0034325052    65.330643    4123.0932 
 1850000   -200525.37    1.7821491 -0.002708718    65.344328    4135.8657 
 1855000   -200560.31    1.7818182 0.0030750833     65.24318    4148.6681 
 1860000   -200487.59    1.7991384 0.00087659066    65.262352    4161.4598 
 1865000   -200573.99    1.7955135 0.0042384294    65.184209    4174.2612 
 1870000   -200761.83    1.7539841 0.00042022803    65.210225    4187.0646 
 1875000   -200579.19    1.7843774 -0.00086191916    65.225051    4199.8926 
 1880000   -200653.89    1.7979419 0.0077529415     65.06896    4212.7099 
 1885000   -200440.06    1.8572981 -0.0013646871    65.413592    4225.5031 
 1890000   -200737.13     1.789957 0.0019595732    65.241799    4238.2453 
 1895000   -200724.61    1.8215673 -0.00095117928     65.28339     4251.041 
 1900000   -200565.84    1.8402918 -0.0013292333    65.335887    4263.8894 
 1905000   -200516.86    1.8003602 0.0017792992    65.268492    4276.6877 
 1910000    -200546.4    1.8523657 -0.0017107859    65.379915     4289.438 
 1915000   -200348.61    1.7848569 0.0037966032    65.342509    4302.2271 
 1920000   -200623.18    1.7413679 -0.00081831897    65.384182    4315.0128 
 1925000   -200626.89    1.8043176 0.00058158794    65.320366    4327.8426 
 1930000   -200470.23    1.8126898 -0.00091264929    65.409973    4340.6146 
 1935000   -200645.65    1.8053448 -0.00047979874    65.241102    4353.4068 
 1940000    -200855.8    1.7598665 0.0031422772    65.156146    4366.2546 
 1945000   -200821.61    1.7914859 0.0070858478    65.089455    4379.0317 
 1950000   -200636.89    1.8459377 -0.00010943458    65.242812    4391.8876 
 1955000   -200638.37    1.8101605 -0.0045142217    65.203779    4404.6863 
 1960000   -200445.11    1.8032379 0.0037770941    65.068038    4417.5369 
 1965000   -200553.61    1.8273067 -0.0035414513    65.290533    4430.3674 
 1970000   -200610.02    1.8160893 -0.0050302709    65.235291    4443.2123 
 1975000   -200459.21    1.7909597 0.0045276092    65.091081    4456.0511 
 1980000   -200575.55    1.8102561 -0.00078280902    65.138429    4468.9015 
 1985000   -200619.48    1.8507005 0.0012028102    65.086178    4481.7443 
 1990000   -200570.98    1.8039688 2.4040065e-05    65.173446    4494.5303 
 1995000   -200649.73    1.7687412 -9.3841871e-05    65.130025    4507.3627 
 2000000   -200662.22    1.8213575 0.0035848761    65.042449    4520.1282 
 2005000   -200546.19    1.8029459  0.001318853    65.103491    4532.9334 
 2010000   -200717.43     1.790188 0.0021391072    65.140043    4545.7447 
 2015000   -200753.56    1.8192583 0.00019560525    65.240168    4558.5425 
 2020000   -200746.65    1.7978137 0.0026602631    65.195215    4571.3264 
 2025000   -200767.49    1.7832739 -0.0016800252    65.230605    4584.0972 
 2030000   -200572.78    1.7382945 -0.0025407476    65.309096    4596.8866 
 2035000   -200687.23    1.8650291 -0.00069558786    65.206731    4609.6789 
 2040000   -200656.35    1.7924298  0.002625478    65.176697    4622.4816 
 2045000   -200605.58    1.7874129 0.0034168934    65.164134    4635.2768 
 2050000   -200586.22    1.8145721 -0.00091575929    65.230395    4648.0924 
 2055000   -200443.42    1.7482898 -0.0068924216    65.337296    4660.8939 
 2060000   -200488.35    1.7513999 -0.0040134066    65.264742    4673.6875 
 2065000   -200630.29    1.7857439 -0.0046173282    65.331563    4686.4589 
 2070000   -200627.34    1.8541338 0.00083479671    65.221333    4699.2314 
 2075000   -200396.92    1.8466862 0.0013083123    65.316506    4711.9804 
 2080000   -200668.18    1.7279914 -0.0041418621    65.377735    4724.7531 
 2085000   -200542.71    1.8078794 -0.0010412901    65.399316    4737.5125 
 2090000    -200507.6    1.7943995 -0.0017199219    65.403316    4750.2696 
 2095000   -200508.01    1.8010931 -0.0033431703    65.432793    4763.0429 
 2100000   -200752.03    1.8198842 0.00013540334    65.180974    4775.8538 
 2105000   -200608.87    1.8131535 -0.0023509865    65.315156     4788.685 
 2110000   -200823.54    1.7537687 0.0019080393    65.154712    4801.4902 
 2115000   -200529.87     1.755701 -0.0011030345    65.275413    4814.2961 
 2120000   -200682.86      1.81283 0.0033451068    65.264822    4827.1073 
 2125000   -200763.07    1.8037096 -0.00065705553    65.251953    4839.9355 
 2130000   -200706.37    1.7788037 -0.0028219488    65.279316    4852.7755 
 2135000   -200612.47    1.8257653 0.0011563716    65.242615    4865.5633 
 2140000   -200619.29    1.8095359 -0.0030773028    65.241931    4878.3933 
 2145000   -200649.12    1.8277948  0.003939726    65.248454    4891.2451 
 2150000   -200643.96    1.8817812 0.0010307446    65.295282     4904.026 
 2155000   -200549.39    1.8179236 0.00024478438    65.396036    4916.7828 
 2160000   -200528.21    1.7544422 0.00028713497    65.444853    4929.5599 
 2165000   -200554.88    1.7589286 0.0010851521    65.421874    4942.3409 
 2170000   -200550.03    1.7833141 -0.002817168    65.472953    4955.1128 
 2175000   -200628.46    1.7263329 -0.003073991    65.505825    4967.8829 
 2180000   -200456.71    1.8520662 -0.0021386985    65.516473    4980.6572 
 2185000   -200579.24     1.806106 -0.00084518388    65.395696    4993.4607 
 2190000   -200426.46    1.8230625 -0.0034907971     65.43824    5006.2502 
 2195000   -200504.78    1.8157135 0.0044172262    65.349582    5018.9868 
 2200000   -200557.01      1.80843 -0.0020768344    65.408758    5031.7579 
 2205000   -200506.84    1.8232201 -0.00032275156    65.413631    5044.5292 
 2210000   -200431.92    1.8134313  -0.00126152    65.330182    5057.3347 
 2215000   -200513.03    1.8180359 -0.0042203796    65.419989    5070.1688 
 2220000   -200628.44    1.8508229 -0.00032311212    65.370232    5082.9754 
 2225000    -200524.2    1.8293136 0.0051949105    65.311327    5095.7461 
 2230000   -200479.74    1.8027689 -0.00046918176    65.455885    5108.4939 
 2235000   -200741.11     1.751195 0.0019336058    65.225241    5121.2986 
 2240000   -200592.73    1.7887895 -0.0029965496    65.291201    5134.1132 
 2245000   -200545.01    1.7697794  0.001083875    65.217251    5146.9384 
 2250000   -200535.76    1.7743171 -0.0038257406    65.374158    5159.7371 
 2255000   -200660.01    1.7973331 -0.0041084386    65.291148    5172.5501 
 2260000   -200590.24    1.8105369 -0.0006813031    65.264648     5185.345 
 2265000   -200757.19    1.7831137 -0.0084212317    65.320955    5198.1638 
 2270000   -200686.11    1.8047995 0.0011792351    65.175348      5210.99 
 2275000   -200673.24    1.8358865 0.0026947339    65.108437    5223.7579 
 2280000   -200541.87      1.79726 -1.186816e-05    65.231722    5236.5439 
 2285000   -200609.93    1.8391859 0.0024710024    65.264623    5249.3359 
 2290000   -200710.15    1.8494266 0.0053823472     65.22335    5262.1385 
 2295000   -200974.93    1.8119623  0.007059568    65.011243    5274.9355 
 2300000   -200746.21    1.8388613 -0.0048323516    65.208298    5287.7326 
 2305000   -200511.56      1.78624 -0.0026563691    65.291523    5300.5326 
 2310000   -200435.62    1.8164154 -0.0011177854    65.283015    5313.3215 
 2315000   -200544.84    1.7337647 -0.0032382975     65.28843     5326.148 
 2320000   -200391.62    1.7840425 -0.0049846788    65.352463    5338.9363 
 2325000   -200607.92    1.8184363 0.00082036155    65.195053    5351.7306 
 2330000   -200510.77    1.8210132 -0.0009172625     65.30953     5364.541 
 2335000   -200860.55    1.7963628 -0.0005894758    65.232872    5377.3578 
 2340000   -200529.38    1.7605192 0.0023764231    65.287591    5390.1772 
 2345000   -200415.87    1.8117781 -0.0032506688    65.338065    5403.0495 
 2350000   -200527.93    1.7710814 -0.0014685002    65.338629    5415.8671 
 2355000   -200400.67    1.7860122 -0.0007017713    65.325923    5428.6554 
 2360000   -200567.42    1.8543467 0.0016782015    65.249145    5441.4279 
 2365000   -200422.46    1.8118235 -0.0016035012    65.351475    5454.2081 
 2370000   -200643.88     1.741053 -0.00066932166    65.324376    5467.0281 
 2375000   -200539.59    1.8246771 -0.0015653489    65.307271    5479.8191 
 2380000   -200493.46    1.8574668 0.0029432462    65.295659    5492.6292 
 2385000   -200533.43     1.855878 0.0039377896    65.281468    5505.3974 
 2390000   -200680.76    1.8223919 -0.00095403729    65.402924    5518.1813 
 2395000   -200504.44    1.8369773 -0.0045796692     65.39712    5530.9747 
 2400000   -200620.07     1.771975 -0.0039802352    65.432585      5543.78 
 2405000    -200712.8    1.7756373 -0.0024445178    65.490515    5556.5823 
 2410000   -200565.84    1.7542182 0.0025094993    65.380512    5569.3738 
 2415000   -200678.69    1.8534963 -0.0015428711    65.408106    5582.1811 
 2420000   -200606.59    1.7579268 -0.0014152858    65.322764    5594.9782 
 2425000   -200780.67    1.7775671 0.0035084076    65.270204    5607.7344 
 2430000   -200626.97    1.8119694 -0.001012833    65.501917    5620.4795 
 2435000   -200735.99    1.7797723 -0.0020915218    65.506246    5633.2939 
 2440000   -200758.63    1.7769784 -0.0005586375     65.42435    5646.0761 
 2445000   -200633.35    1.8145864 0.0041137551    65.375274    5658.8451 
 2450000   -200704.92    1.8035681 0.0018779842    65.324858    5671.6297 
 2455000   -200613.39     1.814539 -0.0044963873    65.494245    5684.3717 
 2460000   -200841.89    1.7749766 0.0037428804    65.296204    5697.1395 
 2465000   -200657.12    1.8043634 -0.0016743081    65.434807    5709.8689 
 2470000    -200785.1    1.7706145 0.0024001513    65.211036    5722.6258 
 2475000   -200589.41    1.7520421 -0.0012321846    65.341617    5735.3797 
 2480000   -200692.37    1.8032867 -0.0048622054     65.39055    5748.1769 
 2485000   -200705.29    1.8527649 0.00012157738    65.314066     5760.937 
 2490000    -200756.2    1.7891978 -0.0042765643    65.284734     5773.731 
 2495000    -200562.5     1.743196 -0.0011042925    65.226659    5786.5561 
 2500000   -200628.93    1.8078844 -0.00015861398    65.171253    5799.3577 
 2505000   -200479.74    1.8080285 0.00059282672    65.270293    5812.1346 
 2510000   -200609.92    1.7749294 -0.0019115721     65.33897    5824.8921 
 2515000   -200587.28    1.7484142 0.00054765754    65.255709     5837.682 
 2520000   -200731.88    1.7736017 -0.0031515889    65.322949    5850.5042 
 2525000   -200670.99    1.7470492 -0.00015021476    65.249152    5863.2794 
 2530000   -200705.69    1.7576166 -0.0003809453    65.219743    5876.1072 
 2535000   -200754.73    1.7721794 0.0039883679    65.149626    5888.9619 
 2540000   -200630.04     1.812441 0.0028773578     65.17869    5901.7931 
 2545000   -200743.96    1.8414713 0.0033546734    65.135881    5914.6032 
 2550000   -200709.45    1.7802966 0.0077961621    65.111477    5927.4004 
 2555000   -200650.09    1.8415736 0.0012664614     65.26366    5940.1884 
 2560000   -200595.02    1.8066523 -0.0021157254    65.281957    5952.9839 
 2565000   -200577.16    1.7778501 -0.0017212104    65.329955    5965.7893 
 2570000   -200472.22    1.8073586 -0.0021227196    65.364447    5978.5967 
 2575000   -200703.36    1.7755211 0.0018069347    65.145017    5991.4186 
 2580000   -200734.31    1.7782575 -0.00026408945    65.206784    6004.2168 
 2585000   -200683.12    1.7621946 -0.0015605489    65.156227    6017.0024 
 2590000   -200705.68    1.8649123  0.003394129    65.047376    6029.8158 
 2595000   -200626.33    1.7537072 0.0019955247    65.152147    6042.6544 
 2600000   -200623.01    1.8586491 0.0053186421     65.05475    6055.4622 
 2605000   -200599.18    1.8016262 -0.0025969438    65.130573    6068.3128 
 2610000   -200499.01     1.822229 -0.0024353003    65.133706    6081.1534 
 2615000   -200435.16    1.7506617 -0.0013541316    65.155369    6093.9616 
 2620000   -200487.18    1.8194792 0.0013784765    65.100294     6106.757 
 2625000   -200489.12     1.775391 0.0024787281    65.037341    6119.5862 
 2630000   -200665.69    1.7998376 -0.0015281699    65.002195    6132.4195 
 2635000   -200458.05     1.774146 0.0002660899    65.143634    6145.2091 
 2640000   -200515.06    1.7808307 -0.0021983601    65.123456    6158.0456 
 2645000   -200544.25    1.7671375 -0.0039171942    65.219845    6170.8443 
 2650000   -200557.05    1.7131245 0.0027925772     65.07705     6183.652 
 2655000   -200442.97    1.8002494 0.00079849589    65.127747    6196.4434 
 2660000   -200510.48    1.8448601 0.0014796464    65.276074    6209.2347 
 2665000   -200827.16    1.7844681 0.00068964558    65.182648    6222.0822 
 2670000   -200801.43    1.7681697 0.0024691605    65.055392    6234.8853 
 2675000   -200704.27    1.7627719 0.0012885079    65.252389    6247.6551 
 2680000   -200541.81    1.7172836 -0.0026887728    65.169401     6260.449 
 2685000    -200536.4    1.7837098 -0.0034321808    65.168693    6273.2317 
 2690000   -200513.44     1.811391 0.0018211959    65.180637    6286.0686 
 2695000   -200672.09    1.8316207 0.00047624689    65.149084    6298.8628 
 2700000   -200742.58    1.7811698 -0.0065438242    65.125573    6311.7163 
 2705000   -200662.43    1.8049097 0.0044560166    65.122888    6324.5244 
 2710000   -200628.01     1.816237 -0.0036074136    65.254324    6337.3669 
 2715000   -200870.47    1.7801389 0.0058159738    65.013886    6350.1386 
 2720000   -200875.26    1.8296557 0.0010730075    65.133779    6362.9478 
 2725000   -200993.26    1.8246342 0.00086073677    65.155349    6375.7584 
 2730000   -200733.38    1.7545817 -0.0010549629    65.154156    6388.6024 
 2735000   -200600.69    1.7704369 -0.0018719269    65.239508    6401.3671 
 2740000   -200753.79    1.8111985 -0.0024767666    65.277723    6414.1537 
 2745000   -200495.07    1.7933404 -0.0017834403    65.332213    6426.9394 
 2750000   -200533.97     1.747665 -0.00099384205    65.306086    6439.7275 
 2755000   -200472.54    1.7909749 -0.0033943789    65.323263    6452.5007 
 2760000   -200528.68    1.8223082 -0.0069173667     65.36565    6465.3288 
 2765000   -200510.43    1.8247937 -0.0017847331    65.265136    6478.1903 
 2770000   -200629.55    1.7387207 0.0017797152    65.150822    6491.0278 
 2775000   -200544.95    1.8855308 -0.0012455007    65.217763    6503.8917 
 2780000   -200661.86    1.7706337 0.0015510128    65.109041     6516.712 
 2785000   -200600.43     1.796338 0.00029917015    65.115532    6529.4874 
 2790000   -200560.47     1.829239 0.0018491527    65.177518     6542.285 
 2795000   -200650.29    1.8426176 -0.0015176429    65.163065    6555.0902 
 2800000   -200599.06    1.8159586 0.0023626388    65.173879    6567.8487 
 2805000   -200648.64    1.7708164 -0.0034617572    65.289987    6580.5975 
 2810000   -200475.89    1.7900927 -0.0033333622    65.261535    6593.4225 
 2815000   -200573.79    1.8067005 0.0013459855    65.216959    6606.2276 
 2820000   -200773.73    1.8297958 -0.003339045    65.237643    6619.0122 
 2825000    -200542.9    1.8259722 0.0014598714    65.236854    6631.8201 
 2830000   -200591.24    1.7945663 -0.0015910216      65.3738    6644.6118 
 2835000   -200814.12     1.746487 -0.0017073607    65.259183    6657.4094 
 2840000   -200801.19     1.761703 -0.00079755645    65.244075    6670.2017 
 2845000   -200606.65    1.7963192 -0.0019045511     65.28605    6682.9954 
 2850000   -200767.89    1.7676741 0.0020218971    65.288026    6695.7746 
 2855000   -200636.69    1.7961847 0.0027805259    65.338819    6708.5292 
 2860000   -200581.92     1.775198 0.0014628501    65.297725    6721.3069 
 2865000   -200486.41    1.8680396 -0.0015183524    65.386179    6734.1221 
 2870000   -200478.12     1.834083 0.0046805778     65.36533    6746.8986 
 2875000   -200488.14     1.793012 0.0067593025     65.26014    6759.6942 
 2880000   -200673.48    1.7861048 0.0001876473    65.367677    6772.4884 
 2885000   -200442.87    1.7976121 -0.00071212017    65.395105    6785.2182 
 2890000   -200609.03    1.8360347 -0.0018778866    65.318972    6797.9954 
 2895000    -200698.3    1.8096136 -0.0046456871    65.347629    6810.7629 
 2900000    -200352.8    1.7778806 0.00021340056    65.344881    6823.5557 
 2905000   -200665.59    1.7786113 0.0035455978    65.296965    6836.3485 
 2910000   -200640.05    1.8175276 0.0039057368    65.325341    6849.1434 
 2915000   -200494.67    1.7945217 0.00068135923    65.345089    6861.9099 
 2920000   -200471.85    1.8005696 -0.0008691592    65.409527    6874.6858 
 2925000   -200440.32     1.822628 -0.00056749146    65.345263    6887.5195 
 2930000   -200483.45     1.781936 -0.0006193643    65.366527    6900.2763 
 2935000   -200636.62    1.8318255 0.0056556473    65.375188    6913.0586 
 2940000   -200496.78    1.7640464 0.0013649268    65.493329    6925.8468 
 2945000   -200610.63    1.7523581 -0.0051197823    65.559312    6938.6343 
 2950000   -200645.25    1.8496933 0.00043829985    65.369933    6951.4504 
 2955000   -200665.57    1.7814903 -0.00020480592    65.347642    6964.2313 
 2960000   -200619.48    1.7294013 -0.0028179249    65.289685    6977.0305 
 2965000   -200526.08    1.7664707 -0.0020114151    65.340127    6989.8348 
 2970000   -200429.69     1.809313 -0.001631427    65.278255    7002.6332 
 2975000   -200582.59     1.790127 0.00092632054    65.320112    7015.3974 
 2980000   -200389.09     1.799401 -0.0086018787    65.407388    7028.1864 
 2985000    -200668.8    1.7995966  0.005732167    65.177448    7041.0026 
 2990000   -200455.59     1.877732 0.0034189091    65.199538    7053.7806 
 2995000   -200329.71    1.8107332 -0.0026416776    65.313478    7066.5899 
 3000000   -200547.39    1.8025904 0.0012589138    65.152536    7079.3805 
 3005000   -200490.06    1.7775614 0.0006062657    65.155147    7092.1444 
 3010000   -200648.33    1.7722388 -0.0028826229    65.196108    7104.9107 
 3015000   -200626.24    1.8233014 0.00021740846    65.034074     7117.737 
 3020000   -200627.89    1.8306641 -0.0016305518      65.1217    7130.5728 
 3025000   -200694.37    1.7965764  0.004336099     64.98966    7143.3722 
 3030000    -200440.7    1.8333802 -0.0027444783    65.098586    7156.1242 
 3035000   -200485.87     1.775112 -0.0037249528    65.175699    7168.9226 
 3040000   -200527.41    1.8050393 0.0015784705    65.039381    7181.7434 
 3045000   -200652.37    1.7935758 0.0034981802    64.942129    7194.5486 
 3050000   -200413.33    1.7940199 -0.0017991881    65.042445    7207.3814 
 3055000    -200687.5    1.7627578 0.00071230941    64.962483     7220.183 
 3060000   -200689.71    1.8083467 -0.0048331641    65.088723    7233.0042 
 3065000   -200643.11    1.8116477 -0.0036773797    64.999009    7245.8269 
 3070000   -200536.68    1.8517952 -0.0004546418    65.028065      7258.65 
 3075000   -200478.07     1.821379 0.0026473571    65.026346    7271.4501 
 3080000   -200657.98    1.7752577 -0.0046412186    65.074723    7284.2617 
 3085000   -200678.36    1.7927318 -0.00018035287    65.020994    7297.0852 
 3090000   -200492.74    1.7713011 -0.0033729579    65.194371    7309.9052 
 3095000      -200608    1.8214217 0.0014875343    65.088149    7322.6938 
 3100000   -200587.97    1.8383281 -0.0046347455    65.153885    7335.5398 
 3105000    -200593.4    1.8164316 -0.00064785533    65.154986     7348.363 
 3110000   -200583.25    1.7934521 0.0027567239    65.112278    7361.1583 
 3115000   -200486.49    1.8351051 0.0038495355    65.148966    7374.0122 
 3120000   -200571.19    1.8177242   0.00182947    65.151077     7386.847 
 3125000   -200561.52    1.7805196 0.00051171389    65.093561    7399.6819 
 3130000   -200643.15    1.8200645 -0.0026757903    65.205736    7412.4646 
 3135000    -200507.9    1.8286034 -0.0019561557    65.102264    7425.3055 
 3140000   -200641.24     1.761015 -0.0012573492    65.148373    7438.1347 
 3145000   -200667.88    1.7721639 -0.0037146915    65.252418    7450.9258 
 3150000   -200780.66    1.7880656 0.0047764161    65.113877    7463.7198 
 3155000   -200848.76    1.8388651 -9.9778755e-05     65.13498    7476.5558 
 3160000   -200724.17    1.7806202 -0.0032346443    65.168742    7489.3846 
 3165000   -200739.66    1.8256014 -0.00073848651    65.168478    7502.2338 
 3170000   -200499.48    1.7986074 -0.00042455731    65.244565    7515.0568 
 3175000   -200565.61    1.8236641 -0.0047966075    65.331593    7527.9065 
 3180000   -200662.57    1.8114735 -0.0017773302     65.15657    7540.7323 
 3185000   -200510.05    1.8416797 -0.005466749    65.271953    7553.5832 
 3190000   -200579.27    1.8090064 0.0016210161    65.144456     7566.434 
 3195000   -200523.44      1.80463 -0.00037191113    65.128782    7579.2709 
 3200000   -200685.16    1.7548169 -0.001984971    65.143629    7592.0905 
 3205000   -200571.92     1.802321 -0.0064799462    65.274514    7604.9314 
 3210000   -200495.28    1.7548184 0.0045159368    65.198608     7617.725 
 3215000   -200715.65    1.8422526  -0.00180728    65.313946    7630.5273 
 3220000   -200592.44    1.8224773 0.00095087298    65.219191    7643.3505 
 3225000   -200646.57    1.7479536 -6.5397171e-05    65.286024    7656.1693 
 3230000   -200374.53     1.739257 0.0011244046     65.36281    7668.9377 
 3235000   -200385.65      1.81774  0.003065539    65.339837     7681.714 
 3240000    -200612.8    1.8301414 0.0039329294    65.258184    7694.5148 
 3245000    -200745.8     1.826049  0.001412691    65.321531    7707.2995 
 3250000   -200633.06    1.7693844 -0.0024424993    65.314354    7720.0956 
 3255000   -200705.79    1.7750452 -0.0021351424    65.271555    7732.9142 
 3260000   -200548.83    1.7445586 -4.9612178e-05    65.258694    7745.7317 
 3265000   -200648.14    1.7759549 3.9867813e-05    65.190256    7758.5191 
 3270000   -200691.62    1.7616275 6.0265144e-06    65.084357    7771.3443 
 3275000    -200652.7    1.7927507 0.00099758816    65.183513    7784.1732 
 3280000   -200466.22      1.77579 -0.0013809219    65.247757    7796.9745 
 3285000    -200666.2    1.7990698 -0.0017913928    65.217587    7809.7765 
 3290000   -200426.67    1.8077481 -0.0044435985    65.384286    7822.6055 
 3295000   -200540.98    1.8156108 0.0012182851    65.238528    7835.4058 
 3300000    -200735.8    1.7868323 0.0023646877    65.248807     7848.237 
 3305000   -200489.16    1.7821248 -0.0053769715    65.430403    7861.0108 
 3310000   -200657.86    1.7371261 -0.0048974488    65.361563    7873.8585 
 3315000   -200566.19    1.7728964 -0.0031775173    65.470611    7886.6526 
 3320000   -200715.19    1.8265852 -0.00051317465    65.445186    7899.4403 
 3325000   -200781.71    1.7474018 0.00014260789    65.415184    7912.2174 
 3330000   -200664.01    1.8439774 -0.0019573275    65.315305    7925.0244 
 3335000   -200559.01    1.7889033 0.0050131836    65.267854    7937.8458 
 3340000   -200632.68    1.8002606 -0.0003842989    65.409405    7950.6652 
 3345000   -200608.63    1.8209536 0.0037935391    65.265919    7963.4812 
 3350000   -200603.22     1.781361 0.0012264572    65.320878    7976.2669 
 3355000   -200638.93    1.8629613 -0.0027025486     65.38326    7989.0637 
 3360000   -200581.39     1.762418 -0.0050727967    65.423419    8001.8664 
 3365000   -200632.56    1.7698244 -0.0016451535    65.319214    8014.6658 
 3370000   -200609.43    1.7827744 -0.0010350576    65.175572    8027.5016 
 3375000   -200555.81    1.8209773 -0.00051797834    65.232753    8040.2999 
 3380000    -200530.8    1.8652918 -0.0035557071    65.308233    8053.1316 
 3385000    -200656.2    1.8019576 0.0062642095    65.103725    8065.9566 
 3390000   -200522.56    1.8128348 -0.00054291111    65.274955    8078.7845 
 3395000   -200741.08     1.819332 -0.0020523037    65.269298    8091.6123 
 3400000   -200651.17    1.8125605 -0.0054615468    65.354497    8104.3953 
 3405000   -200739.02    1.7959405 0.00058156458    65.305157    8117.2357 
 3410000   -200558.35    1.8546724 -0.0028366062    65.413282    8130.0598 
 3415000    -200511.5    1.7788035 -0.0038304124    65.429215     8142.831 
 3420000   -200748.22    1.7755922 0.0035938429    65.242568    8155.6331 
 3425000   -200552.21    1.7584007 8.7491878e-05    65.339997    8168.4363 
 3430000   -200606.09    1.7409795 0.0035646934    65.225964    8181.2278 
 3435000   -200387.22    1.7570812 -0.0013311235    65.291432    8194.0246 
 3440000   -200460.53    1.7801592 -0.003684139    65.321477    8206.7999 
 3445000   -200609.77    1.8126296 -0.0017295812    65.312237    8219.5608 
 3450000   -200540.89    1.8479463 0.0048268662    65.224865    8232.3716 
 3455000   -200504.48     1.802447 -0.0030169639    65.263472    8245.1811 
 3460000   -200560.23    1.8589775 0.0010015987    65.176602    8257.9819 
 3465000   -200620.59    1.7812507 -0.0027257515    65.238172    8270.7833 
 3470000   -200480.34    1.8458696 0.0012114975    65.308738    8283.5687 
 3475000   -200557.71     1.824464 0.0014966043     65.24001    8296.3638 
 3480000   -200485.96    1.7758165 0.0035169541    65.239137    8309.1795 
 3485000    -200372.1     1.833901 0.0051911054    65.216652    8321.9628 
 3490000   -200479.06    1.7694339 -0.0017439052    65.281899    8334.7732 
 3495000   -200457.11    1.8374975 -0.0017932813    65.260691    8347.6018 
 3500000   -200679.86    1.8139909 0.0020691304    65.025121    8360.4191 
 3505000   -200385.43    1.7945845 -0.0030671719      65.2026    8373.2277 
 3510000   -200488.75    1.7899118 -0.0010052309    65.153977    8386.0451 
 3515000   -200375.79    1.7960692 -0.0008497713    65.133079    8398.8741 
 3520000   -200572.77    1.7623944 0.00097289792    65.117358    8411.7145 
 3525000    -200603.8    1.7866231 -0.0011733908    65.167935    8424.5547 
 3530000    -200433.3    1.8330967 0.0012687144    65.098335     8437.366 
 3535000   -200606.03    1.7606969 -0.0011812248    65.104874    8450.1503 
 3540000   -200558.02    1.7933722 0.0009784929    65.008464     8462.956 
 3545000   -200648.28    1.7895096 0.00050915032    64.991053    8475.7876 
 3550000   -200694.21    1.7618564  0.002183214    65.000206      8488.59 
 3555000   -200595.16    1.8464695 -0.00077138865     65.07592    8501.4295 
 3560000   -200616.44    1.8039167 0.0018184683    64.989938    8514.2887 
 3565000   -200628.13    1.7929603 -0.0036136455    65.210233    8527.1453 
 3570000   -200612.03    1.7545476 -0.0017219316    65.134983    8539.9316 
 3575000   -200646.19    1.8419429 0.0021131501     64.99295    8552.7725 
 3580000   -200459.53    1.8415372 -0.0031586296    65.154248    8565.5979 
 3585000   -200506.87    1.8011588 -0.0007704708    65.117162    8578.4047 
 3590000   -200642.82    1.7884545 0.0042112214    64.980875    8591.2543 
 3595000   -200625.95    1.8381475 0.0063301215     64.90574    8604.1206 
 3600000   -200478.77    1.7947397 -0.0065268581    65.177229    8616.9865 
 3605000   -200586.33    1.7677501 0.0038328897    65.017667    8629.8287 
 3610000   -200478.04    1.7871493 -0.00019397289    65.143988     8642.676 
 3615000   -200619.22    1.8020868 0.0056764973    64.929093    8655.5031 
 3620000   -200708.56    1.7757175 0.0051260053    64.990983    8668.3401 
 3625000    -200727.8    1.8203445 0.0024516217    64.989066    8681.1808 
 3630000    -200614.4    1.7371421 -0.00019289669    65.133717    8694.0361 
 3635000   -200616.65    1.7743927 0.0032589239    65.085753    8706.8872 
 3640000   -200610.69    1.8381432 0.00031718035     65.17027    8719.6969 
 3645000   -200833.28    1.8198608 0.0024820602    65.133632    8732.5045 
 3650000   -200370.53     1.804125  0.001557804    65.205539    8745.2769 
 3655000   -200570.84    1.8504497 0.00017535311    65.058464    8758.0471 
 3660000   -200531.81    1.7866136 0.0044503002    65.030925    8770.9056 
 3665000   -200650.66    1.8185667 -0.00055303072    65.144691    8783.7426 
 3670000   -200608.63    1.8057678 -0.0034986511    65.209053    8796.5617 
 3675000   -200463.05    1.7230308 -0.0021784658    65.264797    8809.3768 
 3680000   -200545.49    1.7483354 -0.0036258315    65.291857    8822.1692 
 3685000    -200708.3    1.7616302 6.8943408e-05    65.118772    8834.9286 
 3690000   -200512.76    1.8119635 -0.0010752066    65.277301    8847.7072 
 3695000   -200317.49    1.8125643 -0.0047270272    65.378295    8860.5124 
 3700000   -200478.28    1.7999211 -6.4379849e-05    65.273037    8873.2851 
 3705000   -200536.16     1.818392 0.0014828225    65.271307    8886.0787 
 3710000   -200596.81     1.813193 -0.001435556    65.357057    8898.8376 
 3715000   -200599.39    1.8279751 0.00078360842    65.284814    8911.6334 
 3720000   -200590.19    1.7865037 -0.0060721576    65.318453    8924.4118 
 3725000   -200632.12    1.7531112 -0.004075795    65.293066     8937.236 
 3730000   -200395.04    1.8069946 0.0053100334    65.357234    8950.0283 
 3735000   -200500.94     1.729167 -0.00073397272    65.397152    8962.8033 
 3740000    -200448.4    1.8228697 0.0033527717    65.296857    8975.5937 
 3745000   -200554.51    1.7864372  0.001031413    65.295835    8988.4152 
 3750000   -200730.91    1.7701884 0.0011156542    65.174166    9001.1665 
 3755000   -200544.23    1.8071784 0.00048765709    65.273036    9013.9542 
 3760000   -200574.97    1.8151256 0.0031957106    65.224464    9026.7245 
 3765000   -200520.59    1.8116954  0.004480114    65.251413    9039.5348 
 3770000   -200621.73    1.8165916 -0.00080314264    65.261694    9052.3018 
 3775000   -200553.44    1.7997314 -0.0017446024    65.252382    9065.1022 
 3780000   -200582.26    1.8339695 -0.0010660881    65.254767    9077.9116 
 3785000   -200637.54    1.7874305 0.0041301552    65.166526    9090.7144 
 3790000   -200503.26     1.814693 0.0043813768    65.196994    9103.5579 
 3795000   -200575.47    1.8621983 0.0053240135    65.168464    9116.3628 
 3800000   -200429.98    1.8255178 0.0046856903    65.221426    9129.1615 
 3805000   -200576.21    1.8611873 0.0065181461    65.127756    9141.9656 
 3810000   -200325.28    1.8088662 0.00091205319    65.288811    9154.7984 
 3815000      -200307    1.7601153 -0.0061413976     65.28009    9167.6002 
 3820000   -200633.31    1.7670577 0.0039951564    65.067356    9180.4502 
 3825000   -200584.92    1.7761419 -4.0474321e-05    65.199903    9193.2276 
 3830000    -200522.9    1.7929564 -0.0046823863    65.319493    9206.0082 
 3835000   -200684.21     1.796952 -1.5244853e-05    65.217374    9218.8407 
 3840000   -200564.05    1.8091905 1.0837483e-05    65.203124    9231.6595 
 3845000   -200596.02    1.8097123 -0.0014348266     65.27708    9244.4537 
 3850000   -200304.01    1.7503809 -0.0013068579    65.266271    9257.2451 
 3855000   -200485.89     1.757855 -0.0025094547    65.236985    9270.0739 
 3860000   -200422.38    1.7570498 3.804839e-06     65.12441     9282.911 
 3865000   -200491.07    1.8386542 -0.0027123269      65.1982    9295.7604 
 3870000   -200562.61    1.7443187 0.00011236086    65.091442    9308.5917 
 3875000   -200476.15    1.8050535 0.00069817966    65.097787    9321.4211 
 3880000   -200602.95    1.7524743 -0.0039316178    65.171844    9334.2636 
 3885000   -200684.95    1.7720568 -0.0039076069    65.160599    9347.0948 
 3890000   -200639.92     1.835446 0.00061394241    65.154214    9359.9343 
 3895000   -200574.51    1.8005761 0.0013383245    65.135536    9372.7695 
 3900000   -200550.49    1.8522799 -0.0020455437    65.146786    9385.5787 
 3905000   -200639.41    1.8576733 0.0006350216    65.052539    9398.3784 
 3910000   -200474.64    1.7963619 0.00040224624    65.128085    9411.1989 
 3915000   -200372.12    1.7680612 -0.00069715104    65.247396    9424.0162 
 3920000   -200624.39    1.8276363 0.0013859484    65.196162    9436.8326 
 3925000   -200675.04    1.7937935 0.0033206998    65.142319    9449.6242 
 3930000   -200765.95    1.8037609 -0.00067984948    65.187121    9462.4248 
 3935000   -200680.54     1.782684 0.0024432816    65.135179    9475.2224 
 3940000   -200713.27    1.7819847 0.0022199442    65.214977    9488.0145 
 3945000   -200735.45    1.8186003 0.0032144855    65.086427    9500.8257 
 3950000   -200828.31    1.8284963 0.00033035654    65.124725    9513.6264 
 3955000   -200988.72    1.7979902 0.0011125657    65.015365    9526.4156 
 3960000   -200681.33    1.8460594 -0.0019053742    65.067526      9539.22 
 3965000   -200488.99    1.7697078 0.00077295386    65.151015    9552.0428 
 3970000    -200799.6    1.7867732 -0.0025724484    65.079538    9564.8581 
 3975000   -200681.78    1.7537698 0.00037082656    65.105574     9577.684 
 3980000   -200713.89     1.827797 0.0010183088    65.192646    9590.5126 
 3985000   -200481.44    1.8045306 -0.002843397    65.243203    9603.3452 
 3990000    -200493.9    1.8355147 -0.00016551446    65.226953    9616.1433 
 3995000   -200673.11    1.8420062 0.0047428841    65.174179    9628.9327 
 4000000    -200723.3    1.8034438 3.8064164e-06    65.301452    9641.7702 
 4005000   -200632.65    1.8457542 0.0039484468    65.213015    9654.5886 
 4010000   -200581.25    1.8229453 -0.0031829002    65.391258    9667.3804 
 4015000   -200753.48    1.7441349 0.0027440158    65.317521    9680.1388 
 4020000   -200541.43    1.8260534 -0.0014678572    65.400058    9692.9556 
 4025000    -200468.5     1.839029 0.0032283465    65.374661    9705.7308 
 4030000    -200592.7    1.8221302  0.005628663    65.297085    9718.5166 
 4035000   -200554.75    1.8417531 0.00026577271    65.388494    9731.2949 
 4040000   -200492.29    1.7709658 -0.003821602    65.385672    9744.0992 
 4045000   -200596.02    1.8006116 -0.0025210186    65.429467    9756.8904 
 4050000   -200744.09    1.8193231 -0.0037473678    65.321833    9769.6161 
 4055000   -200642.73    1.8740757 0.0026848963    65.190878    9782.4081 
 4060000   -200633.94    1.7531638 -0.002355752    65.225578    9795.1779 
 4065000   -200442.65    1.7705576 -0.0024308362    65.284736    9807.9655 
 4070000   -200618.76    1.8486589 -0.002279946    65.308162     9820.764 
 4075000   -200500.84     1.843634 0.0010456494    65.205579    9833.5506 
 4080000   -200500.44    1.7898844 -0.0017599366    65.349692    9846.3887 
 4085000   -200333.89    1.8149898 0.00089813817    65.275892    9859.2051 
 4090000   -200599.17    1.7664374 -0.001355453    65.268189    9871.9907 
 4095000   -200525.79    1.8140884 -0.0046962434    65.360987    9884.7761 
 4100000   -200502.71    1.8151738  0.003016885    65.247395    9897.6181 
 4105000   -200482.13    1.7839043  0.004276497    65.186424    9910.4241 
 4110000   -200559.19    1.8222524 -0.0027105994    65.346579    9923.1859 
 4115000   -200538.57    1.7888205 -0.0040518665    65.337682    9935.9769 
 4120000   -200815.49    1.7825758 -0.0038426159    65.324538     9948.773 
 4125000   -200615.48    1.8047233 -0.0020601073    65.432934    9961.5653 
 4130000   -200726.37    1.8656698 0.0029745976    65.278889    9974.3108 
 4135000   -200624.58    1.8073977 -0.0023826132    65.350694    9987.0907 
 4140000   -200524.49    1.8535519 -0.0022346449     65.37676    9999.8791 
 4145000   -200733.66    1.8580877 0.0021988128     65.31272    10012.667 
 4150000   -200608.19    1.8277721 0.0051541391    65.192607    10025.439 
 4155000   -200655.39    1.8094294 -0.0028415121    65.279308    10038.203 
 4160000   -200393.98    1.7869632 -0.001607251    65.338489    10050.948 
 4165000   -200658.99    1.7766552 -0.0021021002    65.246261    10063.714 
 4170000   -200718.17    1.7666708 -0.0046523423    65.255579    10076.504 
 4175000   -200874.45    1.7897937 -7.885331e-05    65.158722    10089.318 
 4180000   -200609.74    1.8541204 0.0010149219    65.263054    10102.127 
 4185000   -200509.39    1.8028809 -0.00084055762    65.229542    10114.925 
 4190000   -200652.49    1.8072206 0.0035992525    65.070183    10127.721 
 4195000    -200514.8    1.7720702 0.0014235246    65.151867    10140.528 
 4200000   -200593.12    1.7349297 -0.0011597628    65.116849    10153.357 
 4205000   -200429.94    1.8878292 -0.00017834615    65.176027    10166.183 
 4210000   -200576.57    1.7566136 -0.0024112306    65.150903    10178.988 
 4215000   -200681.47    1.8454033 0.00027396453    65.128027    10191.785 
 4220000   -200605.76    1.7599598 -0.0022906791    65.162587    10204.568 
 4225000   -200717.13    1.7885098 0.00011337391    65.053944    10217.389 
 4230000   -200667.02    1.8254203 0.0036807597    65.016026    10230.207 
 4235000   -200694.62    1.8054746 0.0045925108    65.112089     10243.02 
 4240000      -200554    1.7636673 -0.0018807855    65.353382    10255.789 
 4245000   -200482.63    1.8304138 0.0021117444    65.318419    10268.579 
 4250000   -200468.83    1.8558227 -0.0021057247    65.438549    10281.356 
 4255000   -200544.28     1.803036 -0.0048845512    65.385312    10294.138 
 4260000   -200535.58    1.7914931 0.00041628966    65.312415    10306.941 
 4265000   -200430.13    1.7673109 -0.00052804175     65.33974    10319.736 
 4270000   -200553.34    1.7974996 0.0015003708    65.339644    10332.517 
 4275000   -200458.68    1.8567322 0.0015584853    65.329548    10345.307 
 4280000    -200480.8     1.850059 0.0034262933    65.314369    10358.093 
 4285000   -200703.13    1.8140497 0.00064905449    65.310484    10370.875 
 4290000   -200636.52    1.8633912 0.00033025158    65.271436    10383.635 
 4295000   -200629.85    1.8287801 0.0030684834    65.231657    10396.407 
 4300000   -200522.92    1.7831983 -0.0042750776    65.345791     10409.19 
 4305000   -200497.86    1.8570421 -0.0015451586    65.320821    10421.966 
 4310000   -200303.09    1.8249018 0.0012827756    65.412598    10434.748 
 4315000   -200466.99    1.8344379 0.0038856509    65.254458    10447.523 
 4320000   -200475.44    1.8361686 -0.0052258102    65.393504    10460.298 
 4325000   -200516.47     1.817221 1.1819463e-05     65.32351     10473.07 
 4330000    -200689.2    1.7964968 0.0050434353     65.24949    10485.826 
 4335000   -200638.47    1.8038813 0.0015269326    65.256782    10498.628 
 4340000   -200605.08    1.8141932 -0.001938955     65.30138    10511.445 
 4345000   -200559.45    1.8184044 -0.00036849378    65.313399    10524.229 
 4350000   -200876.06    1.7757636 0.0014712715     65.19764    10536.992 
 4355000   -200915.03    1.8376649 0.0059685853    65.094413    10549.765 
 4360000   -200774.11    1.7811588 -0.0011861612    65.245797    10562.581 
 4365000   -200549.87    1.7543744 0.0008857008    65.218915    10575.373 
 4370000   -200609.04    1.8102434 0.00076079045    65.195079    10588.164 
 4375000   -200640.08    1.8157849  0.000140318    65.205661    10600.933 
 4380000   -200558.53    1.8009115 0.0024087597    65.150262     10613.76 
 4385000   -200408.33    1.8249465 -0.0039537122    65.275554    10626.546 
 4390000   -200638.99    1.7707946 -0.0055148838    65.203414    10639.337 
 4395000   -200408.93    1.8404517 -7.0314365e-05    65.165687     10652.11 
 4400000   -200463.77    1.7897205 -0.001997316    65.228123    10664.938 
 4405000   -200597.95    1.7713716 -0.0058735228    65.230612    10677.752 
 4410000   -200412.68    1.8073557 0.0005487643     65.15647    10690.543 
 4415000   -200578.98    1.7758288 0.00067971611    65.167273    10703.358 
 4420000   -200514.73    1.8427547 -0.0033523015     65.23002    10716.203 
 4425000   -200634.05    1.8579817 -0.0026587463    65.190171    10729.028 
 4430000   -200690.12    1.8203898 -0.00097269015    65.223339     10741.85 
 4435000   -200619.56    1.7705418 0.0032921907    65.261996    10754.684 
 4440000   -200604.49    1.7803053 0.0024350299    65.221555    10767.512 
 4445000   -200681.54    1.7768328 -0.00041937741    65.244842    10780.321 
 4450000   -200758.63    1.7525913 0.00016081212    65.318853    10793.129 
 4455000   -200847.51    1.7731779 -0.0029690054     65.40487    10805.944 
 4460000   -200673.33    1.7667481  0.003262773    65.305211    10818.721 
 4465000   -200548.49    1.7856956  0.001495639    65.344706    10831.532 
 4470000    -200459.5    1.8360709 -0.0015525407    65.379521    10844.329 
 4475000   -200624.07    1.7917312 -0.001069016    65.312173    10857.133 
 4480000   -200743.11    1.8193406 0.0048421876    65.262483    10869.934 
 4485000    -200705.2    1.7717175 -0.0011624129    65.284001     10882.75 
 4490000   -200554.83    1.8652733 0.0066781247    65.180315    10895.576 
 4495000   -200503.69    1.7655322 0.00015266818    65.305105    10908.393 
 4500000   -200346.61    1.7836826 -0.00084460537    65.455559    10921.186 
 4505000   -200610.27    1.7910948 0.0020448759    65.312236    10933.964 
 4510000   -200697.58    1.8246575  0.001943692    65.260404    10946.777 
 4515000   -200759.41    1.7944074 0.0019798949    65.262937    10959.601 
 4520000   -200667.72     1.771105 -0.0030597809    65.389283    10972.372 
 4525000   -200777.23    1.8354877 0.0035077976    65.200092    10985.189 
 4530000   -200600.45    1.8017741 -0.00015274589    65.334413    10997.962 
 4535000   -200635.06    1.7363587 0.0019471235    65.301544    11010.763 
 4540000   -200705.31    1.8057548 0.0038071848    65.203917    11023.583 
 4545000   -200607.21    1.7822731  0.001022041     65.30153    11036.377 
 4550000   -200712.19    1.7707945 -0.0023493826    65.219381    11049.152 
 4555000   -200698.08    1.8632869 0.0031475889    65.140032    11061.934 
 4560000    -200692.1    1.8150559 0.0027902297    65.247375    11074.763 
 4565000   -200538.41    1.8297084 0.0018035135    65.270105    11087.564 
 4570000   -200533.52    1.8186648 -0.005498174    65.257611    11100.392 
 4575000   -200391.85    1.8211563 -0.0034310109    65.289304    11113.191 
 4580000   -200477.19    1.7973443 -0.0056830215    65.352315     11125.99 
 4585000   -200530.35    1.7988927 -0.00056055934    65.266197    11138.783 
 4590000   -200711.66    1.7919092 -8.9918568e-05    65.169555    11151.593 
 4595000   -200588.25    1.8310614 -0.0024586622    65.220176    11164.376 
 4600000   -200693.63    1.8216184 0.0051235625    65.134141    11177.129 
 4605000   -200563.36    1.8348838 0.00039065017    65.264902    11189.917 
 4610000   -200793.42    1.8226899 -0.0037404754    65.229271    11202.712 
 4615000   -200679.66    1.8028586 0.0029250256    65.216914    11215.483 
 4620000   -200821.79    1.7623592 -0.0046528833    65.309527    11228.292 
 4625000   -200540.03    1.7585887 0.0030271167    65.251639    11241.093 
 4630000   -200520.83    1.8413818 0.0016894253     65.22115    11253.872 
 4635000   -200611.34    1.8264098 -0.0019255035    65.258639    11266.641 
 4640000   -200655.05     1.796614 -0.0021754674     65.20351    11279.401 
 4645000   -200572.59    1.7988023 -0.00043370545    65.179837    11292.215 
 4650000   -200483.79    1.8262258 0.0012190401    65.199884    11305.009 
 4655000   -200309.29    1.8081336  0.003194405    65.154562    11317.785 
 4660000   -200652.21    1.8233162 -0.0036790714    65.183105    11330.566 
 4665000   -200569.13    1.7722844 -0.0041214196    65.228579    11343.385 
 4670000   -200574.32    1.7853138 0.0039668359       65.128    11356.218 
 4675000   -200638.41    1.8292002  0.001367881    65.156104    11368.992 
 4680000   -200455.91    1.8086994 0.0018948077    65.182594    11381.806 
 4685000   -200547.69    1.8016921 0.0021663736    65.215256    11394.613 
 4690000   -200622.84    1.7988916 0.0013000606    65.289344    11407.362 
 4695000   -200647.07    1.8267778 0.0040623476    65.198357    11420.152 
 4700000   -200567.69     1.747497 -0.0051545107    65.428668    11432.935 
 4705000   -200903.65    1.7848223 0.0004246216    65.339386    11445.704 
 4710000   -200757.86    1.8252259 0.0012610836    65.386627    11458.506 
 4715000   -200882.71    1.7699362 -0.00026086078    65.348362     11471.27 
 4720000   -200885.27    1.8299227 -0.0027175068    65.343282     11484.01 
 4725000   -200760.02    1.7730621 0.0024526777    65.297672    11496.782 
 4730000   -200703.86    1.7956884 -0.0066224809    65.436529    11509.574 
 4735000   -200681.52    1.8434723 9.5562016e-06    65.242021    11522.396 
 4740000   -200732.95    1.7605057 -0.0022650669    65.228509    11535.223 
 4745000   -200870.38    1.8091138 0.0027079376    65.201599    11548.009 
 4750000   -200626.58    1.8117254 -0.0021699458    65.275275    11560.817 
 4755000   -200793.89    1.8145149 -0.00098114961    65.241699    11573.586 
 4760000   -200813.01    1.8255798 -0.0014457451    65.217302    11586.358 
 4765000   -200695.81    1.7685274 0.0029787726    65.161026    11599.153 
 4770000    -200647.3    1.7976733 -0.004315407    65.296912    11611.952 
 4775000   -200533.41    1.7841446 -0.00025342975    65.208416    11624.752 
 4780000   -200794.84    1.8035862 -0.0016024191    65.214337     11637.56 
 4785000   -200390.35    1.7573343 -0.00040975292    65.341203     11650.35 
 4790000    -200451.9    1.8131691 0.0011532046    65.385733    11663.148 
 4795000   -200574.75    1.8292668 0.0025023503    65.318365    11675.927 
 4800000   -200602.86    1.7909086  0.000311038    65.279759    11688.681 
 4805000   -200667.86    1.8348112 0.00017789593    65.315583    11701.441 
 4810000   -200585.81    1.8395141 0.00087964797    65.395371     11714.22 
 4815000   -200466.98    1.7873487 -0.0027972749    65.326998    11727.037 
 4820000   -200719.09    1.7895566 -0.0019413256    65.390088    11739.826 
 4825000   -200517.25    1.7899877 1.1032364e-05    65.369753    11752.615 
 4830000   -200636.75    1.8055216 -0.00030179112    65.259377    11765.367 
 4835000   -200465.25    1.8776453 0.0013040465     65.28828    11778.184 
 4840000   -200644.24    1.8195597 0.0014013278    65.150343    11790.979 
 4845000   -200460.33    1.7951764 0.0030647667    65.197951    11803.783 
 4850000   -200404.83    1.7264286 0.0066722544    65.118682      11816.6 
 4855000   -200509.81    1.7945024 0.00033811411    65.236079    11829.424 
 4860000   -200607.86    1.7894046 -0.0015807264    65.293647    11842.201 
 4865000   -200417.43    1.8322591 -0.00092275691    65.366514    11855.007 
 4870000   -200426.45    1.7951692 -0.0045283571    65.367414    11867.796 
 4875000   -200375.34    1.8374015 -0.00065198497    65.319251    11880.607 
 4880000   -200629.05    1.7949306 -0.0028730024    65.238539    11893.413 
 4885000   -200641.06    1.8077525 -0.002729014    65.195332    11906.186 
 4890000   -200483.13    1.8076043 -0.00092880083    65.338662    11918.966 
 4895000   -200726.73    1.7948348 -0.00060843376    65.342155    11931.732 
 4900000   -200648.35    1.8220792 -0.00066356664    65.303327     11944.49 
 4905000   -200313.57    1.7620069 -0.0017773117    65.362416    11957.297 
 4910000   -200534.11    1.7771613 -0.00067995033     65.36329    11970.103 
 4915000   -200378.36    1.7750843 -0.0066298836    65.476362     11982.89 
 4920000    -200368.1    1.8124763 -0.0019080095    65.347632    11995.661 
 4925000   -200603.73     1.739665 -0.0032333235    65.402144    12008.432 
 4930000   -200606.59    1.7687434 0.0034785265    65.225227    12021.171 
 4935000   -200724.69    1.8077358 8.7785025e-05    65.230953    12033.976 
 4940000    -200659.5    1.7153022 0.00070623222    65.207613    12046.758 
 4945000    -200741.4    1.8196407 0.0043412353    65.168129    12059.573 
 4950000   -200518.53    1.8255099 -0.0018547866    65.341008    12072.377 
 4955000   -200579.24    1.7782472 -0.0046192149    65.302427    12085.185 
 4960000   -200635.42    1.7932752 -0.0025100694    65.292283    12097.979 
 4965000   -200647.43    1.7850677 -0.0038552612      65.3825    12110.762 
 4970000   -200435.16     1.794032 -0.0032502891    65.304535    12123.545 
 4975000   -200634.75    1.8129588 0.0006533591    65.133827    12136.336 
 4980000   -200599.11    1.7872672 -0.0028086958    65.334147    12149.102 
 4985000   -200481.63    1.8590378  0.001768797    65.363342    12161.884 
 4990000   -200716.47    1.8081612 0.0030094688    65.264075    12174.644 
 4995000   -200619.49    1.8223094 0.0048540587    65.325327    12187.414 
 5000000   -200653.61    1.7704138 -0.00072569366    65.338953    12200.224 
 5005000   -200608.23    1.7710567 0.0046403708    65.288547    12213.007 
 5010000   -200585.98    1.7953562 0.0013345712    65.352813    12225.798 
 5015000   -200591.58    1.8417071 0.00055717878    65.373049    12238.562 
 5020000   -200809.08    1.7846902 -0.0037687488    65.406636    12251.329 
 5025000   -200620.35    1.8026316  0.002442396    65.338778    12264.101 
 5030000   -200568.82    1.7929253 0.0010661689    65.397405    12276.874 
 5035000   -200620.25     1.763599 -0.0019531778    65.313841    12289.677 
 5040000   -200562.11    1.7950286 0.00049933392    65.271542     12302.48 
 5045000   -200764.32    1.7916721 -0.00059721047    65.278011    12315.258 
 5050000   -200694.34    1.7572875 -0.00029881401    65.328682    12328.031 
 5055000    -200580.3    1.8278809 -0.000778462    65.461473    12340.829 
 5060000   -200494.48    1.7565338 -0.00031363734    65.355869    12353.601 
 5065000   -200669.64    1.7896826 0.0026818701    65.280659    12366.372 
 5070000    -200715.3    1.8004596 5.4714448e-05    65.287939    12379.141 
 5075000   -200512.84    1.7884843 0.00040370536    65.359903    12391.924 
 5080000   -200580.42    1.8200781 0.0021283583    65.266401    12404.699 
 5085000   -200468.03    1.7657532 -0.00098294862    65.324798      12417.5 
 5090000   -200394.35    1.7788901 0.0052150707     65.25186    12430.287 
 5095000   -200603.55    1.8168382 -0.0011539023    65.347356    12443.052 
 5100000   -200531.49     1.784518 0.0010578623    65.280352    12455.841 
 5105000   -200523.73    1.8015132 0.0023724519    65.335962    12468.656 
 5110000   -200566.63    1.8146409 -0.0019811241    65.413362    12481.428 
 5115000   -200514.95    1.7258835 -0.00067928489    65.312487    12494.206 
 5120000   -200390.84     1.781894 0.00081985286    65.254996    12506.986 
 5125000   -200367.88    1.8004159 0.00057144596    65.269937    12519.755 
 5130000   -200405.23    1.8109236 -0.001597551    65.251051    12532.563 
 5135000    -200498.5    1.8055864 -0.0017876649    65.321629    12545.325 
 5140000   -200356.24    1.7702999 -0.0021942479    65.294608    12558.092 
 5145000   -200348.69    1.8281528 0.00084466742    65.376668    12570.905 
 5150000   -200677.63    1.8111115 -0.0022203141    65.338378    12583.714 
 5155000    -200647.8    1.8128874 -0.00022203746    65.280219    12596.488 
 5160000   -200462.52    1.7336034 -9.5681545e-05    65.270683     12609.29 
 5165000   -200572.95    1.8601361 0.0042880898    65.207394    12622.136 
 5170000   -200707.59    1.8539841 0.0017158399    65.162811    12634.968 
 5175000   -200667.63    1.8395406 -0.00070454674    65.303027    12647.776 
 5180000   -200574.82     1.810665 0.0047240879    65.086487    12660.607 
 5185000   -200695.21    1.8314163 0.00067379927    65.151501    12673.465 
 5190000   -200683.64    1.8070042 0.00014497788    65.223388    12686.264 
 5195000   -200687.68    1.8041869 0.00083764499    65.259948    12699.112 
 5200000   -200600.08    1.7360471 0.0033861494    65.198805    12711.889 
 5205000   -200628.41     1.803744 -0.00037973868    65.270289    12724.659 
 5210000   -200807.56     1.803216  0.000686849    65.234567    12737.453 
 5215000   -200646.94    1.7345826 -0.0012768323    65.361986    12750.245 
 5220000   -200723.12    1.8288726 -0.0011077747    65.388982    12762.975 
 5225000   -200682.97    1.7820524 0.0034210835    65.238875    12775.774 
 5230000   -200543.35    1.7742569 0.0012037296    65.382703    12788.562 
 5235000   -200721.92     1.767543 0.00022417932    65.357106    12801.367 
 5240000   -200514.48    1.8253548 0.00015028068    65.364117    12814.115 
 5245000   -200550.51    1.8309148 0.0014087536    65.366401    12826.875 
 5250000   -200638.58    1.8296928 0.0022648071    65.349481    12839.665 
 5255000   -200618.15    1.8193172 -0.0032288993    65.366223    12852.448 
 5260000   -200544.08    1.8324451 -0.0035044403    65.393027    12865.249 
 5265000   -200545.72    1.7724121 -0.0026675389     65.49989    12878.025 
 5270000   -200585.74    1.7827102 0.00040162563    65.330701    12890.828 
 5275000   -200661.67    1.7773936 0.00070655736    65.416257    12903.636 
 5280000   -200581.82    1.8160404 0.00026594159    65.438094    12916.419 
 5285000   -200570.51    1.8093268 -0.003142379    65.433567    12929.194 
 5290000   -200631.44    1.7688082 0.0014635695    65.217151    12941.979 
 5295000   -200452.35    1.8469289 0.0040041851    65.156398    12954.777 
 5300000   -200525.77    1.7353048 -1.3441194e-05     65.22427    12967.586 
 5305000   -200603.83    1.7714667 0.0040638913    65.180907    12980.384 
 5310000   -200621.41    1.8167041 -0.0038990511    65.254359    12993.203 
 5315000   -200644.74    1.7815625 -0.00047761346    65.115733    13006.021 
 5320000   -200727.28    1.8027176 0.0032792208    65.140375    13018.825 
 5325000   -200506.83    1.7926376 -0.0053134437    65.300093    13031.662 
 5330000   -200511.21    1.7684607 0.0021608187     65.19785    13044.459 
 5335000   -200455.77    1.8489904 0.0010070175    65.121855    13057.237 
 5340000   -200841.33    1.8102778 0.0011430876    65.039696    13070.041 
 5345000   -200661.84    1.7960203 0.0012830958    65.070316    13082.818 
 5350000   -200514.75     1.784185 -0.0012446676    65.118377    13095.577 
 5355000   -200583.79    1.7991453 0.0037601028    65.064937    13108.367 
 5360000   -200697.52    1.7683412 0.0017725411    65.068684    13121.214 
 5365000   -200649.55    1.7496201 -0.0012794374    65.053022    13133.976 
 5370000   -200611.79    1.8174823 0.0016923664     65.03147    13146.777 
 5375000    -200749.1    1.8225021 0.0011864475    65.052344     13159.61 
 5380000      -200491    1.7548142 -0.0029532811    65.158079    13172.404 
 5385000   -200649.92    1.8009566 -0.0037282363     65.11602    13185.243 
 5390000   -200474.88    1.8220725 0.0017741096    65.077461     13198.02 
 5395000   -200663.77    1.8424526 0.0025434372    65.040119    13210.848 
 5400000   -200694.67    1.8240855 -0.00068959675    65.091701    13223.653 
 5405000   -200727.07    1.8233029 0.0016535555    65.087716    13236.499 
 5410000   -200748.63    1.7665166 0.00082643365    65.105584    13249.333 
 5415000   -200812.26    1.8455712 0.0025273115    65.029291    13262.171 
 5420000   -200667.22     1.764262 0.0017794503    65.049878    13274.987 
 5425000   -200816.16    1.7344025 -7.0092037e-05    65.061286    13287.832 
 5430000   -200687.79    1.8096988 -0.0018726491    65.054227     13300.71 
 5435000   -200773.62    1.8501922 -0.00098440348    65.057593    13313.523 
 5440000   -200628.58    1.8198208 0.0051664445    65.037223    13326.375 
 5445000   -200579.42    1.8199712 0.0018050426    65.113069    13339.176 
 5450000   -200675.66    1.7893762 0.00095083986    65.150639     13352.01 
 5455000   -200492.76     1.735634 -0.0024892802    65.087568    13364.796 
 5460000   -200619.85    1.8260449 0.0013967177    65.017057    13377.634 
 5465000   -200542.25    1.8032774 -0.0023054081     65.10067    13390.442 
 5470000   -200567.71    1.7621708 -0.0017802266     65.08448      13403.3 
 5475000   -200713.44     1.802556 0.0049414875    65.033189    13416.148 
 5480000   -200458.82    1.7766386 -0.001579036    65.127172    13428.958 
 5485000   -200617.64    1.8056601 -0.0011695791    65.142384    13441.776 
 5490000   -200470.01    1.8064416 -0.0063977585    65.296794    13454.596 
 5495000   -200695.22    1.7986492 0.0018220797    65.124586    13467.441 
 5500000   -200717.33    1.8390816 -0.00013817034    65.214589    13480.275 
 5505000   -200558.98    1.8347061 0.0010097907    65.194092    13493.106 
 5510000   -200465.86    1.7862467 -0.007410968    65.374771    13505.891 
 5515000    -200747.4    1.8260811 0.0034466703    65.073319    13518.712 
 5520000   -200508.02     1.758121 -0.0053943974    65.219472    13531.517 
 5525000   -200702.67    1.8222571  0.003786248     65.04039    13544.309 
 5530000   -200704.31    1.8330663 -0.0022012445    65.146397    13557.153 
 5535000    -200655.8    1.7975126 -0.0049927741    65.169665     13570.01 
 5540000   -200636.38    1.8191279 -0.00069395935    65.131334    13582.779 
 5545000   -200708.28    1.7693994 -0.0015291564    65.184712    13595.589 
 5550000   -200650.51     1.801668 0.00074966634    65.155549    13608.418 
 5555000   -200359.35    1.8130465 0.0025135283    65.085008     13621.22 
 5560000   -200407.79    1.7374942 -0.00070810613    65.142014    13634.034 
 5565000   -200531.77    1.8230194 -0.000990621    65.175903    13646.862 
 5570000   -200453.76    1.7393723 0.0023075875    65.033583    13659.679 
 5575000   -200679.86    1.7959261 -0.0032167551    65.111678    13672.491 
 5580000   -200476.63    1.7946686 0.0010770254    65.183701    13685.299 
 5585000   -200418.56    1.7733879 0.0069374617    65.122013    13698.109 
 5590000   -200442.22    1.8152327 -0.0024592881    65.210865     13710.93 
 5595000   -200620.86    1.7645375 0.00084311662    65.269524    13723.738 
 5600000   -200465.31    1.7893149 -0.005011376    65.428361    13736.508 
 5605000   -200675.33    1.8293984 -0.0028862182    65.362148    13749.299 
 5610000   -200593.24    1.8038189 -0.0025130365    65.395156    13762.057 
 5615000   -200585.11    1.6859927 -0.0023391708    65.365295    13774.839 
 5620000   -200273.17    1.8108914 -0.00054261417    65.399238    13787.592 
 5625000   -200528.58    1.7636314 0.0014340909    65.378731    13800.361 
 5630000   -200453.48     1.819381 -0.004697608    65.433169    13813.123 
 5635000    -200611.2    1.8256938 0.00037464401    65.347181    13825.915 
 5640000   -200595.31    1.8142779 -0.0015163815    65.379337    13838.686 
 5645000   -200506.27    1.7829267 -0.0063342896    65.303434    13851.454 
 5650000   -200621.24    1.8186924 0.00048359678    65.229915    13864.236 
 5655000   -200548.84    1.8063086  0.003314355    65.324038    13877.017 
 5660000   -200471.11    1.8540134 0.0024379459    65.306487    13889.756 
 5665000    -200663.8    1.7883562 0.0013822865    65.336479    13902.527 
 5670000   -200501.17    1.7719156  0.000187235    65.343709    13915.311 
 5675000   -200516.67    1.7972349 -0.0024423721     65.44285    13928.084 
 5680000   -200646.57    1.7852447 0.0026148515    65.359688    13940.897 
 5685000   -200351.09    1.8010822 -0.0066531591    65.557062    13953.669 
 5690000   -200726.12    1.8422158 -0.0009410095    65.365261    13966.424 
 5695000      -200561    1.7839774 0.0008408355     65.32047    13979.227 
 5700000   -200616.63     1.760402 -0.00080989114    65.241628    13992.037 
 5705000   -200496.85    1.8476964 0.0028920926    65.275351    14004.824 
 5710000   -200591.77    1.8084094 0.00030047993    65.267884    14017.619 
 5715000   -200534.29    1.8178598 0.0024047337    65.215692     14030.44 
 5720000   -200587.95     1.847735 0.00080422407    65.359179    14043.247 
 5725000   -200589.72     1.791474 -0.0019483289    65.374328    14056.039 
 5730000   -200505.82    1.7934727  0.003162999    65.334179     14068.83 
 5735000   -200718.26    1.7704564 -0.0034196389    65.406618    14081.599 
 5740000   -200609.21    1.8250093 0.0013051206    65.351238    14094.388 
 5745000   -200355.14    1.8284013 -0.0052192516    65.391877    14107.185 
 5750000   -200584.72    1.8462402 -0.0036601202    65.327323    14119.979 
 5755000   -200523.47    1.8202014 0.0058819728    65.180688    14132.804 
 5760000   -200561.52    1.7597354 -0.0022857919    65.240238    14145.627 
 5765000   -200520.38    1.8081903 0.0002296104    65.193691    14158.438 
 5770000    -200552.2    1.7835265 0.0029793061    65.235365    14171.237 
 5775000   -200615.73    1.8039805 0.0010673912    65.247641    14184.048 
 5780000   -200490.65    1.8340197 -0.002142952    65.233329    14196.857 
 5785000   -200495.61    1.8518357 -0.00083218278    65.222595    14209.667 
 5790000   -200612.07    1.7840803 0.0032032281    65.077134    14222.469 
 5795000    -200508.2    1.8347981 -0.0012165535    65.222454    14235.317 
 5800000   -200460.88    1.7795126 0.0026249577    65.112432    14248.095 
 5805000   -200523.42    1.8123525 0.00033598955    65.206909    14260.906 
 5810000   -200566.64    1.8051814 -0.00052085524    65.180411    14273.683 
 5815000   -200596.51    1.7968505 -0.0013028089    65.156154    14286.486 
 5820000   -200433.65    1.8422929 0.0034352516    65.092695    14299.272 
 5825000    -200753.1    1.7961956 -0.001060804    65.196725    14312.094 
 5830000   -200479.96    1.7834209 0.00030726377    65.189123    14324.904 
 5835000    -200547.8    1.8237315  0.002952687     65.06018    14337.715 
 5840000   -200614.06    1.7569516 -0.0018091823    65.107863    14350.517 
 5845000   -200740.89    1.7717716 0.00069251094    65.043492    14363.354 
 5850000   -200722.92    1.7709456 0.00040094603     65.07878    14376.173 
 5855000   -200713.73    1.7785067 -0.0044079009     65.03069     14388.98 
 5860000   -200595.61    1.8106109 -0.0023943696    65.147923    14401.809 
 5865000   -200554.22      1.71762 -0.0039214938    65.145252    14414.607 
 5870000   -200498.79    1.8007707 -0.0017284754    65.101718    14427.421 
 5875000   -200619.01    1.8438461 -0.00040226987    65.012283    14440.221 
 5880000   -200622.21    1.8004238 -0.0019069736     64.98108    14453.036 
 5885000    -200581.4    1.7904252 0.00026346306    65.068894     14465.87 
 5890000   -200500.15    1.7809415 0.0036208237    65.078189    14478.689 
 5895000   -200554.77    1.8338414 0.0027101877    65.150916    14491.476 
 5900000   -200567.95    1.7466716 -0.0028065917    65.222124    14504.288 
 5905000   -200497.24    1.7799535 0.0023464634    65.192009    14517.058 
 5910000   -200620.47    1.8271431 -0.0030605534    65.207227    14529.827 
 5915000   -200563.25    1.7646366 -0.0026877778    65.178127    14542.613 
 5920000   -200459.69     1.752188 0.0015797013    65.166286    14555.385 
 5925000   -200649.49     1.762498 0.0028531221     65.12299    14568.195 
 5930000   -200825.03    1.8372174 -9.0322288e-05    65.167684    14580.988 
 5935000   -200552.65    1.7891767 -0.0020332658    65.258459    14593.784 
 5940000   -200467.17    1.8120432 -0.001841361    65.238696    14606.597 
 5945000   -200551.78    1.7663434 -0.0011275053    65.182106      14619.4 
 5950000   -200608.31    1.8195846 0.0030240503     65.03216     14632.22 
 5955000    -200644.2    1.8192451 0.00055269858    65.037583    14645.014 
 5960000   -200777.81     1.796981 -0.003957025    65.097809     14657.81 
 5965000   -200612.38    1.8034942 -0.0042250258    65.111189     14670.66 
 5970000   -200614.54    1.8167783  0.001025544    65.132173    14683.436 
 5975000   -200527.76    1.8199359 0.0021494963    65.148931     14696.22 
 5980000   -200525.54    1.8332129 0.0016945482    65.286608    14709.009 
 5985000   -200539.14     1.757632  0.003717069    65.153714    14721.768 
 5990000   -200617.19    1.7877942 -4.0663963e-05     65.25629    14734.557 
 5995000   -200606.53    1.7717074 0.00011291681    65.309498    14747.353 
 6000000    -200660.5    1.7882053 -0.00092782453    65.244522    14760.106 
 6005000   -200780.45     1.807461 -0.0020611455    65.216468    14772.905 
 6010000   -200397.24    1.8183508 0.00079506782    65.277549    14785.716 
 6015000   -200560.55     1.778224 0.0050038375     65.04707    14798.512 
 6020000   -200816.06    1.7524246 0.00022854085    65.107491    14811.271 
 6025000   -200682.27    1.7819766 -0.001996359     65.22974    14824.134 
 6030000   -200552.23    1.7773757 0.00085623072    65.214518    14836.928 
 6035000   -200704.97    1.9058216 -0.00046706671    65.227881    14849.699 
 6040000   -200595.14    1.8237694 -0.0010583549    65.232568    14862.531 
 6045000    -200768.8    1.7705432 0.0048357862    65.028757    14875.293 
 6050000   -200697.75    1.7382329 0.00066663611    65.126117    14888.127 
 6055000   -200564.08    1.7683644 0.0019309558    65.105909    14900.906 
 6060000   -200633.33    1.8344612 0.0014823989    65.206577    14913.711 
 6065000   -200493.35     1.807671 0.0030571703    65.147554    14926.523 
 6070000   -200431.09    1.8043525 0.00010704162    65.216864    14939.316 
 6075000   -200573.33     1.837292  0.001545039    65.201458    14952.137 
 6080000   -200574.26    1.8151652 -0.0018842774    65.259685    14964.967 
 6085000   -200501.34    1.8582261  0.001724383    65.119055    14977.788 
 6090000   -200598.65    1.7768455 -0.005604392    65.272554    14990.592 
 6095000   -200646.13    1.8409005 0.00049135235    65.214965    15003.395 
 6100000    -200589.2    1.7860921 0.00071468029    65.239299    15016.235 
 6105000    -200686.1    1.8678955 0.00022691138    65.162822    15029.058 
 6110000   -200611.87    1.8127328 -0.0061387919    65.361288    15041.899 
 6115000   -200364.18     1.776118 0.0098501255    65.134565    15054.737 
 6120000   -200676.35    1.8582739 0.0024639513    65.071963    15067.584 
 6125000   -200445.86    1.8059974  0.002098164    65.157972    15080.365 
 6130000   -200578.46    1.8161766 0.00065949833    65.079535    15093.158 
 6135000   -200461.22    1.7979736 -0.00096687206    65.126957    15106.009 
 6140000    -200653.8    1.8251788 0.0019968604    65.130547    15118.841 
 6145000    -200525.9    1.7702039 -0.00080773714     65.09178    15131.631 
 6150000   -200681.45    1.8267234 0.0025069254    65.038853    15144.459 
 6155000   -200624.66    1.7835311 -0.00096315552    65.082479    15157.251 
 6160000   -200848.39    1.8386893 0.0019725951    65.079482    15170.049 
 6165000   -200655.23    1.7618979 0.0019988828    65.219566    15182.838 
 6170000   -200813.23    1.8040106 0.0038564528    65.138096     15195.65 
 6175000   -200613.84     1.766462 -0.0039658379    65.240141    15208.406 
 6180000   -200643.84    1.8133437 0.00012192775    65.143542    15221.212 
 6185000   -200681.98    1.8380863 0.0025565175     65.15914    15233.983 
 6190000   -200678.39    1.8155171 0.0045377808    65.165746    15246.782 
 6195000   -200719.54    1.8190333 0.0026745206    65.191046    15259.581 
 6200000   -200681.02     1.785348   0.00397461    65.160672    15272.406 
 6205000   -200779.48    1.8190712 0.00053088028    65.127522    15285.205 
 6210000   -200607.34    1.7660941 -0.0018579527    65.191523    15298.039 
 6215000   -200741.98    1.7855387 -0.00091541084    65.083994    15310.846 
 6220000   -200493.91    1.7842178 0.0023837931    65.158392    15323.656 
 6225000   -200635.32    1.8337537 -0.00099780201    65.247079    15336.466 
 6230000   -200718.04    1.8063369 0.0019633813    65.199487     15349.26 
 6235000    -200740.2    1.8029922 -0.0073084391    65.330165    15362.067 
 6240000   -200548.42    1.8247589 0.00048412856    65.284127    15374.896 
 6245000   -200603.29    1.8162499 0.00088973729    65.167672    15387.676 
 6250000   -200714.03    1.7834868 0.0025034603    65.185763     15400.48 
 6255000   -200511.12    1.8153079 -0.00068819067    65.350037    15413.238 
 6260000   -200760.82    1.7597793 -0.0035667898    65.220214    15425.999 
 6265000   -200567.55    1.7981114 -0.00094548086    65.270688    15438.777 
 6270000   -200634.83    1.7790182  0.000147548    65.210161    15451.592 
 6275000   -200627.17    1.8223304 0.0010284772    65.187494      15464.4 
 6280000   -200432.34    1.7811719 -0.00038895205    65.244911    15477.157 
 6285000   -200530.94    1.8169834 0.0043391167    65.253042     15489.97 
 6290000   -200596.25    1.8243614 0.00086345404    65.226784    15502.736 
 6295000   -200458.44    1.8197324 -0.0014007896    65.261293    15515.527 
 6300000    -200625.9    1.7530766 -0.0028198017    65.253828    15528.325 
 6305000   -200539.35    1.8452308 0.00099157973    65.188508    15541.134 
 6310000   -200756.83    1.8256596 0.0049938678    65.131741    15553.936 
 6315000   -200482.69     1.799846 0.0052970614    65.041095    15566.718 
 6320000   -200389.26    1.7903458 0.0021823142    65.121841    15579.533 
 6325000   -200677.25    1.7664883 -0.0017712646    65.143313    15592.328 
 6330000   -200571.75    1.8068517 0.0021350478    65.129966    15605.156 
 6335000   -200399.89    1.7849967 -0.00099184937    65.249662    15617.953 
 6340000    -200761.7    1.8292483 -0.0067382256    65.361758    15630.706 
 6345000   -200440.39    1.8201144 -0.0022315619    65.446673    15643.509 
 6350000   -200689.59    1.8280208 0.0017308768    65.253723    15656.278 
 6355000   -200564.34    1.8098949 -0.00071451675    65.238942     15669.07 
 6360000   -200393.77    1.7983781 -0.0014397576    65.365191    15681.879 
 6365000   -200571.59    1.7670628   0.00178186    65.327532    15694.628 
 6370000   -200479.58    1.7805555 0.0008470211    65.367005    15707.418 
 6375000   -200578.47     1.815306 0.0031614445    65.359453    15720.225 
 6380000   -200681.91    1.7901339 0.0016230957    65.416774    15733.023 
 6385000   -200674.95    1.7193777 0.0018201243    65.410483    15745.811 
 6390000   -200485.09    1.7772795 -0.0025640363    65.465375    15758.582 
 6395000   -200395.96     1.751225 0.0015220825    65.408303    15771.358 
 6400000   -200425.79    1.8029214 -0.0014544497    65.421926    15784.147 
 6405000    -200580.5    1.7920323 -0.0030662638    65.378235     15796.93 
 6410000   -200622.65    1.8013013 -0.00083099995    65.364631    15809.741 
 6415000   -200722.42    1.7995767 0.00088106504    65.284729    15822.545 
 6420000      -200565    1.7887947 0.0012651723    65.204961    15835.368 
 6425000   -200627.62      1.79682 -0.0021975419    65.315515    15848.149 
 6430000   -200523.83    1.7733184 0.00095201143    65.311934    15860.969 
 6435000   -200431.47    1.8222239 0.00081671314    65.399234    15873.737 
 6440000   -200420.54     1.781768 -0.0019861239    65.454837    15886.511 
 6445000   -200536.61    1.7460933 -0.0022610981    65.355941    15899.286 
 6450000   -200541.64    1.8044973 -0.00089535457    65.479069    15912.051 
 6455000   -200735.74    1.7482512 0.0026546301    65.376036    15924.811 
 6460000   -200528.28    1.8013598 0.0027790134    65.278713    15937.611 
 6465000   -200425.23    1.8097869 0.0015138114    65.332553     15950.37 
 6470000   -200438.21    1.7943787 0.0017158204     65.30143    15963.152 
 6475000   -200456.36    1.7647113 -0.0026073734    65.341432    15975.889 
 6480000    -200468.7     1.771357 0.00057108105      65.2423    15988.667 
 6485000   -200512.99    1.8692608 0.0034995903     65.20432     16001.43 
 6490000   -200534.73    1.7844182 -0.0036986838     65.35102    16014.238 
 6495000   -200594.73    1.7747738 0.0001669687    65.186903    16027.065 
 6500000   -200456.91    1.8060891 -0.00022345474    65.228145    16039.849 
 6505000   -200347.03    1.8535022 -0.0030901823    65.379684    16052.616 
 6510000    -200536.9    1.8115388 -0.00072604125    65.319157     16065.41 
 6515000   -200594.75    1.8148162 0.0010480513    65.256057    16078.229 
 6520000   -200399.91     1.794448 0.0041038719    65.295775    16091.017 
 6525000   -200359.03    1.7817778 -0.0035537111    65.454222    16103.774 
 6530000    -200458.7    1.7769236 0.00093737251     65.28877    16116.587 
 6535000   -200564.25    1.7409397 -7.5580997e-05    65.345315    16129.356 
 6540000   -200602.87    1.7778354 0.0019493746    65.346749    16142.143 
 6545000   -200569.39    1.8623929 0.00042314813     65.29129    16154.907 
 6550000   -200606.51    1.8176919  0.001787317    65.325607    16167.772 
 6555000    -200589.5    1.8261554 -6.1863125e-05    65.337353     16180.54 
 6560000   -200430.66    1.8106655 -0.0026164153    65.417912    16193.318 
 6565000    -200335.6    1.7692956 -0.0013603178    65.368688     16206.12 
 6570000   -200490.13    1.7938729 0.00058174495     65.34022    16218.868 
 6575000   -200634.37     1.781053 0.0022136351    65.171157    16231.676 
 6580000   -200453.62    1.8339486 -0.00030688151    65.193053    16244.475 
 6585000   -200445.23     1.752903  0.001349989    65.193724    16257.288 
 6590000   -200537.11    1.7925912 0.0027495245    65.241182    16270.109 
 6595000   -200548.56    1.7746205 0.0043552225    65.258687    16282.917 
 6600000    -200564.3    1.8157141  0.007211404    65.313332    16295.718 
 6605000   -200623.92    1.7672199 -0.0041736391    65.448939    16308.514 
 6610000   -200576.19    1.8471957 -0.0042694104    65.444812    16321.323 
 6615000   -200463.55    1.7394942 -0.0040632861    65.367396    16334.065 
 6620000   -200656.07    1.8336205 -5.5193113e-05    65.165685    16346.826 
 6625000   -200570.14    1.8328119 -0.0020907065    65.340711    16359.623 
 6630000   -200522.89    1.7842997 0.0056834818     65.23639    16372.413 
 6635000   -200499.44    1.8043377 -0.0074804121     65.43922     16385.24 
 6640000   -200516.74    1.8460054 0.0011921481    65.241886    16398.001 
 6645000   -200597.58    1.7985548 -0.0032305844    65.139185    16410.781 
 6650000   -200656.95    1.7847686 -8.7499302e-05    65.133696    16423.606 
 6655000   -200535.93    1.8652483 -7.7899814e-05     65.21585    16436.421 
 6660000   -200596.12     1.798663 0.0024867829    65.186409    16449.191 
 6665000   -200487.58    1.8039292 0.0028623322    65.195937    16461.985 
 6670000   -200613.72    1.7344031 -0.0027992196    65.267173    16474.776 
 6675000   -200772.24    1.8945272 0.0015432826    65.188754     16487.57 
 6680000   -200678.31    1.7651946  0.000288577    65.258745    16500.385 
 6685000   -200650.24    1.8292422 0.0019227219    65.178945     16513.19 
 6690000   -200409.71    1.8424353 0.0011614638    65.262309    16526.008 
 6695000   -200562.01    1.7648602 0.0030492173    65.115853    16538.805 
 6700000    -200623.5    1.9035327 0.0021457741    65.212571    16551.633 
 6705000   -200612.14    1.8330923 0.0035058919    65.155576    16564.439 
 6710000   -200639.84    1.7978778 -0.0068341632    65.300965    16577.291 
 6715000   -200486.78    1.7596713 -0.0022440757    65.305302    16590.117 
 6720000   -200479.01    1.8224811 -0.0011449245    65.256331    16602.884 
 6725000   -200763.61    1.8306893 -0.00054194479    65.364618    16615.652 
 6730000   -200618.43    1.7765939 0.00067092955    65.260819    16628.414 
 6735000   -200689.26    1.7640501 0.00012981835    65.319075    16641.214 
 6740000   -200688.57      1.72108 -0.0032221317    65.413263    16654.008 
 6745000   -200680.92    1.7773911 0.0018765167    65.231958    16666.803 
 6750000   -200784.53    1.7942176 0.0012657715     65.32331    16679.579 
 6755000   -200484.13     1.742741 -0.00076556461    65.394408    16692.316 
 6760000   -200576.38    1.7534551 0.0026601651    65.363741    16705.106 
 6765000   -200742.08    1.7716707 -0.0065039055    65.357558    16717.897 
 6770000   -200623.97    1.7934893 -0.0049294883    65.397882    16730.698 
 6775000   -200565.06    1.7517389  0.002501313    65.260785    16743.467 
 6780000   -200571.58    1.8288863 -0.0014674343    65.297134    16756.253 
 6785000   -200652.89    1.8379872 0.0010511754    65.210575    16769.078 
 6790000   -200621.73    1.8164353 -0.00096975011    65.285163    16781.855 
 6795000   -200632.92    1.8167462 0.0010835585    65.301011    16794.606 
 6800000   -200529.28    1.7809281 0.0017868131    65.307504    16807.371 
 6805000   -200461.63    1.7864377 0.0012650717    65.237138    16820.192 
 6810000   -200525.47    1.8303269 -0.0010593513    65.286612    16832.958 
 6815000   -200765.59    1.7638911 0.0026988645    65.217605     16845.73 
 6820000   -200782.34    1.8027034 -0.00047899086    65.254174    16858.498 
 6825000    -200650.7    1.8189499 -0.0020327685    65.444448    16871.299 
 6830000   -200588.66    1.7829613 -0.0053695155    65.392989    16884.048 
 6835000   -200650.32    1.7428377 -0.0044382449    65.285205    16896.844 
 6840000   -200747.61    1.8193734 -0.0036753017    65.299958    16909.625 
 6845000   -200604.81    1.7805225 -0.00035673721    65.301112    16922.368 
 6850000   -200560.62    1.8222673 -0.00097243334    65.240975    16935.164 
 6855000   -200662.41    1.8681513 0.0039797884    65.191663    16947.998 
 6860000   -200643.74    1.7944742 0.0016246739    65.212411    16960.797 
 6865000   -200635.63    1.7986889 -0.00091109095    65.212339    16973.611 
 6870000   -200641.94    1.7926713 0.00069119689    65.183651    16986.393 
 6875000   -200732.86    1.8571325 -0.0012380816    65.295273    16999.177 
 6880000   -200647.55    1.7568384 0.0019353129    65.248646    17011.993 
 6885000   -200639.01    1.8123729 0.0022646164    65.235613    17024.794 
 6890000   -200854.69    1.7850541 0.0011837467     65.17712    17037.581 
 6895000   -200613.04     1.840523 0.0036040193    65.231536     17050.38 
 6900000   -200751.29    1.8235806 -0.0021846581    65.182162    17063.158 
 6905000   -200611.43    1.7958031 -0.00036279274     65.14089     17075.95 
 6910000   -200559.58    1.7690777 0.0056385108    65.132545    17088.743 
 6915000    -200867.5    1.8170236 -0.0044665043    65.229246     17101.54 
 6920000    -200695.7    1.8277259 -0.0029861555    65.333898    17114.304 
 6925000   -200790.15    1.8228262 -0.0010390977    65.277811     17127.05 
 6930000   -200782.53    1.7407417 -0.0049956282     65.19007    17139.835 
 6935000   -200764.06    1.7762762  0.001618593    65.221857    17152.627 
 6940000   -200568.86    1.7726962 0.0025516889    65.114461    17165.459 
 6945000   -200593.43    1.8222532 0.0035932372    65.078774    17178.281 
 6950000   -200738.49    1.8019621 0.0015234427    65.068834    17191.091 
 6955000   -200702.44    1.8181925 -0.00094817688    65.099261    17203.843 
 6960000   -200566.69    1.8216712 0.0008833986    65.116846    17216.635 
 6965000   -200671.98     1.816485 0.0018391729    65.079335     17229.44 
 6970000   -200573.57    1.8441794 0.0037138359    65.197514    17242.242 
 6975000   -200541.55    1.7849119 0.00020418619    65.272661    17255.029 
 6980000   -200750.58    1.8350061 0.0035127285    65.113321    17267.847 
 6985000   -200676.85    1.7934491 0.0019368925    65.156841    17280.669 
 6990000   -200819.26    1.7942824 -0.0015299301    65.259839    17293.478 
 6995000    -200618.2    1.8305876 -0.0045353684    65.368739    17306.266 
 7000000   -200694.05    1.7775971 -0.00035610899    65.167979    17319.067 
 7005000   -200517.92    1.8137514 -0.0038797891    65.304683    17331.904 
 7010000   -200851.28    1.8395926 -0.0016263842    65.210344    17344.758 
 7015000   -200713.88    1.8633998 0.0013004625    65.223816    17357.554 
 7020000   -200625.54    1.8231358 -0.0044060979    65.388864    17370.322 
 7025000   -200636.72    1.7774896 0.0034692632    65.293795    17383.119 
 7030000   -200587.86    1.8399886 9.9996973e-05    65.340333    17395.891 
 7035000   -200697.37    1.7588456 0.00075529899     65.20083     17408.66 
 7040000   -200574.05    1.8334823  0.001879325    65.303921    17421.434 
 7045000   -200580.34    1.8155386 -0.0001023342    65.248547    17434.195 
 7050000   -200471.32    1.7809472 -0.003199596    65.330222    17446.994 
 7055000    -200557.1    1.8259728 -0.0022521168    65.379537    17459.806 
 7060000   -200637.13    1.8418156 0.0014890131    65.339908    17472.598 
 7065000   -200569.15    1.7722045 0.0028946817    65.251618    17485.397 
 7070000   -200652.08    1.8163318 -0.006307846    65.434462    17498.209 
 7075000   -200527.63    1.8351306 0.0024115669    65.345866    17510.999 
 7080000    -200712.8    1.7758951 -0.0010574156    65.293725    17523.824 
 7085000   -200729.88    1.8314812 0.0054133797    65.162032    17536.625 
 7090000   -200665.82    1.7282704 -0.0019365642    65.248311    17549.415 
 7095000   -200495.14    1.7743318 0.00066359296    65.327044    17562.219 
 7100000   -200664.03    1.7843879 -0.00018285032    65.275824    17575.048 
 7105000   -200613.98    1.8402937 0.0012409039    65.418202     17587.83 
 7110000   -200687.16    1.8177308  0.002077201    65.263105     17600.61 
 7115000    -200703.4    1.8166571 -0.00086269159    65.233813    17613.421 
 7120000   -200628.65    1.8233996 0.0022874907    65.203021    17626.238 
 7125000   -200504.44    1.8172599 -0.0033332384    65.295805    17639.013 
 7130000   -200693.11    1.8013543 -0.00016782016    65.242212    17651.836 
 7135000   -200656.43    1.7846847 0.0030187748    65.330137    17664.625 
 7140000   -200659.53    1.8033793 0.0011188557    65.341272    17677.401 
 7145000   -200646.12     1.802671 0.00073552159    65.470545    17690.187 
 7150000   -200728.88    1.8035751 -0.00038487637    65.313916    17702.933 
 7155000   -200554.22    1.8106363 -0.0023111313    65.375774    17715.732 
 7160000   -200404.62    1.7790189 -0.0014817311    65.349753    17728.522 
 7165000   -200478.73    1.7722479 -1.1760711e-05     65.40483    17741.308 
 7170000   -200511.37    1.8103484 0.0018472172    65.311968    17754.078 
 7175000   -200584.45    1.7742149 0.00011046501    65.320047    17766.885 
 7180000   -200470.73    1.8365273 0.0083108944    65.232162    17779.718 
 7185000   -200636.33    1.7333816 -0.00067868727     65.37001    17792.479 
 7190000   -200735.18    1.8063069  0.001548831    65.396178    17805.253 
 7195000   -200630.34    1.8219469 -0.00040780833    65.321104    17818.046 
 7200000   -200469.15    1.7918179 -0.0021455351    65.359742     17830.84 
 7205000   -200470.44     1.821566 0.0020325421    65.349502    17843.642 
 7210000   -200762.42    1.7788022 -0.00073024054    65.440947    17856.434 
 7215000   -200629.39    1.8224873 -0.0058426823     65.56299    17869.226 
 7220000   -200464.22    1.8149978 -0.0057269766    65.534087    17882.034 
 7225000   -200592.69    1.7513854 0.0043877351    65.268081    17894.813 
 7230000   -200489.15    1.8289755 0.0019647044    65.302811    17907.557 
 7235000   -200518.23    1.7971843 -0.00056524689    65.291512    17920.296 
 7240000    -200617.4    1.7699348 -0.0012605972    65.312625    17933.041 
 7245000   -200641.27    1.7626531 -0.0095661044    65.514208    17945.826 
 7250000   -200498.36    1.7918633 -0.0031362963    65.440818    17958.618 
 7255000   -200568.58    1.7512281 -0.006353669    65.477051    17971.386 
 7260000    -200577.3    1.8568978 0.0056514577    65.220157    17984.156 
 7265000   -200544.59    1.8066306 -0.00099384975    65.284747    17996.969 
 7270000   -200615.69    1.7759165 0.00058920949    65.298585    18009.759 
 7275000   -200431.97    1.8491137 -0.0053557491    65.455562    18022.569 
 7280000   -200586.34    1.8341672 0.0052807184    65.280663     18035.36 
 7285000    -200626.4    1.8612862 -0.0042283839    65.405345    18048.105 
 7290000   -200367.46      1.80857 -0.0037625883     65.54717    18060.898 
 7295000   -200507.99    1.7610789 0.0015000887     65.30296    18073.632 
 7300000   -200442.86    1.7602856 -0.0043537037    65.481074    18086.362 
 7305000   -200539.14    1.7916253 -0.0045787958    65.541064    18099.133 
 7310000    -200609.6    1.7825384 -0.0014936593     65.39795    18111.936 
 7315000   -200708.89    1.7905268 0.0028631179    65.340222      18124.7 
 7320000   -200499.25    1.8536576 0.0018792867    65.437703    18137.483 
 7325000   -200507.44    1.7929877 0.0022146893    65.413126    18150.227 
 7330000   -200437.15     1.844847 0.00070910276    65.321766    18162.963 
 7335000   -200493.23    1.8105577 0.00069347714     65.29069    18175.707 
 7340000      -200566    1.8116064 -0.0033367107    65.388985     18188.54 
 7345000   -200307.85    1.7496544 -0.00039518135     65.38154    18201.291 
 7350000   -200542.38    1.7497044 0.0026324966    65.247649    18214.048 
 7355000   -200550.88    1.8197554 -0.00028742006    65.296068    18226.826 
 7360000   -200484.03    1.8359894 0.0025062985    65.327275    18239.578 
 7365000   -200488.59    1.8112683 -0.0014524296     65.43024     18252.35 
 7370000   -200537.63    1.8213305 0.0022648741    65.326949    18265.153 
 7375000   -200569.91    1.8202831 1.3682479e-05    65.388095    18277.906 
 7380000   -200534.58    1.7873547 -0.0038085765    65.508918    18290.688 
 7385000   -200434.73    1.8503297 0.0064805952    65.310053    18303.475 
 7390000   -200527.02    1.8277463 0.0072228844    65.224798    18316.262 
 7395000   -200740.54    1.7988894 0.0038356687     65.24856    18329.039 
 7400000   -200632.11    1.8040823 -0.00076628188    65.448253    18341.792 
 7405000   -200848.54    1.8642805 -0.002624372    65.393501    18354.548 
 7410000   -200760.46    1.7770161 0.0046456484    65.239675    18367.331 
 7415000   -200743.66    1.7956191 0.00042185878    65.335535    18380.131 
 7420000   -200734.59    1.7812354 -0.0019711849    65.322409    18392.931 
 7425000   -200619.74    1.7658667 -0.00084516645    65.312684    18405.742 
 7430000    -200646.3    1.7876046 -0.0018366408    65.418194    18418.482 
 7435000   -200588.65    1.8106144 -0.0012857775    65.491662    18431.247 
 7440000   -200534.18     1.794056 1.4877879e-05    65.344579    18444.027 
 7445000   -200643.63    1.7615498 0.0016575517    65.317652    18456.842 
 7450000   -200917.53    1.8167714 0.0023747809    65.326077    18469.618 
 7455000   -200716.84    1.7792457 -0.00036347558    65.316018    18482.385 
 7460000   -200630.22    1.7592831 -0.0028526262    65.307408    18495.174 
 7465000   -200621.41    1.7630638 -0.0054486884    65.382802    18507.963 
 7470000   -200701.36    1.8289855 -0.0017932847    65.283389    18520.733 
 7475000   -200487.18    1.7778915 0.0044458463    65.134932    18533.578 
 7480000   -200495.99     1.781408 -0.0005980889    65.328426    18546.382 
 7485000    -200379.4    1.7898195 0.0020735667     65.26873    18559.154 
 7490000   -200550.08    1.8182979 -0.00099898347    65.239408    18571.987 
 7495000   -200539.79    1.8092566 -0.0021699419    65.344722    18584.818 
 7500000   -200686.25    1.8114272 -0.00030415957    65.259621    18597.569 
 7505000   -200486.21    1.8182839 0.0013869837    65.195305    18610.334 
 7510000   -200524.29    1.7746714 -0.0027322199    65.171514    18623.199 
 7515000   -200566.67    1.7962251 -0.0011088719    65.170862    18636.034 
 7520000   -200527.63    1.7720148 -0.0037525707    65.116704    18648.869 
 7525000   -200526.94    1.7872525 -0.0021360447    65.190674    18661.729 
 7530000   -200583.44    1.8178957 0.0048723668    65.041352    18674.557 
 7535000   -200675.83    1.8127939 -0.0016658498    65.120258    18687.366 
 7540000   -200638.75    1.8351023 -0.0023750281    65.133727     18700.18 
 7545000   -200531.88    1.8232686 -3.6512289e-05    65.203033    18712.983 
 7550000   -200468.08    1.7742709 -0.0084771575    65.318079    18725.806 
 7555000   -200762.13    1.8098952 0.0007192658     65.20367    18738.628 
 7560000   -200651.01    1.8154728 0.0022878519    65.252391    18751.439 
 7565000   -200529.49    1.7891916 -0.0056571419    65.389394    18764.246 
 7570000   -200374.29    1.7725081 -0.0034149751    65.326922    18777.016 
 7575000   -200266.22    1.8232757 -0.0016737195     65.33477    18789.797 
 7580000   -200449.74    1.8021781 -0.00080160511    65.227474    18802.623 
 7585000   -200435.21    1.8374681 -0.0027798297    65.358351    18815.437 
 7590000   -200579.76    1.7314381 -0.0016323421    65.227502    18828.253 
 7595000   -200460.29    1.8005446 -0.00087537415    65.284161    18841.094 
 7600000   -200459.52    1.7919374 0.00059285004    65.292448    18853.905 
 7605000   -200633.24    1.8052981 -0.004618033    65.320536    18866.692 
 7610000   -200642.33    1.7966205 -0.0013402842    65.102204    18879.503 
 7615000   -200423.92    1.7858116 0.0027465366    65.171348    18892.352 
 7620000   -200570.78    1.7881542 -0.00084921777     65.28669    18905.173 
 7625000   -200619.45     1.794506 0.0044535281    65.157662    18917.981 
 7630000   -200621.06    1.8537492 0.0032378221    65.278381    18930.785 
 7635000   -200668.93    1.8289418 0.00042109961    65.260132    18943.565 
 7640000    -200449.4    1.7435059 -0.00012231357    65.237032    18956.386 
 7645000   -200570.78    1.7835167 -0.0037775135    65.283232    18969.176 
 7650000   -200656.38    1.7517961 -0.0017190173    65.256244    18981.971 
 7655000   -200466.38    1.7973116 -0.0068885297    65.316352    18994.785 
 7660000   -200557.75    1.8015984 0.0036048846    65.042616    19007.621 
 7665000   -200479.22    1.8372869 -0.0022411905    65.158497    19020.481 
 7670000   -200647.21    1.7925947 0.0014634934    65.097468    19033.283 
 7675000   -200608.61    1.7997598 -0.0015242062     65.17593    19046.099 
 7680000   -200795.73    1.7969229 0.0010026579    65.131635     19058.91 
 7685000   -200745.27    1.8578803 0.0023547992    65.175532    19071.749 
 7690000   -200724.53    1.7871246 -0.0025628564     65.29345    19084.572 
 7695000   -200667.81    1.8264728 0.0011480935    65.181182    19097.344 
 7700000   -200558.88    1.7588218 0.0027122793    65.205675    19110.105 
 7705000    -200560.7    1.8224494 0.0017520768    65.229513    19122.872 
 7710000   -200647.51    1.7974967 -0.001723098    65.285727    19135.662 
 7715000   -200580.53    1.8662901 -0.0042821891    65.316829    19148.477 
 7720000   -200595.36    1.8096197 0.0015528145    65.181623    19161.274 
 7725000   -200455.83    1.8128035 -0.00020097239    65.325673    19174.012 
 7730000   -200293.86    1.8202471 0.00078698106     65.38729    19186.778 
 7735000   -200367.74    1.7617318 0.00081275027    65.351989    19199.549 
 7740000   -200584.51    1.7702172 0.0022580185    65.354122     19212.33 
 7745000    -200576.1    1.8180136 0.0011098261     65.32739    19225.085 
 7750000    -200555.4    1.8296188 -0.0019997944    65.376262    19237.856 
 7755000   -200458.23    1.8207348 0.0029660816    65.311273     19250.65 
 7760000   -200505.11    1.7982699 -0.0020974154     65.32614    19263.446 
 7765000   -200566.36    1.8153514 -0.00027214471    65.303061    19276.255 
 7770000   -200545.41    1.7952907 0.0010835672    65.306212    19289.029 
 7775000   -200638.61    1.7640457 0.00060154229    65.182406    19301.792 
 7780000   -200682.32     1.781549 0.0045814785    65.131383    19314.612 
 7785000   -200858.08    1.7614363 0.0002693104    65.192046    19327.421 
 7790000   -200610.75    1.8095392 -0.0016338538     65.35304    19340.215 
 7795000   -200490.83    1.7576007 -0.00027180948    65.312137    19352.998 
 7800000   -200537.22    1.7838045 0.0012640017    65.321065    19365.804 
 7805000   -200377.37    1.8400459 -0.0016731356    65.378732     19378.59 
 7810000    -200480.7    1.7924111 0.00077756907    65.310144    19391.396 
 7815000    -200467.2     1.787383 0.00067539987    65.312538    19404.211 
 7820000   -200386.75     1.777908 -0.0092289256    65.566728    19417.002 
 7825000   -200494.34    1.8248992 0.00052943103    65.420612    19429.803 
 7830000   -200397.89    1.8001115 -0.0061174397     65.44457     19442.62 
 7835000   -200570.73    1.7959808 0.00081930871    65.259066    19455.429 
 7840000   -200522.33    1.8147386 -0.0034258228    65.279898    19468.238 
 7845000   -200706.36    1.7495249 -0.0029829539    65.232145    19481.055 
 7850000   -200815.57    1.7976608 -0.0023219181    65.289002    19493.878 
 7855000   -200476.53    1.8085498 -0.0008520253    65.421428    19506.684 
 7860000   -200658.39    1.7697585 0.0017195761    65.253972    19519.464 
 7865000   -200663.91    1.7462701 0.0013280183    65.269684    19532.274 
 7870000   -200497.89    1.8190307 0.0017520328    65.270164    19545.082 
 7875000   -200581.08    1.7908405 -0.0057314065    65.349223    19557.864 
 7880000   -200619.65    1.7539791 0.0014310067    65.285922    19570.662 
 7885000   -200701.34    1.8174875 0.00068017597    65.250408    19583.472 
 7890000   -200748.46    1.7884061 -0.0040965871    65.367868    19596.289 
 7895000   -200731.93     1.797267 -0.00022301688    65.248279    19609.074 
 7900000   -200740.43    1.8368677  0.002915702    65.147435    19621.896 
 7905000   -200873.56    1.7889994 -0.0012983554    65.169092    19634.704 
 7910000   -200735.87    1.7323759 -0.0011131079    65.250209    19647.535 
 7915000   -200480.33     1.789511 0.0025197202    65.290825    19660.346 
 7920000    -200703.4    1.7940142 -0.0042493045    65.373327    19673.139 
 7925000   -200590.43    1.7861731 -0.0070715236    65.420802    19686.018 
 7930000   -200569.83    1.8295092 -0.0031907609    65.355825    19698.826 
 7935000   -200575.58    1.7725856 -0.0023347054    65.266699    19711.616 
 7940000   -200562.16    1.7563487 0.0029540182    65.237281    19724.392 
 7945000   -200462.81    1.7880736 0.0025599276    65.308202    19737.163 
 7950000   -200688.44    1.7981106 -0.00054840092    65.327103    19749.978 
 7955000   -200545.77    1.7607039 0.0039091422    65.204274     19762.79 
 7960000   -200553.42     1.810613 -0.00013332623    65.258754     19775.59 
 7965000   -200467.67    1.7851561 0.00042539998    65.255495    19788.361 
 7970000   -200530.49      1.75296 0.00098917023    65.284322     19801.13 
 7975000   -200609.78    1.8384581 0.0010892561    65.291943    19813.923 
 7980000   -200607.75    1.8000654 0.0038774623    65.188028    19826.749 
 7985000   -200607.63    1.8168049 -0.0013878927    65.300384    19839.547 
 7990000   -200554.53    1.7828008 0.0034771219    65.234939    19852.379 
 7995000   -200568.01    1.7994957  0.005404208     65.20379    19865.203 
 8000000   -200509.28    1.7825243 -0.0011582588    65.302912    19877.995 
 8005000   -200505.45    1.8224131 -0.0024442856    65.241144    19890.806 
 8010000   -200359.11    1.7196007 0.0017724525    65.119527    19903.625 
 8015000   -200588.05    1.7933254 -0.00044876295    65.207458    19916.401 
 8020000   -200679.64    1.8059548 -0.00084095681    65.174759     19929.21 
 8025000   -200496.45    1.8144673 -0.0025098803    65.241061    19942.026 
 8030000   -200686.58    1.8366462 -0.0013267584    65.154879    19954.802 
 8035000   -200431.12    1.8200188 -0.001102162     65.14542    19967.609 
 8040000   -200506.37    1.8053794 -0.0016063648     65.17234    19980.454 
 8045000   -200507.62    1.7885389 -0.0019155006    65.123564     19993.28 
 8050000   -200282.18    1.8301179 -0.00080629731     65.21417    20006.088 
 8055000   -200384.55    1.7767493 -0.0047681762    65.280947    20018.889 
 8060000   -200304.71    1.7733208 0.0023594393    65.216027    20031.666 
 8065000   -200484.51    1.8159473 0.00061427131    65.084296    20044.497 
 8070000   -200455.35    1.8655986  0.001661435    65.084493    20057.302 
 8075000   -200543.79    1.7803246 0.00014619303    65.080278    20070.171 
 8080000   -200721.18    1.8419375 0.0012135246    65.106027    20083.018 
 8085000   -200541.84    1.7779608 -0.00040803032    65.202208    20095.867 
 8090000   -200221.74    1.8061351 -0.00051928125    65.222683     20108.67 
 8095000   -200487.45     1.815888 0.0074042577     65.03883    20121.467 
 8100000   -200493.82    1.8158552 -0.002469795     65.20513    20134.299 
 8105000   -200558.94    1.8004971 0.0031278703    65.167295    20147.122 
 8110000   -200457.74    1.7903822 0.00091850271     65.16654    20159.954 
 8115000   -200449.29    1.8039443 -0.00016302216    65.259435    20172.736 
 8120000   -200438.12    1.7246249 0.0025217573    65.232046    20185.538 
 8125000   -200405.86    1.8418909 0.0026720176    65.201118    20198.342 
 8130000   -200416.89    1.8180151 0.0014251202    65.145957    20211.167 
 8135000   -200362.84    1.7619188 -0.0016966374    65.241448    20223.998 
 8140000   -200611.78    1.7371382 0.0028972538    65.121565    20236.799 
 8145000   -200518.51    1.7905059 0.0021359338     65.21514    20249.621 
 8150000   -200649.11    1.8136488 -0.0032348175    65.266723    20262.398 
 8155000   -200660.18    1.7612283 0.0041112061    65.145303    20275.197 
 8160000   -200848.69    1.7941053 -0.00048224422    65.132351    20288.026 
 8165000   -200571.08    1.7769441 -0.0010184194    65.246716    20300.813 
 8170000   -200536.63    1.8152663 0.0019018423    65.168378     20313.59 
 8175000   -200739.18    1.7633035 -0.00029209021    65.207984    20326.447 
 8180000   -200641.15    1.8000291 -0.00055294274    65.173052    20339.266 
 8185000   -200618.24    1.7874495 -8.9249168e-05     65.15406    20352.107 
 8190000   -200481.33    1.7986581 -0.003844106    65.236055     20364.91 
 8195000   -200614.83    1.7939394 -0.0012042984     65.16229    20377.739 
 8200000   -200513.52    1.8146939 0.0028772217    65.210594    20390.547 
 8205000   -200549.15    1.8398442 -0.0016106625    65.297349    20403.369 
 8210000   -200654.57    1.8390508 -0.001498456    65.241173    20416.216 
 8215000   -200802.97    1.8362717 -0.00089798789    65.194843    20429.012 
 8220000   -200699.59    1.7732915 -0.0028461767    65.160412    20441.818 
 8225000   -200671.36    1.8616659 0.0029237234    65.129942    20454.641 
 8230000    -200726.9    1.7323808 -0.0053474097    65.241237    20467.453 
 8235000   -200575.32    1.7641091 0.0012458659    65.117374    20480.295 
 8240000   -200776.34    1.8159171 0.0036030257    65.062313    20493.114 
 8245000   -200642.47    1.7731329 0.0029845594    65.006155     20505.92 
 8250000   -200767.87    1.7582118 0.00061998938    65.001131    20518.765 
 8255000   -200750.16    1.8086821 0.0022898728    65.081163    20531.532 
 8260000    -200675.3    1.8058321 -0.0047283095    65.196386    20544.379 
 8265000   -200468.98    1.7523287 0.0022904594    65.124274    20557.215 
 8270000      -200505    1.8145657 -0.00019659247    65.168065    20570.001 
 8275000   -200580.66    1.8565507 0.0026568967    65.150151    20582.804 
 8280000    -200530.1    1.7760266 -0.00061238748    65.329084    20595.631 
 8285000   -200518.16    1.8192495 0.00056569592    65.326917    20608.416 
 8290000   -200508.93    1.8064904 0.00049996296    65.409445     20621.18 
 8295000   -200650.68    1.8143966 0.0043418331    65.325796    20633.947 
 8300000   -200636.61    1.8173119 0.0031251218    65.340411    20646.704 
 8305000   -200574.68    1.8084873 -0.0023793157    65.336985    20659.474 
 8310000   -200576.72    1.7531017 -0.0032679003    65.326532    20672.312 
 8315000   -200647.69    1.8060217 0.0012622056    65.316046    20685.079 
 8320000   -200539.23    1.8234288 0.0033140174    65.300556    20697.824 
 8325000   -200655.91    1.7877785  0.001440223     65.41036    20710.587 
 8330000   -200560.34    1.7765447 -0.0041553335    65.460282    20723.395 
 8335000   -200610.86    1.8263358 -0.0038645661    65.505424    20736.173 
 8340000   -200614.69    1.7785939 0.0025645518     65.34897    20748.983 
 8345000    -200588.8    1.7810376 0.0024045776    65.316133    20761.761 
 8350000   -200560.14    1.8203391 -0.00078326292    65.493212    20774.532 
 8355000   -200666.86    1.7873378 -0.0045882499    65.480971    20787.284 
 8360000   -200581.37    1.7556056 -0.00095049268    65.419658    20800.087 
 8365000   -200696.56    1.7344937 0.00061150324    65.308327    20812.877 
 8370000    -200705.1    1.8094223 -0.00067169371     65.36352    20825.652 
 8375000   -200715.12    1.7938557 0.0022442631    65.282623    20838.445 
 8380000   -200616.35     1.783911 0.0020069888    65.312023    20851.238 
 8385000   -200569.64    1.8092814 -0.0051446422    65.439379    20864.036 
 8390000   -200554.62    1.8158772 -0.00074131219    65.288845    20876.846 
 8395000   -200403.07    1.7793237 -0.0039228481    65.341954    20889.619 
 8400000   -200540.79    1.7803737 -1.0385319e-05    65.237463    20902.433 
 8405000   -200508.65    1.7697949 -0.0023521785    65.255571    20915.205 
 8410000   -200465.17    1.8115796 0.0054160758    65.100702    20928.015 
 8415000   -200707.14    1.8041619 -0.0011015722    65.170142    20940.837 
 8420000   -200606.04    1.8018332 0.0026098234    65.246765    20953.627 
 8425000   -200506.38    1.8410842 0.0019776082    65.241354    20966.404 
 8430000   -200495.89    1.8212698 -0.0057484368    65.291243    20979.216 
 8435000   -200562.38    1.8729063 3.0491589e-05    65.247432    20992.025 
 8440000   -200435.44    1.7941077 -0.0015340792    65.222889    21004.802 
 8445000    -200652.1    1.8261621 0.00027132467    65.179235    21017.596 
 8450000   -200573.97    1.7778171 -0.00051662682    65.267456    21030.402 
 8455000   -200491.03    1.8158717 -0.0022369163    65.208251    21043.208 
 8460000   -200519.88    1.7776815 0.00073790189    65.238471    21056.008 
 8465000    -200530.1    1.8583822 -0.0018656813    65.339828    21068.768 
 8470000   -200674.11    1.7766138 -0.00038297246    65.240541    21081.546 
 8475000    -200691.9    1.7997029 0.0019265354    65.303958    21094.345 
 8480000   -200447.98    1.8374303 0.00025010586      65.3716    21107.114 
 8485000   -200414.75    1.7679846 -0.0029212241     65.37949    21119.924 
 8490000    -200480.8    1.8214295 0.0036186682    65.318213    21132.727 
 8495000   -200507.57    1.8099221 -0.0025688829    65.425443    21145.511 
 8500000   -200503.71    1.8224087  0.005276105    65.336143      21158.3 
 8505000   -200538.08     1.784741 0.0018928829     65.28085    21171.103 
 8510000   -200558.57    1.8426645 0.0041074968    65.343235    21183.851 
 8515000   -200412.09    1.8123839 -0.0022789012    65.481578    21196.607 
 8520000   -200776.62    1.8222532  0.002028621    65.357942    21209.388 
 8525000   -200435.77    1.8004651 -0.001414699    65.437903    21222.161 
 8530000   -200575.51    1.7437325 0.0016259375    65.310378    21234.959 
 8535000    -200507.4    1.8268312 -0.0040082849    65.464213    21247.733 
 8540000   -200795.65    1.8018881 2.7667152e-05    65.277928      21260.5 
 8545000   -200601.78     1.804045 0.0012467363    65.201361    21273.261 
 8550000   -200756.59    1.7884979 0.0021746899    65.135035    21286.088 
 8555000   -200613.59    1.8083862 -0.0037688312    65.312891     21298.87 
 8560000   -200563.64    1.8578363 0.0011591856    65.237665    21311.657 
 8565000   -200437.36    1.8140151 -0.0026464453    65.315134     21324.47 
 8570000   -200591.02    1.8216499 0.0013852957    65.285856    21337.293 
 8575000   -200570.63    1.8386691 -0.0002475756    65.238576    21350.098 
 8580000   -200701.72    1.8135103 0.0010211843    65.192033    21362.883 
 8585000   -200560.34    1.8889239 0.0073297703    65.099588    21375.676 
 8590000   -200554.54    1.8002864 -0.0045138485    65.204835     21388.48 
 8595000    -200613.4    1.8085398 -0.0024213358    65.213699    21401.298 
 8600000   -200496.03    1.8018834 -0.0019734837    65.260162    21414.069 
 8605000    -200672.2    1.8234578 -0.0039323005    65.175646     21426.89 
 8610000   -200657.67    1.7894932  -0.00336062     65.25355    21439.679 
 8615000   -200508.63    1.8279541 0.0045911756    65.150111    21452.482 
 8620000   -200653.03    1.8074082 0.0030562668    65.055382    21465.312 
 8625000   -200547.36    1.8351284 -9.8743545e-05    65.178406    21478.118 
 8630000   -200667.59     1.774603 0.0062025343    65.104729    21490.892 
 8635000   -200613.19    1.7867919 0.0036703411    65.126693    21503.688 
 8640000   -200536.79    1.7789317 -0.0036060299    65.301937    21516.474 
 8645000   -200394.74    1.8224271 0.00080231851    65.325931    21529.228 
 8650000   -200547.31    1.8442308  0.004059118     65.24916    21542.018 
 8655000   -200670.55    1.7936047 -0.0028964907    65.306867    21554.795 
 8660000   -200497.92    1.7801149 -0.0047935513    65.327097    21567.648 
 8665000    -200380.9    1.7607834 -0.0014719676    65.241981    21580.469 
 8670000   -200560.37    1.8076582 -0.0015268839    65.326404    21593.275 
 8675000   -200535.36    1.7880731 0.0016057333    65.119296    21606.037 
 8680000   -200601.32    1.7780807 -0.0033421266    65.272433    21618.841 
 8685000   -200581.49    1.8136352 0.0002333139    65.179388    21631.598 
 8690000    -200453.5     1.769111 -0.0033957742    65.351076    21644.413 
 8695000   -200572.36     1.789693 -0.0026881324    65.168708    21657.226 
 8700000   -200573.78    1.8112106 -0.0010564627    65.254062    21670.056 
 8705000   -200532.64    1.8170778 0.0013086029    65.253178    21682.865 
 8710000   -200654.43     1.794469 -0.0025241171    65.289904    21695.646 
 8715000   -200524.55    1.8143389 6.6120573e-05    65.328549    21708.459 
 8720000   -200548.85    1.8093524 -0.003227385    65.419641    21721.232 
 8725000   -200687.81    1.7989928 -0.0026434082    65.402512     21733.97 
 8730000   -200655.66    1.8180612 0.0013995724    65.398288    21746.748 
 8735000   -200746.88     1.755397 -0.0014160319    65.365558    21759.567 
 8740000   -200553.17    1.8036795 -0.0060771636    65.444794    21772.365 
 8745000   -200815.38    1.7803494 -0.0029246292     65.36252    21785.157 
 8750000   -200597.37    1.7973014 -0.0025287389    65.389495    21797.982 
 8755000   -200727.77    1.7754066 -0.0015676457    65.456467    21810.745 
 8760000   -200763.21    1.7889784 0.0020282296    65.373882    21823.529 
 8765000   -200733.78    1.8210528 -0.0048918807     65.55398    21836.285 
 8770000    -200572.8    1.8298668 0.0017579569    65.391598    21849.072 
 8775000   -200568.59    1.7822684 -0.0017448728     65.42452    21861.845 
 8780000   -200623.78    1.7718326 -0.0027691817    65.348846    21874.593 
 8785000   -200739.94    1.8169815 0.00044877346    65.294735    21887.415 
 8790000   -200484.49     1.725715 -0.0031839766    65.498905    21900.161 
 8795000   -200696.66    1.7901253 -0.00013737874    65.388634    21912.917 
 8800000   -200514.54    1.8034599 0.0029733636    65.355312    21925.736 
 8805000   -200659.04    1.7887087 0.0018139301    65.277823    21938.534 
 8810000   -200591.22    1.8106503  0.005297634     65.27175    21951.331 
 8815000   -200664.43    1.8328703 0.00083019483     65.28442    21964.106 
 8820000   -200474.64    1.7622333 0.0022648488    65.325506    21976.896 
 8825000   -200491.74    1.7513463 -0.0055870006    65.359905    21989.704 
 8830000    -200475.3    1.8027235 -0.0037225081    65.424211    22002.535 
 8835000   -200514.13    1.7956574 0.0018062559    65.191561     22015.34 
 8840000   -200623.75    1.8227043 -0.0016260752    65.135488    22028.182 
 8845000   -200517.87      1.78377 -0.0029689166     65.28465    22040.999 
 8850000   -200686.71    1.7632504 -0.0019660123    65.225732    22053.793 
 8855000   -200591.39    1.7862105 0.00035924261    65.211704    22066.607 
 8860000   -200645.89    1.8021957 0.0026961961    65.192064    22079.374 
 8865000   -200652.53    1.8164687 -0.0026384858    65.262895     22092.17 
 8870000   -200596.38    1.7514616 -0.0035565193    65.314803    22105.003 
 8875000   -200644.32    1.8027111 -0.0032818181    65.243176    22117.799 
 8880000   -200592.32    1.7616645 -0.00092410658    65.165407    22130.655 
 8885000   -200653.25    1.8213541 -0.0050932957    65.339919    22143.494 
 8890000   -200501.91    1.8066049 0.0046038608    65.114402    22156.271 
 8895000   -200494.29    1.8488882 0.0067639238    65.197204    22169.081 
 8900000   -200693.03    1.8705734 -0.0016275439    65.312618    22181.876 
 8905000   -200719.36    1.8710533 0.0054410829    65.224206    22194.658 
 8910000   -200576.09    1.8171012 0.00070818814     65.20371     22207.42 
 8915000   -200639.78     1.816079 0.00061506383    65.278966    22220.184 
 8920000   -200632.62    1.7796609 -0.0010625329    65.307852    22232.942 
 8925000   -200476.76    1.7663991 0.00013630342    65.300314    22245.708 
 8930000   -200466.68    1.8288918 0.0020079183    65.227531    22258.511 
 8935000    -200613.7    1.8099208 -0.0026794547    65.307585    22271.322 
 8940000   -200613.65    1.7783151 -0.00044096892    65.256207    22284.135 
 8945000   -200604.51    1.7352174 0.0022108394    65.285514    22296.953 
 8950000   -200578.49    1.7703157 -0.0038301245    65.317131      22309.7 
 8955000    -200455.9    1.7687867 -0.00028148482    65.355879    22322.463 
 8960000   -200748.42     1.727272 0.0011869305    65.246753    22335.207 
 8965000   -200803.98    1.8279384 -0.0027788914    65.228655    22348.003 
 8970000    -200598.5    1.7868272 0.0027117392    65.145325    22360.811 
 8975000    -200390.5    1.8202168 0.0016868038    65.198504     22373.58 
 8980000   -200406.06     1.817164 -0.0019957949    65.373306    22386.403 
 8985000   -200748.76    1.8500593  -0.00215447    65.282199    22399.205 
 8990000   -200699.46    1.8189331 -0.00036304223    65.262703    22412.019 
 8995000   -200524.73    1.7911839 0.00061328377    65.261935    22424.788 
 9000000   -200700.23    1.7859293 -0.0041401702    65.292671    22437.568 
 9005000   -200628.09    1.8182933 0.00076339344    65.261287    22450.365 
 9010000   -200586.86    1.8517144   0.00192749    65.213396    22463.153 
 9015000   -200703.09    1.7746759 0.00088183863    65.224007    22475.941 
 9020000   -200276.64    1.7738792  0.002434428    65.376226     22488.77 
 9025000   -200472.31    1.7781395  0.004226637    65.259728    22501.578 
 9030000    -200725.6     1.843093 0.00056302252    65.360899    22514.393 
 9035000   -200552.54    1.7866024 -0.0039199575    65.483355    22527.205 
 9040000   -200557.76     1.799527 -0.00078888658    65.339528    22540.004 
 9045000   -200541.73     1.732366 0.0020781684    65.406582    22552.778 
 9050000    -200645.9    1.7876683 0.0011139245    65.377967    22565.593 
 9055000   -200581.73    1.7751913 -0.00020078979    65.376337    22578.403 
 9060000   -200550.74    1.8396039 0.0014543319     65.32841    22591.195 
 9065000   -200489.81    1.7800002 0.0013193753    65.308869    22603.982 
 9070000   -200526.01    1.7917936  0.001161185    65.351828    22616.804 
 9075000   -200693.82    1.8174141  0.001997377    65.350711    22629.538 
 9080000   -200761.61    1.7918058 0.0050695087      65.3103    22642.345 
 9085000   -200713.52    1.8118392 -0.0032312121    65.438282    22655.093 
 9090000   -200429.65    1.7895431 8.6924588e-05    65.477764    22667.898 
 9095000   -200669.35    1.8215173 0.00073249212     65.39164    22680.654 
 9100000   -200514.95    1.8156389 0.0025590475     65.31117     22693.43 
 9105000    -200534.6    1.7445918 -0.00082451012    65.280671      22706.2 
 9110000   -200786.78    1.7347854 -0.004905261    65.284032    22718.984 
 9115000   -200650.22     1.780253 -0.0031541154    65.247656    22731.808 
 9120000   -200833.81    1.7770898 0.00028504072    65.307309    22744.566 
 9125000   -200474.74    1.8264658 0.00019744826    65.426866    22757.361 
 9130000   -200679.83    1.8052236 0.00084811302    65.314086    22770.163 
 9135000   -200651.88    1.8499451 0.00045064761    65.249001    22782.937 
 9140000   -200796.99    1.7828732 0.0040443966    65.181334     22795.75 
 9145000   -200511.28    1.8017841 -0.0026509423    65.352508    22808.563 
 9150000   -200636.41    1.8347414 -0.00056308528    65.205476    22821.385 
 9155000   -200598.39    1.8473615 -0.0028753719    65.312369    22834.179 
 9160000   -200509.15    1.8051372 0.00071200106    65.332835    22847.019 
 9165000   -200690.62    1.8079337 0.0037409307    65.219266    22859.789 
 9170000    -200713.1    1.7849117 -0.0014225774    65.188653    22872.559 
 9175000    -200562.1     1.790854 -0.008346912     65.34494    22885.361 
 9180000   -200561.04    1.7464141 -0.0061934562    65.332484    22898.171 
 9185000    -200504.9    1.7907137 0.0014013333    65.205274     22910.98 
 9190000   -200682.71    1.7725527 0.0053421018    65.171962     22923.81 
 9195000   -200638.56    1.7690277 -0.002888637     65.31868    22936.618 
 9200000    -200545.3    1.8186261 -0.0010278393    65.285853    22949.416 
 9205000   -200523.35    1.7875959 -0.0089776541     65.43439    22962.209 
 9210000   -200780.53    1.7431304 0.0041351888    65.167203    22975.018 
 9215000   -200598.22     1.762809 -0.002190382    65.346749    22987.797 
 9220000   -200503.65    1.7676989 0.00058736792    65.262024    23000.619 
 9225000   -200474.51    1.7949332  0.001012948    65.233909    23013.425 
 9230000   -200413.63    1.7967889 -0.0048883806    65.468502    23026.205 
 9235000   -200570.08    1.8172465 -0.0042771076     65.44964    23038.992 
 9240000   -200565.37    1.8413892 -0.00031448167      65.2266    23051.757 
 9245000   -200778.26    1.8023697 -0.0026343327    65.165245    23064.558 
 9250000   -200674.19    1.7742725 0.0045320723    65.086029    23077.392 
 9255000   -200694.85    1.7848472 -0.00076716994     65.17987    23090.197 
 9260000   -200645.55     1.841903 -0.00047932962    65.230154    23103.034 
 9265000    -200544.6    1.8057582 0.0003929135     65.30141    23115.846 
 9270000   -200709.49    1.7565282  0.003855809    65.289597    23128.631 
 9275000   -200538.89     1.821362 -0.00016468669     65.34879    23141.426 
 9280000   -200608.01    1.7979897 0.0036308985    65.240089    23154.201 
 9285000   -200743.91    1.7849379  0.005288187    65.236248    23166.966 
 9290000   -200438.53    1.7423426 -0.0031599517    65.400362    23179.769 
 9295000   -200662.06    1.7461862 -0.0033518168    65.298319    23192.541 
 9300000   -200669.19     1.822157 -0.002078072    65.264399    23205.317 
 9305000   -200673.68     1.817397 -0.0055402594    65.222768    23218.147 
 9310000   -200686.37    1.7450644 -0.0011489595    65.128461    23230.991 
 9315000   -200671.48    1.8054188 -0.00040032089    65.142379      23243.8 
 9320000   -200542.27    1.8003086 -0.0030397246    65.274141    23256.631 
 9325000   -200574.01    1.7639651 -0.0027526053    65.274732    23269.415 
 9330000   -200476.08    1.8187706 0.0011099572    65.164609    23282.217 
 9335000   -200721.67    1.7614228 0.0058841516    65.011643     23295.01 
 9340000   -200710.98    1.8145074 0.0021601574    65.009768    23307.839 
 9345000   -200519.38    1.8115867 0.0011073422    65.021971    23320.656 
 9350000   -200546.07    1.7991975 0.0025071562    65.023911    23333.441 
 9355000   -200581.96    1.8163101 -0.0038909229    65.180151    23346.269 
 9360000   -200665.98    1.7911621 -0.0076444732    65.242091    23359.089 
 9365000   -200620.68    1.8120526 -0.0038283647    65.160875    23371.916 
 9370000   -200444.95    1.7930709 -0.0043126015    65.310434    23384.744 
 9375000   -200714.25    1.7914704 -0.002325562    65.192173    23397.519 
 9380000   -200649.95    1.8101248 -0.0068631707     65.34024      23410.3 
 9385000   -200651.95    1.8463843  0.001089193    65.214503    23423.112 
 9390000   -200484.09    1.8120331 -0.0020271495    65.325821    23435.908 
 9395000   -200514.08     1.901445 -0.0041527977    65.301824    23448.705 
 9400000   -200605.07     1.814869 0.0028101339    65.123824     23461.55 
 9405000   -200649.53    1.7727148 -0.0035543127    65.156022    23474.387 
 9410000   -200789.29    1.7627109 0.0016836434    65.202806    23487.159 
 9415000   -200500.75    1.7813761 0.0056719065    65.200603    23499.988 
 9420000   -200647.98    1.7383876 0.00013951165    65.229413    23512.754 
 9425000   -200533.71    1.7775831 -0.0021493981    65.342817    23525.579 
 9430000   -200642.12    1.7976493 0.0022503616    65.182688    23538.394 
 9435000   -200537.22     1.789933 0.0019187709    65.335726      23551.2 
 9440000   -200528.46    1.7949222 0.00036716288    65.332014        23564 
 9445000   -200540.47    1.7809078 -0.0032444295    65.411149    23576.812 
 9450000   -200619.74    1.8090421 -0.0034004004    65.335796     23589.61 
 9455000   -200783.31    1.7742092 -0.0013027702    65.330131    23602.376 
 9460000   -200472.55    1.8539895 0.00099430551    65.322483    23615.192 
 9465000   -200575.46    1.7963984 -0.0026057654    65.401911    23627.997 
 9470000   -200576.17    1.8060195 -0.0046864851    65.474953     23640.79 
 9475000   -200519.16    1.7544104 0.0024983355    65.415545    23653.635 
 9480000   -200635.37    1.7920318 -5.8351147e-06    65.319679    23666.416 
 9485000   -200556.43    1.8511829 -0.001216445    65.316353     23679.23 
 9490000    -200435.7    1.7637901 -0.0047945812    65.491882    23692.045 
 9495000   -200483.24    1.8461576 -0.0041336491    65.343597    23704.841 
 9500000   -200480.38    1.7870411 0.0026304025    65.306189    23717.682 
 9505000   -200680.94    1.8056475 -0.0035272169    65.396771    23730.484 
 9510000   -200652.52    1.7723839 -0.0008334202    65.348378    23743.246 
 9515000    -200708.8    1.7623699 -0.0017209836    65.344634     23756.02 
 9520000   -200492.29    1.8156729 -0.0034132026     65.42388    23768.809 
 9525000   -200720.11    1.8192551 -0.0051951417    65.340489    23781.613 
 9530000   -200690.71    1.7833934 -0.0016214105    65.387537    23794.425 
 9535000   -200648.04    1.8227611 0.0003482742    65.390413    23807.218 
 9540000   -200740.32    1.7963702 0.0005454125    65.311635    23819.995 
 9545000   -200432.87    1.8193342 -0.003341916    65.503629    23832.795 
 9550000   -200617.42    1.8350821 0.0094594877    65.222585    23845.587 
 9555000    -200642.1    1.8115226 -0.0061078353    65.461082    23858.379 
 9560000    -200707.8      1.75692 0.0009186509    65.236827    23871.197 
 9565000   -200766.59    1.8044694 0.0032353525    65.198918    23884.026 
 9570000   -200456.29    1.8143118 0.00015006074    65.422061    23896.848 
 9575000   -200531.97    1.7885233 0.00021560366    65.393501     23909.67 
 9580000   -200635.54     1.783978 0.0005227536    65.357294    23922.452 
 9585000   -200629.28    1.8599116 0.00078747411    65.389536    23935.226 
 9590000   -200711.44    1.8001821 0.00020362238    65.295245    23947.963 
 9595000   -200621.74    1.7888721 -0.00063574142    65.293946    23960.762 
 9600000   -200490.82     1.793013 -0.00063651613    65.290489    23973.556 
 9605000   -200452.55    1.7990988 -0.0022150941    65.261066    23986.377 
 9610000   -200624.13    1.6890327 0.00037876548    65.141351    23999.214 
 9615000   -200516.53    1.8424105 0.0014123057    65.173888    24012.016 
 9620000    -200546.1    1.7950597 -0.0032019129    65.222803    24024.826 
 9625000   -200467.53    1.8265719 -0.00085033689    65.251207    24037.603 
 9630000   -200438.67    1.7933705 -0.00088650244    65.331978    24050.378 
 9635000   -200644.79    1.7869697 -0.0020539592    65.377331    24063.128 
 9640000   -200568.85    1.7906769 0.00045573702    65.304702    24075.937 
 9645000   -200621.53     1.796687 -0.00050800834    65.234182    24088.755 
 9650000   -200473.99    1.7781591 -0.00069674462    65.354832    24101.588 
 9655000   -200521.73    1.8953875 0.0012040242     65.24127     24114.36 
 9660000   -200424.82    1.8470925 -0.0029891312    65.334497    24127.185 
 9665000   -200600.45    1.7554499 -5.178212e-05    65.243027     24139.97 
 9670000   -200511.74    1.8363912  -0.00130464    65.357215    24152.718 
 9675000   -200492.22    1.8329445 8.381102e-05    65.376752    24165.537 
 9680000   -200388.42    1.7920746 -0.0037583168     65.40831    24178.281 
 9685000   -200660.35     1.781009   0.00175381    65.331659    24191.061 
 9690000   -200739.87    1.7731747 0.00090940188    65.242143    24203.863 
 9695000   -200640.13    1.7700832  0.003312597    65.204784    24216.628 
 9700000   -200695.87    1.8048222 -0.0019028039    65.380475    24229.408 
 9705000   -200553.15    1.8222735 -0.00059711613    65.448596     24242.21 
 9710000   -200725.06    1.7990168 0.0050131185    65.228535    24254.989 
 9715000   -200751.07    1.7788812 0.0012290007    65.292823    24267.787 
 9720000   -200546.59    1.8391189 -0.0034906392    65.410395     24280.61 
 9725000   -200638.46    1.8298032 -0.00059366072    65.301729      24293.4 
 9730000   -200704.82    1.8032697 -0.0022673643    65.441413     24306.21 
 9735000   -200653.29    1.7907718 0.0051159008    65.291229    24318.974 
 9740000   -200733.79    1.8074347 5.1514621e-05    65.356415    24331.737 
 9745000   -200478.47     1.836822 -0.0021689878     65.37727    24344.508 
 9750000   -200734.94    1.8118814 -0.0016291315      65.2208     24357.27 
 9755000   -200713.63    1.8367357 -0.0031646163    65.373543    24370.079 
 9760000   -200616.27    1.8118769 0.0008738344    65.279018    24382.824 
 9765000   -200591.23    1.8065481 -0.0019808761    65.428937    24395.609 
 9770000   -200582.63    1.7945138 -0.002392226     65.35451    24408.411 
 9775000    -200538.4    1.8764214 -0.0012399516    65.327116    24421.215 
 9780000   -200658.19    1.8139135 0.0033495162    65.302276    24434.003 
 9785000   -200587.27    1.8269989 0.00055880417    65.353237    24446.754 
 9790000   -200826.61    1.8312705 0.0094211773    65.105263    24459.521 
 9795000   -200687.11    1.7900743 -0.0016554296    65.322701     24472.29 
 9800000   -200600.67    1.8053144 0.0001641643    65.368638    24485.037 
 9805000   -200644.79    1.7908605 0.0034739074    65.285638    24497.807 
 9810000   -200507.41    1.8061073 0.0064220741    65.237551    24510.577 
 9815000   -200632.38    1.7816047 -0.001634643    65.366054    24523.313 
 9820000   -200528.68    1.7916842  -0.00322346    65.437485     24536.08 
 9825000   -200504.33    1.8742286 -0.0021261002    65.473795    24548.822 
 9830000   -200680.05    1.8188446 0.0019519093    65.334869    24561.613 
 9835000   -200569.91    1.7506183 -0.00090588906    65.445044    24574.408 
 9840000   -200352.64    1.7669642 -0.002629482    65.544835    24587.202 
 9845000   -200751.81    1.7921793 0.0039229932     65.22656    24599.959 
 9850000   -200649.35    1.7124989 -0.00080352734    65.374319    24612.745 
 9855000   -200537.07    1.8140583 4.6747983e-05    65.307991    24625.535 
 9860000   -200497.34    1.7698698 0.00061574287    65.337859      24638.3 
 9865000   -200596.16    1.7991513 0.0065429871    65.192542    24651.077 
 9870000   -200720.95    1.7719856 -0.0058088089    65.472265    24663.871 
 9875000   -200516.93    1.7928527 -0.00086205935    65.363394    24676.656 
 9880000   -200622.35    1.8283567  0.003121632    65.254796    24689.426 
 9885000   -200426.01     1.782895 -0.002193419    65.311492    24702.234 
 9890000    -200358.4    1.7904112 -0.0032321797    65.300439    24715.016 
 9895000   -200596.73    1.7659739 -0.00016323997    65.232245    24727.821 
 9900000   -200350.58    1.7842796 3.7032946e-05    65.248234    24740.627 
 9905000   -200570.98    1.7938394 0.0014882499    65.245515    24753.401 
 9910000   -200588.39    1.8013132 -0.0030119761    65.334553    24766.227 
 9915000   -200566.77     1.766562 8.0002751e-05    65.255818    24778.989 
 9920000   -200642.69    1.7940792 0.0030005901    65.219593     24791.77 
 9925000   -200629.62      1.78074 0.00026291694     65.18344    24804.595 
 9930000   -200573.96    1.8413762 -0.0030407874     65.28667    24817.435 
 9935000   -200640.76    1.7946949 0.0013797926    65.136328    24830.243 
 9940000   -200594.47    1.8451624 -0.00013420667    65.198408    24843.061 
 9945000   -200622.83    1.7871279 0.0027220092    65.141766     24855.91 
 9950000   -200593.21    1.8328209 -0.00056352442    65.215576    24868.701 
 9955000   -200448.07    1.8334076 0.00092398037    65.268988    24881.533 
 9960000   -200627.05     1.753875 -0.0004237582    65.250419    24894.354 
 9965000   -200649.83    1.8448462 0.0024113905    65.315926    24907.181 
 9970000   -200528.26    1.8256855 -0.0052485788    65.364973    24919.963 
 9975000   -200532.59    1.8545264  0.002427992    65.233974    24932.743 
 9980000   -200525.27    1.7969104 -0.0043716264      65.3774    24945.538 
 9985000   -200657.22    1.7921517 -0.0020986116    65.278906    24958.328 
 9990000   -200645.77       1.8502 0.0010813849     65.14982    24971.148 
 9995000    -200685.3    1.8229153 0.0060166116    65.052497     24983.95 
10000000   -200664.03    1.8054874 0.0050244819    65.084594    24996.789 
10005000   -200464.59    1.8094818 0.0038648723    65.087084    25009.601 
10010000   -200541.24    1.8056448 0.0016754985    65.132552    25022.418 
10015000    -200542.4     1.788384 0.0032575812    65.106948    25035.216 
10020000   -200380.14    1.8168664 -0.0041220257     65.30827    25048.062 
10025000   -200625.17     1.782678 -0.0040058017    65.262555    25060.921 
10030000   -200526.92    1.8021601 -0.0012725006    65.208534    25073.742 
10035000   -200451.23    1.7750836 0.0012754976    65.236639    25086.538 
10040000   -200667.18    1.8013708 -0.0010913574    65.168699    25099.318 
10045000   -200679.56    1.8334699 0.0012006128    65.170753    25112.121 
10050000   -200564.53    1.8125472 0.0027803264    65.091965     25124.96 
10055000   -200722.07    1.8706712 0.0015237449    65.148301    25137.777 
10060000   -200805.03    1.7721207 -0.0021336877    65.140322    25150.594 
10065000   -200727.57    1.7837862 0.0060492559    65.041951    25163.407 
10070000   -200578.72    1.7901255 -0.0018213813    65.213053    25176.235 
10075000   -200640.29    1.7573943 -0.0035760246    65.303979    25189.052 
10080000   -200553.34     1.822163 -0.0028065469    65.344843    25201.848 
10085000   -200647.19    1.8011236 -0.0047604063    65.370343    25214.661 
10090000   -200540.17    1.7947037 0.0012273775    65.265101    25227.423 
10095000   -200622.36    1.8166348 0.00026338441    65.214758    25240.224 
10100000   -200874.83    1.8196279 0.0035763058    65.147222    25253.041 
10105000   -200751.91    1.7538425 -0.0049662631    65.227938    25265.842 
10110000    -200707.4    1.8067271 0.0030092108    65.115914    25278.624 
10115000   -200937.91    1.7962567 -0.005163017    65.230761    25291.429 
10120000   -200562.03    1.8369274 -0.00060153792    65.265535    25304.272 
10125000   -200582.14    1.7931262 -0.0016368685    65.286111    25317.121 
10130000   -200524.05    1.8017998 -0.00015775457    65.207196    25329.931 
10135000   -200597.37    1.7854026 -0.00024177608    65.123021    25342.749 
10140000   -200512.82     1.845108 -0.001496191    65.188261    25355.586 
10145000   -200454.24    1.8472429 -0.0018424766    65.295557    25368.403 
10150000    -200415.3    1.7611672 0.0037037671     65.27062    25381.205 
10155000   -200551.85    1.8362049 -0.0024963572    65.384281    25394.006 
10160000   -200491.84    1.7757507   0.00246328     65.29968     25406.81 
10165000   -200587.87    1.8175424 0.0031067693    65.281663    25419.571 
10170000   -200667.41    1.7926568 -0.0022788682    65.402537    25432.401 
10175000   -200586.91    1.7873006 0.0043969988    65.467537    25445.188 
10180000   -200578.54    1.8378564 -0.0012138929    65.413418    25457.946 
10185000   -200325.78    1.8243225 -0.00032962342    65.431987    25470.726 
10190000   -200705.66    1.7576276  0.002314159    65.301105    25483.544 
10195000   -200556.65    1.7486164 0.0011302964    65.301696    25496.352 
10200000   -200649.59    1.8148242 -0.00072756218    65.250893    25509.187 
10205000   -200660.86    1.8040378 0.0036206284    65.156494    25522.012 
10210000   -200640.96    1.7828393 0.00052470425    65.367289    25534.827 
10215000   -200844.15    1.7713791 -0.0014781337    65.314965    25547.599 
10220000   -200671.93    1.7625079 0.0021178712    65.232091    25560.338 
10225000   -200714.15    1.8352216 -0.0032290083    65.327129    25573.148 
10230000   -200578.45    1.7827682 0.0052706276    65.153698    25585.964 
10235000   -200580.36    1.8025002 -0.00077391602    65.358417    25598.766 
10240000    -200572.5    1.8356251 -4.3648015e-05    65.261595    25611.573 
10245000   -200410.71    1.7560726 0.0031699929    65.296956    25624.343 
10250000   -200634.21    1.7499334 0.0036680306    65.247934    25637.148 
Loop time of 25637.1 on 8 procs for 10000000 steps with 2304 atoms

Performance: 33701.096 tau/day, 390.059 timesteps/s
95.7% CPU use with 8 MPI tasks x 1 OpenMP threads

MPI task timing breakdown:
Section |  min time  |  avg time  |  max time  |%varavg| %total
---------------------------------------------------------------
Pair    | 4143.3     | 4381.3     | 4721.7     | 296.6 | 17.09
Bond    | 0.97539    | 1.1102     | 1.2999     |   9.3 |  0.00
Kspace  | 10839      | 10952      | 11076      | 101.9 | 42.72
Neigh   | 668.39     | 678.47     | 701.97     |  42.5 |  2.65
Comm    | 1014.5     | 1023.4     | 1034.5     |  19.8 |  3.99
Output  | 0.8847     | 0.91915    | 1.1565     |   9.4 |  0.00
Modify  | 6323.8     | 7867.9     | 8540.4     | 899.7 | 30.69
Other   |            | 731.8      |            |       |  2.85

Nlocal:        288.000 ave         301 max         277 min
Histogram: 1 0 1 2 1 1 0 1 0 1
Nghost:        5934.12 ave        5975 max        5902 min
Histogram: 2 0 1 0 2 0 1 1 0 1
Neighs:         0.00000 ave           0 max           0 min
Histogram: 8 0 0 0 0 0 0 0 0 0
FullNghs:      242475.0 ave      255019 max      232834 min
Histogram: 1 0 2 1 2 0 0 1 0 1

Total # of neighbors = 1939800
Ave neighs/atom = 841.92708
Ave special neighs/atom = 0.0000000
Neighbor list builds = 83325
Dangerous builds = 0

## ----- deletion for small NPs and salt ----- ##
#    reset_timestep 0

#    label checking

#    compute     peatom    all   pe/atom
#    variable    exppe    atom    exp(2*c_peatom/${ttemp})
#    compute     aveS    small   reduce ave v_exppe
#    compute     aveCl   anion   reduce ave v_exppe
#    compute     aveNa   cation  reduce ave v_exppe

#    fix AVE all ave/time 5 ${repeat} ${freq} c_aveS c_aveCl file average.dat
#    thermo 10000
#    thermo_style custom step pe c_press lx cpu
#    thermo_modify norm no flush yes
#    fix AVE all ave/time 1 ${repeat} ${freq} c_aveS c_aveCl c_aveNa
#    variable    chempNP equal ${ttemp}*(ln(v_numS/vol)+ln(v_numCl/vol)*25+ln(f_AVE[1])+ln(f_AVE[2])*25)
#    variable    chempS  equal ${ttemp}*(ln(v_numNa/vol)+ln(v_numCl/vol)+ln(f_AVE[2])+ln(f_AVE[3]))
#    timestep 0.0005
#    run ${freq}

#    print "done! ChempNP= ${chempNP}" append potential.dat
Total wall time: 7:28:00
