LAMMPS (27 Oct 2021)
OMP_NUM_THREADS environment is not set. Defaulting to 1 thread. (src/comm.cpp:98)
  using 1 OpenMP thread(s) per MPI task
package gpu 0
package gpu 2 neigh no pair/only on
#Lammps gcmc code for electrolytes

## ----- Simulation times ----- ##
    variable t_nve      equal 50000             #nve/limit
    variable t_deform 	equal 50000            #nvt
    variable t_pressed 	equal 50000            #nvt
    variable t_relaxed 	equal 100000            #nvt
    variable t_eq 	equal 10000000           #nvt

    variable smallc	equal 10
    variable bigc	equal -80
    variable numB	equal 256
    variable numS	equal ${numB}*8
    variable numS	equal 256*8
#    variable numCl	equal ${numS}*${smallc}+${bigc}*${numB}

## ----- Environment setting ----- ##
    boundary p p p
    atom_style full

## ----- System Variables  ----- ##
    variable    ttemp       equal   $b          	#reduced temperature
    variable    ttemp       equal   1.74          	
    variable    ppress      equal   0			#osmetic pressure
    variable    cutoff_pppm equal   27.8	        #cutoff for the real part of pppm
    variable	ipress      equal   0.1

    variable    bigd        equal   10                      #LJ sigmas
    variable    smalld      equal   2
#    variable    Cl_d        equal   0.4
    variable    d_bs        equal   0.5*(${bigd}+${smalld})
    variable    d_bs        equal   0.5*(10+${smalld})
    variable    d_bs        equal   0.5*(10+2)
#    variable    d_sNa       equal   0.5*(v_smalld+v_Na_d)
#    variable    d_sCl       equal   0.5*(v_smalld+v_Cl_d)
#    variable    d_bNa       equal   0.5*(v_bigd+v_Na_d)
#    variable    d_bCl       equal   0.5*(v_bigd+v_Cl_d)
#    variable    d_NaCl      equal   0.5*(v_Na_d+v_Cl_d)

    variable    cut_small   equal   ${smalld}*1.122462	    #cutoffs for LJ
    variable    cut_small   equal   2*1.122462	    
    variable    cut_big     equal   ${bigd}*1.122462
    variable    cut_big     equal   10*1.122462
#    variable    cut_Na_d    equal   ${Na_d}*1.122462
#    variable    cut_Cl_d    equal   ${Cl_d}*1.122462
    variable    cut_bs      equal   ${d_bs}*1.122462
    variable    cut_bs      equal   6*1.122462
#    variable    cut_bNa     equal   ${d_bNa}*1.122462
#    variable    cut_bCl     equal   ${d_bCl}*1.122462
#    variable    cut_sNa     equal   ${d_sNa}*1.122462
#    variable    cut_sCl     equal   ${d_sCl}*1.122462
#    variable    cut_NaCl    equal   ${d_NaCl}*1.122462

## ----- Initialization and grouping ----- ##
    read_data config_fcc8.dat
Reading data file ...
  orthogonal box = (-80.000000 -80.000000 -80.000000) to (80.000000 80.000000 80.000000)
  2 by 2 by 2 MPI processor grid
  reading atoms ...
  2304 atoms
Finding 1-2 1-3 1-4 neighbors ...
  special bond factors lj:    0        0        0       
  special bond factors coul:  0        0        0       
     0 = max # of 1-2 neighbors
     0 = max # of 1-3 neighbors
     0 = max # of 1-4 neighbors
     1 = max # of special neighbors
  special bonds CPU = 0.015 seconds
  read_data CPU = 0.023 seconds

    set type 1 charge   ${bigc}    	#large NPs
    set type 1 charge   -80    	
Setting atom values ...
  256 settings made for charge
    set type 2 charge   ${smallc}       #small NPs
    set type 2 charge   10       
Setting atom values ...
  2048 settings made for charge
#    set type 3 charge   1       #Na+
#    set type 3 charge   -1      #Cl-

    mass    *   0.2
    mass    1   25.0

    group big       type 1
256 atoms in group big
    group small     type 2
2048 atoms in group small
#    group cation    type 3
#    group anion     type 3

## ----- Interaction setting ----- ##
    pair_style lj/cut/coul/long ${cut_big} ${cutoff_pppm} #lj/cut/coul/long/soft 2.0 0.5 5.0 ${cut_small} ${cutoff_pppm}
    pair_style lj/cut/coul/long 11.22462 ${cutoff_pppm} 
    pair_style lj/cut/coul/long 11.22462 27.8 
    #Between regular particles (4*5/2=10)
    pair_coeff  1   1   2.0     ${bigd}     ${cut_big}	        # big-big
    pair_coeff  1   1   2.0     10     ${cut_big}	        
    pair_coeff  1   1   2.0     10     11.22462	        
    pair_coeff  2   2   2.0     ${smalld}   ${cut_small}	    # small-small
    pair_coeff  2   2   2.0     2   ${cut_small}	    
    pair_coeff  2   2   2.0     2   2.244924	    
#    pair_coeff  3   3   2.0     ${Na_d}     ${cut_Na_d}		    # Na-Na
#    pair_coeff  3   3   2.0     ${Cl_d}     ${cut_Cl_d}       	# Cl-Cl
    pair_coeff  1   2   2.0     ${d_bs}     ${cut_bs}	        # big-small
    pair_coeff  1   2   2.0     6     ${cut_bs}	        
    pair_coeff  1   2   2.0     6     6.734772	        
#    pair_coeff  1   3   2.0     ${d_bNa}    ${cut_bNa}	        # big-Na
#    pair_coeff  1   3   2.0     ${d_bCl}    ${cut_bCl}	        # big-Cl
#    pair_coeff  2   3   2.0     ${d_sNa}    ${cut_sNa}       	# small-Na
#    pair_coeff  2   3   2.0     ${d_sCl}    ${cut_sCl}       	# small-Cl
#    pair_coeff  3   4   2.0     ${d_NaCl}   ${cut_NaCl}       	# Na-Cl
#    pair_modify pair lj/cut/coul/long shift yes
    pair_modify shift yes
    kspace_style	pppm	5.0e-4

## ----- Simulation setup ----- ##
    neighbor 1.2 bin
    neigh_modify delay 0 every 1 check yes #one 2000

    compute temp all temp
    compute press all pressure temp

    thermo 5000
    thermo_style custom step pe temp c_press lx cpu
    thermo_modify norm no flush yes

   # dump moldump all custom 50000 ${xyzname} id type q x y z

## ----- Thermalization of system ----- ##
    timestep 0.0002

    fix 1 all nve/limit 0.05
    fix 2 big langevin ${ttemp} ${ttemp} 0.2 1234567
    fix 2 big langevin 1.74 ${ttemp} 0.2 1234567
    fix 2 big langevin 1.74 1.74 0.2 1234567
    fix 3 small langevin ${ttemp} ${ttemp} 0.008 123456
    fix 3 small langevin 1.74 ${ttemp} 0.008 123456
    fix 3 small langevin 1.74 1.74 0.008 123456

    fix freeze big setforce 0.0 0.0 0.0
    fix zeromom all momentum 1 linear 1 1 1 angular
    run ${t_nve}
    run 50000

CITE-CITE-CITE-CITE-CITE-CITE-CITE-CITE-CITE-CITE-CITE-CITE-CITE

Your simulation uses code contributions which should be cited:

- GPU package (short-range, long-range and three-body potentials):

@Article{Brown11,
 author = {W. M. Brown, P. Wang, S. J. Plimpton, A. N. Tharrington},
 title = {Implementing Molecular Dynamics on Hybrid High Performance Computers - Short Range Forces},
 journal = {Comp.~Phys.~Comm.},
 year =    2011,
 volume =  182,
 pages =   {898--911}
}

@Article{Brown12,
 author = {W. M. Brown, A. Kohlmeyer, S. J. Plimpton, A. N. Tharrington},
 title = {Implementing Molecular Dynamics on Hybrid High Performance Computers - Particle-Particle Particle-Mesh},
 journal = {Comp.~Phys.~Comm.},
 year =    2012,
 volume =  183,
 pages =   {449--459}
}

@Article{Brown13,
 author = {W. M. Brown, Y. Masako},
 title = {Implementing Molecular Dynamics on Hybrid High Performance Computers â€“ Three-Body Potentials},
 journal = {Comp.~Phys.~Comm.},
 year =    2013,
 volume =  184,
 pages =   {2785--2793}
}

@Article{Trung15,
 author = {T. D. Nguyen, S. J. Plimpton},
 title = {Accelerating dissipative particle dynamics simulations for soft matter systems},
 journal = {Comput.~Mater.~Sci.},
 year =    2015,
 volume =  100,
 pages =   {173--180}
}

@Article{Trung17,
 author = {T. D. Nguyen},
 title = {GPU-accelerated Tersoff potentials for massively parallel Molecular Dynamics simulations},
 journal = {Comp.~Phys.~Comm.},
 year =    2017,
 volume =  212,
 pages =   {113--122}
}

@Article{Nikolskiy19,
 author = {V. Nikolskiy, V. Stegailov},
 title = {GPU acceleration of four-site water models in LAMMPS},
 journal = {Proceeding of the International Conference on Parallel Computing (ParCo 2019), Prague, Czech Republic},
 year =    2019
}

CITE-CITE-CITE-CITE-CITE-CITE-CITE-CITE-CITE-CITE-CITE-CITE-CITE

PPPM initialization ...
  using 12-bit tables for long-range coulomb (src/kspace.cpp:340)
  G vector (1/distance) = 0.11438956
  grid = 60 60 60
  stencil order = 5
  estimated absolute RMS force accuracy = 0.00041211524
  estimated relative force accuracy = 0.00041211524
  using double precision KISS FFT
  3d grid and FFT values/proc = 42875 28800
  generated 0 of 1 mixed pair_coeff terms from geometric mixing rule
Neighbor list info ...
  update every 1 steps, delay 0 steps, check yes
  max neighbors/atom: 2000, page size: 100000
  master list distance cutoff = 29
  ghost atom cutoff = 29
  binsize = 14.5, bins = 12 12 12
  1 neighbor lists, perpetual/occasional/extra = 1 0 0
  (1) pair lj/cut/coul/long/gpu, perpetual
      attributes: full, newton off
      pair build: full/bin
      stencil: full/bin/3d
      bin: standard
Per MPI rank memory allocation (min/avg/max) = 11.45 | 11.54 | 11.62 Mbytes
Step PotEng Temp c_press Lx CPU 
       0 1.7992005e+08            0    175.78446          160            0 
    5000   -68478.179    1.5531351 -0.0042773802          160    39.317263 
   10000   -73978.617    1.6191426 -0.0043668613          160    78.622872 
   15000   -78595.158    1.5178525 -0.0044140726          160    117.94957 
   20000   -82674.362    1.5932939 -0.0044145874          160    157.23943 
   25000   -86442.209    1.5726584 -0.004494418          160    196.45842 
   30000   -89831.079    1.5497259 -0.0043859113          160    235.66832 
   35000   -93056.332    1.5681053 -0.0044269028          160    274.84554 
   40000   -96051.531    1.5729176 -0.0043258052          160    313.98834 
   45000   -98830.069    1.5876001 -0.0043223624          160    353.20606 
   50000   -101435.09    1.5280205 -0.0042897245          160    392.39603 
Loop time of 392.396 on 8 procs for 50000 steps with 2304 atoms

Performance: 2201.856 tau/day, 127.422 timesteps/s
99.6% CPU use with 8 MPI tasks x 1 OpenMP threads

MPI task timing breakdown:
Section |  min time  |  avg time  |  max time  |%varavg| %total
---------------------------------------------------------------
Pair    | 9.323      | 9.6394     | 10.006     |   9.6 |  2.46
Bond    | 0.0057034  | 0.008666   | 0.011151   |   1.8 |  0.00
Kspace  | 375.97     | 376.59     | 377.33     |   2.2 | 95.97
Neigh   | 0.060212   | 0.067711   | 0.073782   |   1.8 |  0.02
Comm    | 2.2215     | 2.7836     | 3.2327     |  18.7 |  0.71
Output  | 0.00034332 | 0.00058118 | 0.0022219  |   0.0 |  0.00
Modify  | 2.734      | 2.8244     | 2.8873     |   3.0 |  0.72
Other   |            | 0.4823     |            |       |  0.12

Nlocal:        288.000 ave         313 max         260 min
Histogram: 2 0 0 1 0 2 1 0 0 2
Nghost:        1326.38 ave        1354 max        1297 min
Histogram: 2 0 1 0 0 2 0 0 2 1
Neighs:         0.00000 ave           0 max           0 min
Histogram: 8 0 0 0 0 0 0 0 0 0
FullNghs:      16546.5 ave       18916 max       14057 min
Histogram: 2 0 0 1 0 3 0 0 0 2

Total # of neighbors = 132372
Ave neighs/atom = 57.453125
Ave special neighs/atom = 0.0000000
Neighbor list builds = 72
Dangerous builds = 0

#    compute     peatom      all     pe/atom
#    variable    exppe       atom    exp(2*c_peatom/${ttemp})
#    compute     aveS        small   reduce ave v_exppe
#    compute     aveCl       anion   reduce ave v_exppe
#    compute     aveNa       cation  reduce ave v_exppe
#    thermo ${every}
#    thermo_style custom step pe temp lx vol c_aveS c_aveCl c_aveNa cpu
#    thermo_modify norm no flush yes
#    variable    chempNP     equal   temp*(ln(2304/vol)+ln(18300/vol)*10+ln(c_aveS)+ln(c_aveCl)*10)
#    variable    chempS      equal   temp*(ln(5500/vol)+ln(18300/vol)+ln(c_aveNa)+ln(c_aveCl))
#    label checking
#    run ${every}
#    if "${chempNP}>${mu_np}" then 'print "ChempNP=${chempNP}; expel"' "jump gcmc.in checking" else 'print "done!"'

    fix deforming all deform 10 x final -33 33 y final -33 33 z final -33 33 remap x
    run ${t_deform}
    run 50000
PPPM initialization ...
  using 12-bit tables for long-range coulomb (src/kspace.cpp:340)
  G vector (1/distance) = 0.11438956
  grid = 60 60 60
  stencil order = 5
  estimated absolute RMS force accuracy = 0.00041211524
  estimated relative force accuracy = 0.00041211524
  using double precision KISS FFT
  3d grid and FFT values/proc = 42875 28800
  generated 0 of 1 mixed pair_coeff terms from geometric mixing rule
Per MPI rank memory allocation (min/avg/max) = 11.45 | 11.54 | 11.62 Mbytes
Step PotEng Temp c_press Lx CPU 
   50000   -101435.09    1.5280205 -0.0042897245          160            0 
   55000   -107916.68    1.5887427 -0.0038465401        150.6    42.062489 
   60000   -114810.68    1.5620357 -0.0039443762        141.2    84.247367 
   65000   -122257.38    1.5503769 -0.0040077114        131.8    126.46459 
   70000   -130012.98    1.4963351 -0.0040856603        122.4    168.73789 
   75000   -137790.51    1.5783162 -0.001899794          113    210.94119 
   80000   -146433.07      1.51104 0.0011352831        103.6    253.29777 
   85000   -155039.46    1.5962601  0.011571897         94.2    295.66455 
   90000   -163524.66    1.5469776  0.033176829         84.8    338.23494 
   95000   -171822.32    1.6057303  0.077627595         75.4       381.03 
  100000   -181822.93    1.6172214   0.17751816           66    424.15883 
Loop time of 424.159 on 8 procs for 50000 steps with 2304 atoms

Performance: 2036.972 tau/day, 117.880 timesteps/s
99.6% CPU use with 8 MPI tasks x 1 OpenMP threads

MPI task timing breakdown:
Section |  min time  |  avg time  |  max time  |%varavg| %total
---------------------------------------------------------------
Pair    | 10.119     | 10.457     | 10.766     |   8.6 |  2.47
Bond    | 0.0075839  | 0.0089218  | 0.010735   |   1.2 |  0.00
Kspace  | 376.89     | 377.48     | 377.93     |   2.0 | 89.00
Neigh   | 0.79651    | 0.86428    | 0.91884    |   4.9 |  0.20
Comm    | 3.8042     | 4.0916     | 4.4194     |  11.6 |  0.96
Output  | 0.00041097 | 0.0056867  | 0.012477   |   5.5 |  0.00
Modify  | 25.368     | 28.038     | 30.594     |  36.7 |  6.61
Other   |            | 3.21       |            |       |  0.76

Nlocal:        288.000 ave         308 max         268 min
Histogram: 1 1 0 0 2 1 1 0 1 1
Nghost:        5846.75 ave        5872 max        5804 min
Histogram: 2 0 0 0 0 1 0 2 0 3
Neighs:         0.00000 ave           0 max           0 min
Histogram: 8 0 0 0 0 0 0 0 0 0
FullNghs:      233925.0 ave      251920 max      217129 min
Histogram: 2 0 0 1 2 1 0 0 1 1

Total # of neighbors = 1871400
Ave neighs/atom = 812.23958
Ave special neighs/atom = 0.0000000
Neighbor list builds = 334
Dangerous builds = 0

    unfix 1
#    unfix 2
    unfix freeze
    unfix deforming

    timestep 0.002

    fix 1 all   nph	            iso ${ipress} ${ipress} 1.0
    fix 1 all   nph	            iso 0.1 ${ipress} 1.0
    fix 1 all   nph	            iso 0.1 0.1 1.0
    run ${t_pressed}
    run 50000
PPPM initialization ...
  using 12-bit tables for long-range coulomb (src/kspace.cpp:340)
  G vector (1/distance) = 0.1206864
  grid = 32 32 32
  stencil order = 5
  estimated absolute RMS force accuracy = 0.00049681107
  estimated relative force accuracy = 0.00049681107
  using double precision KISS FFT
  3d grid and FFT values/proc = 9261 4096
  generated 0 of 1 mixed pair_coeff terms from geometric mixing rule
Per MPI rank memory allocation (min/avg/max) = 9.329 | 9.343 | 9.376 Mbytes
Step PotEng Temp c_press Lx CPU 
  100000   -181782.64    1.6172214   0.17915652           66            0 
  105000   -200391.38    1.6769161   0.08851891     61.94404    14.151996 
  110000   -202075.38    1.7678142  0.098288872    60.798831    28.543138 
  115000   -203062.41    1.7538633   0.10104581    60.408793    43.106588 
  120000   -203917.73     1.704569   0.09464672    60.210783    57.730857 
  125000   -204205.94    1.7886311   0.10334288     60.04072    72.362379 
  130000    -204599.4    1.7139143  0.098469647    60.047717     86.92201 
  135000   -204965.68    1.7767299  0.091234287    60.117169    101.53475 
  140000   -204929.63    1.7319143   0.10171377    60.031825      116.173 
  145000   -205077.64    1.7135005    0.1001173    60.010196    130.81862 
  150000   -205327.02    1.7415521  0.092410635    60.035219    145.43079 
Loop time of 145.431 on 8 procs for 50000 steps with 2304 atoms

Performance: 59409.646 tau/day, 343.806 timesteps/s
97.5% CPU use with 8 MPI tasks x 1 OpenMP threads

MPI task timing breakdown:
Section |  min time  |  avg time  |  max time  |%varavg| %total
---------------------------------------------------------------
Pair    | 14.694     | 17.693     | 21.165     |  52.9 | 12.17
Bond    | 0.0045687  | 0.0057596  | 0.0065454  |   0.8 |  0.00
Kspace  | 66.753     | 67.417     | 67.948     |   5.7 | 46.36
Neigh   | 6.763      | 6.9263     | 7.1314     |   4.6 |  4.76
Comm    | 5.9484     | 6.0555     | 6.1518     |   2.5 |  4.16
Output  | 0.00032744 | 0.00050125 | 0.0016889  |   0.0 |  0.00
Modify  | 42.399     | 45.44      | 49.274     |  33.3 | 31.25
Other   |            | 1.893      |            |       |  1.30

Nlocal:        288.000 ave         300 max         280 min
Histogram: 1 1 0 3 0 1 1 0 0 1
Nghost:        7258.62 ave        7280 max        7234 min
Histogram: 1 1 0 0 2 1 0 0 2 1
Neighs:         0.00000 ave           0 max           0 min
Histogram: 8 0 0 0 0 0 0 0 0 0
FullNghs:      314482.0 ave      328115 max      305216 min
Histogram: 1 1 0 3 0 2 0 0 0 1

Total # of neighbors = 2515860
Ave neighs/atom = 1091.9531
Ave special neighs/atom = 0.0000000
Neighbor list builds = 758
Dangerous builds = 0
    unfix 1
    fix 1 all   nph	            iso ${ipress} ${ppress} 1.0
    fix 1 all   nph	            iso 0.1 ${ppress} 1.0
    fix 1 all   nph	            iso 0.1 0 1.0
    run ${t_relaxed}
    run 100000
PPPM initialization ...
  using 12-bit tables for long-range coulomb (src/kspace.cpp:340)
  G vector (1/distance) = 0.12139995
  grid = 30 30 30
  stencil order = 5
  estimated absolute RMS force accuracy = 0.00050128947
  estimated relative force accuracy = 0.00050128947
  using double precision KISS FFT
  3d grid and FFT values/proc = 8000 3600
  generated 0 of 1 mixed pair_coeff terms from geometric mixing rule
Per MPI rank memory allocation (min/avg/max) = 9.766 | 9.799 | 9.814 Mbytes
Step PotEng Temp c_press Lx CPU 
  150000   -205326.89    1.7415521  0.092415765    60.035219            0 
  155000    -205310.1    1.7436023  0.095640069    60.020744    14.313902 
  160000   -205293.68    1.7518355  0.090663938    60.075186    28.622753 
  165000   -205228.14    1.7221917  0.084687232    60.184461    42.918141 
  170000   -205194.68    1.7780671  0.078869646    60.246846    57.258181 
  175000   -205360.44    1.7479223   0.07801613    60.281625    71.565769 
  180000    -205239.3    1.7382816  0.067070052    60.433416    85.898539 
  185000   -205323.63    1.8190477  0.063421512    60.463318    100.22002 
  190000   -205422.58    1.7604118  0.059808548    60.484633    114.50618 
  195000   -205485.54    1.7322846  0.054309621    60.534403    128.76079 
  200000   -205206.29    1.7578751  0.050535622    60.650048    142.99033 
  205000   -205247.59    1.7554265  0.044256713    60.697516    157.22539 
  210000   -204956.49    1.7082742  0.040731695    60.844836    171.42895 
  215000   -205031.38    1.7687656  0.033337927    60.947049    185.65435 
  220000   -204925.49    1.7118324  0.035417288    60.996241      199.874 
  225000   -204992.21    1.7514569  0.025723748     61.08691     214.0725 
  230000   -204733.56    1.7981575  0.020799082    61.195181    228.23595 
  235000   -204395.41    1.7290989  0.013267548    61.409424    242.42362 
  240000   -204369.67    1.7717033 0.0029219535     61.55961    256.56393 
  245000   -204138.21    1.7768142 -0.00029079562    61.717619    270.64019 
  250000   -203854.82    1.7624266 -0.0048274423     61.89639    284.65796 
Loop time of 284.658 on 8 procs for 100000 steps with 2304 atoms

Performance: 60704.405 tau/day, 351.299 timesteps/s
94.9% CPU use with 8 MPI tasks x 1 OpenMP threads

MPI task timing breakdown:
Section |  min time  |  avg time  |  max time  |%varavg| %total
---------------------------------------------------------------
Pair    | 50.235     | 55.397     | 61.659     |  49.0 | 19.46
Bond    | 0.0092342  | 0.011352   | 0.013287   |   1.2 |  0.00
Kspace  | 112.45     | 113.58     | 114.64     |   8.6 | 39.90
Neigh   | 13.824     | 14.065     | 14.536     |   6.7 |  4.94
Comm    | 11.941     | 12.186     | 12.407     |   3.9 |  4.28
Output  | 0.0006442  | 0.00095189 | 0.0030517  |   0.0 |  0.00
Modify  | 62.938     | 79.24      | 89.544     | 107.4 | 27.84
Other   |            | 10.18      |            |       |  3.58

Nlocal:        288.000 ave         295 max         284 min
Histogram: 3 0 1 0 2 0 1 0 0 1
Nghost:        6893.00 ave        6934 max        6858 min
Histogram: 1 2 0 0 1 0 2 1 0 1
Neighs:         0.00000 ave           0 max           0 min
Histogram: 8 0 0 0 0 0 0 0 0 0
FullNghs:      286962.0 ave      294263 max      282425 min
Histogram: 3 0 1 0 2 0 1 0 0 1

Total # of neighbors = 2295692
Ave neighs/atom = 996.39410
Ave special neighs/atom = 0.0000000
Neighbor list builds = 1540
Dangerous builds = 0
    unfix 1

    timestep 0.001
    dump moldump all custom 10000 ${xyzname} id type q x y z
    dump moldump all custom 10000 r8f0_coulombic_1.74.lammpstrj id type q x y z
    fix 1 all   nph                 iso ${ppress} ${ppress} 1.0
    fix 1 all   nph                 iso 0 ${ppress} 1.0
    fix 1 all   nph                 iso 0 0 1.0
    run ${t_eq}
    run 10000000
PPPM initialization ...
  using 12-bit tables for long-range coulomb (src/kspace.cpp:340)
  G vector (1/distance) = 0.12068076
  grid = 30 30 30
  stencil order = 5
  estimated absolute RMS force accuracy = 0.0005477679
  estimated relative force accuracy = 0.0005477679
  using double precision KISS FFT
  3d grid and FFT values/proc = 8000 3600
  generated 0 of 1 mixed pair_coeff terms from geometric mixing rule
Per MPI rank memory allocation (min/avg/max) = 11.03 | 11.06 | 11.08 Mbytes
Step PotEng Temp c_press Lx CPU 
  250000   -203854.86    1.7624266 -0.0048291068     61.89639            0 
  255000    -203757.9     1.732201 -0.0018259887    61.876684    13.449734 
  260000   -203704.34    1.7685421 -0.0035720428    61.995902    26.818247 
  265000   -203669.73    1.7697146 0.00027859295    61.923456    40.234071 
  270000   -203659.04    1.7745403 0.0058187965    61.920415    53.595499 
  275000   -203780.19    1.7537576  0.006823972     61.88643    66.959255 
  280000   -203633.46    1.7293035 -0.0040132627     62.05977    80.346327 
  285000   -203489.27    1.8129667 0.0021839175    61.969432     93.66684 
  290000   -203604.18    1.7714209 0.0064942332    61.945147    106.97445 
  295000    -203554.2     1.751374 -4.8434417e-05    62.004874    120.34258 
  300000    -203632.5    1.7042549 -0.0010681327    61.974098    133.72805 
  305000   -203623.06    1.7332457 -0.0012524134    62.016234    147.13007 
  310000   -203534.34    1.8279037 0.0014701247    61.980273    160.50137 
  315000   -203342.57    1.7377745 -0.0003265375     62.02455    173.88558 
  320000   -203446.15    1.7075215  0.004202659    62.029376    187.26829 
  325000   -203275.99    1.7324134 -0.00058728192    62.189406    200.60853 
  330000    -203191.8    1.7631414 -0.0045554157    62.215066    213.94316 
  335000   -203296.97    1.7050456 0.0026983973    62.122183    227.26036 
  340000   -203414.86    1.7333286 0.00079609981    62.109997    240.59815 
  345000   -203334.79    1.7992922 0.0010988786    62.091616    253.93763 
  350000    -203218.6    1.7245279 -0.0043352397    62.313433    267.28895 
  355000   -203232.19    1.7255997 0.00014685662    62.198485    280.59824 
  360000   -203408.36    1.7447903 0.00074246242    62.209541    293.88298 
  365000   -203146.89    1.7365994 -0.0016337383    62.350242    307.15412 
  370000   -203316.39    1.7767615 0.0079725235    62.051039    320.46394 
  375000   -203316.18    1.7583032 -0.0010883028    62.150942    333.78643 
  380000   -203256.18    1.7427183 0.00086849605    62.165082    347.13431 
  385000   -203206.99    1.7761982 -0.0023987551    62.214831    360.49452 
  390000   -203225.42     1.803108 0.0017415799    62.184646    373.77497 
  395000   -203095.98    1.7367975 0.0015447884     62.16298    387.12067 
  400000   -203095.06    1.7544404 -0.0030884712    62.217808    400.43214 
  405000   -203147.75    1.7555148 0.0012637336    62.207765    413.73348 
  410000   -202860.65     1.721721 0.00068869639    62.296596    427.04437 
  415000   -202917.16    1.6967533 -0.0023616702    62.342781    440.33437 
  420000   -203071.43     1.755164 -0.0019289591    62.291744    453.64502 
  425000   -203135.34    1.7509539 -0.001322412    62.221489    466.94691 
  430000   -202800.48    1.7453152 0.00067655576    62.302987    480.26449 
  435000   -203036.74    1.7366057 -0.00046704178    62.275148    493.50953 
  440000   -202957.49    1.7321635 -0.0027544428    62.389678    506.79052 
  445000   -202907.06    1.7552981 -8.0333285e-05    62.389105    520.08689 
  450000   -202911.83    1.7290529 0.00031523379    62.363414    533.33635 
  455000   -202755.59    1.7490505 0.00061520249    62.401781    546.66121 
  460000   -203003.02     1.690042 -0.0047015677    62.393293    559.97025 
  465000   -202828.83    1.7468029 0.00073705242    62.347873    573.26894 
  470000   -202875.71    1.7441581 0.00023284626    62.364299    586.57325 
  475000    -202884.2    1.7591183 -0.0026549972    62.440748    599.84089 
  480000   -202832.46    1.7109685 -0.0014005346    62.436302    613.11187 
  485000   -202780.61    1.7174413 -0.0033631048    62.518229    626.33388 
  490000   -202750.18    1.7523774 -0.0053253738    62.601842    639.61833 
  495000   -202875.84     1.739466 0.0017769119    62.438083    652.93482 
  500000   -202662.46    1.7594412 0.0010539424    62.526309    666.18977 
  505000   -202831.79    1.7502282 -0.0051021293    62.596753    679.39758 
  510000   -202747.06    1.7668169 0.00072743334     62.51698    692.67312 
  515000   -202660.28    1.7271273 -4.3885015e-05    62.573543    705.87977 
  520000   -202993.94    1.7682503  0.001115741     62.39995    719.09773 
  525000   -202959.72    1.7793174 0.00087943346    62.393882    732.36617 
  530000   -202940.04      1.73186 -0.0072809528    62.492254    745.58982 
  535000   -202941.66    1.7197708 -0.0091833765    62.517521    758.87606 
  540000   -203010.43    1.7730406 0.0098262547    62.190801    772.18335 
  545000   -202997.38    1.6737568 -0.0013876158    62.386732    785.48068 
  550000   -202802.09    1.7251574 0.0021496722    62.419879     798.7462 
  555000   -203009.52     1.726212 0.0041010258     62.29269    812.02832 
  560000   -203141.65     1.732679 0.0022164044    62.278284    825.32142 
  565000   -202947.67    1.7654129 -0.0017378753      62.3934     838.6141 
  570000   -202682.43    1.7427163 0.00081713776    62.491444    851.85981 
  575000    -202645.9    1.7499362 0.0025078293    62.455648    865.07419 
  580000   -202608.84    1.7121866 0.0004731102    62.618848    878.31602 
  585000   -202582.49    1.7629718 -0.00074434255    62.637441    891.54963 
  590000   -202810.63    1.7672896 0.0030095241    62.425422    904.83846 
  595000   -202688.32    1.7269662 -0.0012480513    62.555635    918.04456 
  600000    -202718.5    1.7962817  -0.00224315    62.624202    931.25811 
  605000   -202601.31    1.6892385 0.0065328002    62.536476    944.49599 
  610000   -202246.37    1.7244075 -0.0060743988     62.86776    957.71644 
  615000   -202347.65    1.7507191 0.0001657066    62.743597    970.93259 
  620000   -202280.69    1.7455323 -0.0050280989    62.866443    984.17018 
  625000   -202473.39    1.7329928 -0.0023397524     62.79953    997.37754 
  630000   -202331.54    1.7564471 -0.00086491026    62.894594    1010.5699 
  635000   -202252.94    1.7400514 -0.0019609229    62.836776    1023.7508 
  640000   -202334.84     1.751742 -0.00070119084    62.897567    1036.9499 
  645000   -202192.65     1.702331 -0.0028473451    62.955373    1050.0881 
  650000   -202142.89    1.7588543 -0.0010407147    62.909956    1063.2225 
  655000   -201937.06    1.7388414 -0.0098902807     63.14607    1076.3615 
  660000   -202039.96    1.7595289 -0.0060707696    63.172411     1089.504 
  665000   -201954.79    1.7646901 0.00049619502    63.099092    1102.6793 
  670000   -201850.27    1.7630241 4.2662451e-05     63.21544    1115.7214 
  675000   -201580.81    1.7087805 -0.00088834953    63.358084    1128.8027 
  680000   -201735.21    1.7852031 0.00043473426    63.346238    1141.8773 
  685000   -201818.02    1.7357403 -0.0057756029    63.305216     1154.959 
  690000   -201955.53    1.7854525 0.0039675013    63.162533    1168.0469 
  695000   -201972.71    1.7639011  0.001697803    63.215415     1181.134 
  700000   -201986.52    1.7391308 0.0057268927    63.176948    1194.2205 
  705000    -202031.1    1.7315988 0.0020789998    63.223894    1207.2994 
  710000   -201797.25    1.7609043 0.0014819042    63.300733    1220.3731 
  715000   -201791.78    1.7620219 -0.0004455741    63.297015     1233.434 
  720000   -201665.71    1.7073804 0.0037207376    63.345845     1246.482 
  725000   -201706.52    1.7751639 -0.00061510022     63.40721    1259.5511 
  730000      -201516    1.7619102 0.0038027993    63.490529    1272.6071 
  735000   -201558.98    1.7032355 -0.0016608945    63.492113    1285.6384 
  740000   -201620.44    1.7862036 0.0017966622    63.417271    1298.6727 
  745000   -201613.12     1.753369 0.0026091093     63.47473    1311.7544 
  750000   -201471.68    1.7696741 -0.0022194644    63.515793    1324.7977 
  755000    -201426.2    1.7497863 0.0022464596    63.539282    1337.8271 
  760000   -201283.52    1.7630455 0.0022760563    63.670313    1350.8972 
  765000   -201554.26    1.6835654 0.0035524049    63.629186    1363.8869 
  770000   -201592.63    1.7580655 0.0054116407    63.547564    1376.9095 
  775000   -201485.97    1.7351356  0.009767103    63.456529    1389.9665 
  780000   -201226.96    1.7413776 -0.010739668     63.82017     1403.027 
  785000   -201517.73    1.7555682 0.0042389703    63.631149    1416.0364 
  790000   -201578.99    1.7611211   0.00174509    63.717615    1429.0294 
  795000   -201384.56    1.7532098 0.0010925094    63.862776    1442.0339 
  800000   -201288.16    1.7574755 -0.0013578232    63.938862    1455.0189 
  805000    -201147.8    1.7127064  0.002554937    63.968388    1467.9423 
  810000   -201208.69    1.7328401 -0.00074904182    63.952067     1480.925 
  815000   -201108.18    1.7448869 -0.004003792    63.983102    1493.9235 
  820000   -201321.18    1.7485063 -0.001037821    63.891639    1506.9376 
  825000   -201443.71    1.7254848 0.00076804534    63.943076    1519.9422 
  830000   -201338.15    1.7622151 0.0038314541    63.973352    1532.9256 
  835000   -201288.93    1.6863064 -0.0010984183    64.088018    1545.9032 
  840000   -201436.97    1.7357259 0.00064737263    64.094064     1558.819 
  845000   -201333.15    1.6781324 0.0043847893    64.032157    1571.8035 
  850000   -201281.78    1.7693221 0.0036223329    64.062348    1584.7567 
  855000   -201111.36    1.7542176 0.0040831305    64.093769    1597.6751 
  860000   -201202.43    1.7780229 -0.00078094159    64.246079    1610.6221 
  865000   -201162.51    1.7538844 -0.0012277292    64.181898    1623.5395 
  870000   -201063.65    1.7124814 0.0036325518    64.153144    1636.4827 
  875000    -201080.4    1.7177189 0.0025884641      64.1587    1649.4149 
  880000   -200843.67    1.7501843 -0.0026327531    64.401656     1662.356 
  885000   -201102.55     1.761503 -6.5133547e-05    64.356193    1675.2491 
  890000   -201117.41    1.7258587 -0.00069573774    64.391989    1688.1692 
  895000   -200679.96    1.7933722 0.0022698389    64.437111    1701.0397 
  900000   -200944.33    1.7473803 0.0014089401    64.450364    1713.9078 
  905000   -200802.62    1.6790594 -0.0052287373    64.693308    1726.7816 
  910000   -200981.88    1.7501913 -0.0017417973    64.683567     1739.654 
  915000   -201034.72    1.7132879 0.0010243846    64.707464    1752.4758 
  920000   -200878.45      1.75031 -0.0049865244    64.780123    1765.3125 
  925000   -200958.88    1.7672971 -0.00015267214    64.653121    1778.1532 
  930000   -201037.55    1.7230954 -0.001224676     64.74297    1790.9709 
  935000   -200893.94     1.730706 0.00085412484    64.717163    1803.7822 
  940000   -200897.68    1.7512777 0.0045099417    64.719804    1816.6115 
  945000   -200971.92    1.7746435 -0.0042467655    64.932507    1829.4651 
  950000   -200838.06    1.7270278 -0.0015688901    64.868717    1842.2962 
  955000   -200843.72     1.756695 -0.0014811917    64.864061    1855.1296 
  960000   -200983.44     1.727839 -0.00024945787    64.775113    1867.9682 
  965000   -200938.31    1.7020747 -0.0027061608    64.882832     1880.777 
  970000   -200898.26    1.7613249 0.0028842177    64.828709    1893.6045 
  975000   -200903.42    1.7821166 0.00074300953    64.902729    1906.4346 
  980000   -200855.11    1.7151608  0.001278651    64.823095    1919.2491 
  985000   -201005.02    1.7499234 -0.00025725714    64.842125    1932.0953 
  990000    -200964.8    1.7013441  0.003945289    64.794373    1944.9427 
  995000   -200682.73    1.7962012 0.0013823226    64.887976    1957.7711 
 1000000   -200904.14    1.7482161 -0.0054268798    65.097111    1970.5964 
 1005000   -200895.39    1.7058528 0.0053071246    64.984181    1983.3647 
 1010000   -200743.14    1.7415212 -0.0029414326    65.081978     1996.184 
 1015000   -200713.67    1.7355295 0.0010598961    65.062931     2008.993 
 1020000   -200735.93    1.7562491 -0.0044992669    65.078367    2021.7637 
 1025000   -200883.55    1.7727093 0.0014983208    65.014962    2034.5587 
 1030000   -200669.76    1.7627705 -0.0016544754     65.22954    2047.3587 
 1035000    -200798.4    1.7304766 -0.00093439205    65.151197    2060.1207 
 1040000   -200841.52     1.780268 0.0020040094    65.147432    2072.9269 
 1045000    -200799.9    1.7390256 -0.0018191023    65.181757    2085.6882 
 1050000   -200916.69    1.7680155 -0.0047162514    65.246089    2098.4754 
 1055000   -200803.69    1.7035629 0.0013681711    65.186694    2111.2166 
 1060000   -200890.34    1.7226419 -0.00020130515    65.152335    2123.9969 
 1065000   -200733.15    1.7366418 -0.0045820858    65.291184     2136.773 
 1070000   -200845.37    1.7829336 0.0053845592    65.036233    2149.5448 
 1075000   -200751.34    1.7087404 0.0017048455     65.15104    2162.3315 
 1080000   -200726.63    1.7578788 -0.0015757371    65.332919    2175.1007 
 1085000   -200860.25    1.7108399 -0.0011284174    65.248424    2187.8763 
 1090000   -200690.54    1.7356986 0.0020238508    65.309425    2200.6651 
 1095000   -200988.85    1.7594946  0.002027281    65.232958    2213.4423 
 1100000   -200904.19    1.7145429 7.2354195e-05    65.177989    2226.1898 
 1105000   -200754.93    1.7316766 -0.0019035091    65.303662    2238.9546 
 1110000    -200693.9    1.7450288 0.0094349563    65.170907    2251.7233 
 1115000   -200784.94    1.7125274 -0.0008685096    65.320748    2264.5249 
 1120000   -200637.26    1.7486555 -0.0069301316     65.37987    2277.3184 
 1125000   -200640.14     1.755214 0.0026539351    65.196682     2290.082 
 1130000   -200684.43    1.7504856 -0.0018469942     65.27805      2302.81 
 1135000   -200680.08    1.7463342 -0.0046632195    65.430589    2315.5904 
 1140000   -200621.06    1.7694009 0.00083348606    65.354378    2328.3414 
 1145000   -200868.88    1.7333636 0.00075663529    65.227422    2341.1037 
 1150000   -200801.04    1.7661333 -0.0032547863    65.375596    2353.8676 
 1155000   -200874.69    1.7802088 -0.0029587672    65.302272    2366.6292 
 1160000   -200692.39    1.7648463 0.0013935522    65.256081    2379.3787 
 1165000   -200779.76    1.7327621 0.0047501397    65.124078    2392.1496 
 1170000   -200812.52    1.7597204 0.0026996393    65.125013    2404.8881 
 1175000   -200727.56    1.6856182 -0.0021919481    65.150619    2417.6431 
 1180000   -200687.16    1.7268765 -0.00054132035    65.129987    2430.4476 
 1185000   -200843.12    1.7511134 -0.00076917334    65.109129    2443.2224 
 1190000   -200829.13    1.7564741 0.0011353634    65.126441     2456.001 
 1195000   -200795.31    1.7336129 -0.00059967448    65.144542    2468.7585 
 1200000    -200900.1    1.8257613 -0.0039128247    65.241279    2481.5563 
 1205000   -200981.52    1.7165763 0.0045418271    65.094302    2494.3533 
 1210000    -200890.2    1.7424843 0.0054195525    65.059699    2507.1135 
 1215000   -200853.04    1.7129635 0.00052762057    65.238093    2519.8919 
 1220000    -200767.8    1.7018778 -0.0095662385    65.490703    2532.6918 
 1225000   -200784.96    1.7941878 0.0051608043    65.293874    2545.4351 
 1230000   -200809.99    1.7015749  0.001493703    65.230298    2558.1967 
 1235000   -200801.97    1.7539815 0.0027497259    65.184356    2570.9247 
 1240000   -200741.18    1.7202015 -0.0030308327    65.314689    2583.6768 
 1245000   -200836.47    1.6612272 -0.005885424    65.328267    2596.4379 
 1250000   -200776.43    1.7642864 -2.6819215e-05     65.35031    2609.1903 
 1255000   -200927.89    1.7064308 -0.00036845385    65.230017    2621.9692 
 1260000   -200742.03    1.7495045 -0.001385077    65.346719    2634.7584 
 1265000   -200689.14    1.7430127 -0.0018923474    65.338457    2647.5073 
 1270000   -200712.86    1.7121298 -0.0041003034    65.374954    2660.2703 
 1275000   -200684.55     1.714477 -0.0015724575    65.407619    2672.9988 
 1280000   -200536.69    1.7343562 0.00066191951    65.359408    2685.7317 
 1285000   -200681.08    1.7193005 0.00035625356    65.312057    2698.4996 
 1290000   -200677.37    1.7109117 -0.003907719    65.413852    2711.2815 
 1295000   -200618.53    1.7211198 0.0019433338    65.279998    2724.0206 
 1300000   -200852.04    1.7697771 -8.7455609e-05     65.34189    2736.7681 
 1305000   -200648.98    1.7608043 -0.0050927588    65.445495    2749.5201 
 1310000    -200775.4    1.7340379 -0.00056079774    65.271157     2762.294 
 1315000   -200951.48    1.6947075 -0.0034380131    65.199881    2775.0792 
 1320000   -200896.99    1.7422662 0.00099168008    65.109524    2787.8338 
 1325000   -200850.65    1.7394641  0.002682045    65.070548    2800.6507 
 1330000   -200835.46    1.7247476 -0.00044566745    65.176874    2813.4252 
 1335000   -200816.99    1.7147866 -9.5991562e-05    65.192075    2826.1708 
 1340000   -201046.47    1.7884264 -0.0036148663    65.297167    2838.9887 
 1345000   -200842.54     1.695331 0.0033120235    65.079825    2851.8045 
 1350000   -200792.99    1.7366092  0.001473616    65.201114    2864.5693 
 1355000   -200757.62    1.6987956 0.00091914708    65.233506    2877.2917 
 1360000   -200931.89    1.7525133 -0.00059625792     65.26826    2890.0623 
 1365000      -200685    1.6864941 -0.0008752838    65.203335    2902.7923 
 1370000   -200541.87    1.6881518 -0.0014884874    65.168574    2915.5487 
 1375000   -200812.73    1.7284712 -0.0038829672    65.206971     2928.362 
 1380000   -200896.61    1.8023241 -0.00026549225    65.161026     2941.122 
 1385000    -200770.4    1.7388411 0.0019644719    65.123193     2953.886 
 1390000   -200809.36    1.7155269 0.00027450658    65.135421     2966.643 
 1395000   -200676.12    1.7724165 0.0040301279    65.106628    2979.4127 
 1400000   -200939.45    1.7566875 -0.0031183974    65.275823    2992.2265 
 1405000   -200824.68    1.7125577 -0.0032394451    65.256258    3004.9968 
 1410000   -200824.33    1.7736267 0.0014353502    65.208651    3017.7658 
 1415000   -200894.84    1.7574952 -0.0062351219    65.282416    3030.5307 
 1420000   -200832.62    1.8073613 0.0018666997    65.253533    3043.2771 
 1425000   -201020.06    1.6597579 -0.00066431726    65.165562    3056.0417 
 1430000   -200930.68    1.7037612 -0.0033183539     65.25117    3068.7642 
 1435000    -200883.4    1.7107985 -0.00089109126    65.223206    3081.5273 
 1440000   -200710.25     1.726554 0.0045695648    65.074374    3094.2735 
 1445000   -200623.07    1.7414691 0.0012440851    65.168978    3107.0275 
 1450000   -200729.37    1.7457197 -0.0018473974    65.185123    3119.8462 
 1455000   -200710.19     1.706396 -0.0035880528     65.14646     3132.634 
 1460000   -200580.05    1.7594248 0.0012896773    65.134907    3145.4498 
 1465000   -200700.42       1.8011 0.00041829163     65.18896    3158.1799 
 1470000   -200723.88    1.7140372 -0.0046094668    65.221451    3170.9523 
 1475000    -200993.9    1.7061805 0.0014347919     65.13531    3183.7189 
 1480000   -200848.37      1.69269 0.0047910758    65.018801     3196.514 
 1485000   -200735.22    1.7215009 -0.0029546045     65.15176     3209.338 
 1490000   -200712.11    1.7162278 0.0014575645    65.002261    3222.1655 
 1495000   -200851.61    1.7641023 -0.0016624699    65.046191     3234.973 
 1500000   -200950.11    1.7042628 -0.0040288077    65.018002    3247.7771 
 1505000   -200871.12     1.747338 -0.0011275208    65.026892    3260.5879 
 1510000   -200875.48    1.7826433 0.00029581083    65.008044    3273.3937 
 1515000   -200824.68    1.6934598 -0.0051649979    65.173649    3286.1846 
 1520000   -200924.02     1.743798 -0.0026683512    65.013387    3298.9657 
 1525000   -200777.76    1.7132441 0.00093743124    65.080348    3311.7556 
 1530000   -200709.72    1.7105311 0.0019573583    65.050087     3324.545 
 1535000   -200922.83    1.7475512 0.0025098952    64.917879    3337.3467 
 1540000   -200820.13    1.7466006 -0.00048043821    65.049208    3350.1197 
 1545000   -200674.87    1.7639856 -0.0039368966     65.17733    3362.8788 
 1550000   -200837.99    1.7072018 -0.0035537886    65.037953     3375.704 
 1555000   -200800.26    1.7630395 -0.0019917138    65.092191    3388.4835 
 1560000   -200960.19    1.7422116 -0.0017009671    65.012855    3401.2496 
 1565000   -200756.96    1.7647553 0.0077589901     65.05926    3414.0658 
 1570000   -200901.04    1.7284038 0.0014106324    65.113576    3426.8458 
 1575000   -200889.31    1.7113582  0.002002694    65.075901    3439.6393 
 1580000   -200853.87    1.7654847 -0.00032351884    65.075849    3452.4353 
 1585000   -200769.31    1.7457646 -0.0022465466    65.152945    3465.1914 
 1590000   -200790.62    1.7183059 0.0039861066    64.952455    3478.0078 
 1595000   -200823.74    1.7454162 -0.0031867055    65.031599     3490.808 
 1600000   -200912.29    1.7163816 -0.00011414485    64.889966    3503.6357 
 1605000   -200828.74    1.6817462 -0.0037013338    65.011199    3516.4158 
 1610000   -200855.62    1.7068287 -0.0034739415    65.032702    3529.2158 
 1615000   -200813.19    1.7225215 -0.00069031415     64.98081    3541.9755 
 1620000   -200867.04    1.7771487 0.0027286548      64.9532    3554.8099 
 1625000   -200853.64    1.6918161 0.0029678465    64.954412    3567.6215 
 1630000   -200828.98    1.7079812 0.0036593006    64.997135    3580.4176 
 1635000   -200824.88     1.769023  0.001033113    65.106781    3593.1963 
 1640000   -200990.81    1.7234256 7.9463116e-05    65.040668    3605.9836 
 1645000   -200814.37    1.7926992 0.0011352835    65.160342    3618.7682 
 1650000   -200873.46    1.7389531 -0.0029209693    65.133756    3631.5753 
 1655000   -200651.19    1.7407221 -0.00090264754    65.203456    3644.3765 
 1660000   -200731.28    1.7674697 -0.0026393452    65.277735    3657.1194 
 1665000   -200740.88    1.7399342 -0.0030477526    65.309629    3669.9009 
 1670000   -200719.89    1.7625171 -0.0010113213    65.270466    3682.6501 
 1675000   -201072.38    1.7698919 -0.0016716353    65.173804    3695.4238 
 1680000   -200806.78    1.7582098  0.003921042    65.086517    3708.1872 
 1685000    -200887.9    1.7730535 0.0019972156    65.117798    3720.9754 
 1690000   -200818.08    1.7533079 0.0030629826    65.098774    3733.7521 
 1695000   -200949.88    1.7256444 -0.00016980482    65.205905    3746.5206 
 1700000   -200779.94    1.7390579 -0.00076342738    65.262078    3759.2737 
 1705000   -200716.17    1.7377952 0.00028995594     65.26943    3772.0542 
 1710000   -200845.59    1.7727841 -0.0027481603    65.207179    3784.8347 
 1715000   -200823.46    1.7248473 -0.00097185247    65.098798    3797.5927 
 1720000   -200939.13    1.7752263 -0.0015267589     65.11489    3810.3657 
 1725000   -200782.45    1.7107971 -0.0027344895    65.269354    3823.1468 
 1730000   -200796.71    1.7185262 0.0019691505    65.167719    3835.9228 
 1735000   -200905.33     1.784811  0.001308408    65.165499    3848.7237 
 1740000   -200989.59    1.7521615 -0.0016245271    65.185297    3861.5287 
 1745000   -200811.76     1.763815 -0.0016454403    65.241059    3874.2798 
 1750000   -200789.34    1.7843229 -0.0021307768    65.217385    3887.0327 
 1755000   -200766.67    1.7935023 -0.0019117215    65.243059    3899.8385 
 1760000   -200885.13    1.7376547 -0.001073174    65.244397    3912.6378 
 1765000   -200945.86     1.747074 -0.0025042521     65.27811    3925.4217 
 1770000   -200909.58    1.7898515 0.0039172913    65.232896    3938.1907 
 1775000   -200918.12    1.7484361 0.0021149988    65.186428    3950.9772 
 1780000   -200811.36    1.7559448 -0.0013141515    65.255372    3963.7519 
 1785000   -200969.68     1.733024  0.001579727    65.160313    3976.5558 
 1790000   -200790.99    1.7331902 0.0056520011    65.177278    3989.3455 
 1795000   -200934.81     1.753736 -0.00035935614    65.254261    4002.0976 
 1800000   -200913.22    1.7159372 -0.0037642379    65.249062     4014.878 
 1805000   -200753.92    1.7271745 -0.0051791899      65.3671    4027.6198 
 1810000   -200705.55    1.7463558 -0.0010264293     65.31864     4040.389 
 1815000   -200695.86    1.7369726 0.0012456959    65.276861    4053.1515 
 1820000   -200708.02    1.7357392 -0.00035852731    65.318755    4065.9612 
 1825000   -200801.42    1.7401053 0.0015975429    65.283059    4078.6939 
 1830000   -200654.42    1.7385723 -0.0024575389    65.395602    4091.4739 
 1835000   -200691.96    1.7459407 0.0061768731    65.175707    4104.2399 
 1840000   -200749.85    1.7386145 -0.00097769149    65.267553    4117.0032 
 1845000   -200731.11    1.7146151 -0.0047369815    65.278966    4129.7806 
 1850000   -200589.14    1.7228361  0.003569439     65.23787    4142.5685 
 1855000    -200789.5    1.7316319 0.00087415827    65.284981    4155.3203 
 1860000    -200825.3    1.7687386 0.0014618029    65.248975    4168.0791 
 1865000   -200873.26     1.719811 -0.0023497559    65.322275    4180.8491 
 1870000   -200906.89    1.7119219 -0.0020041339    65.260567    4193.6265 
 1875000   -200832.91    1.7002943 -0.0019182224    65.192841    4206.4088 
 1880000   -200818.16    1.7470751 0.0032668286    65.140684    4219.1689 
 1885000   -200667.28    1.7873468 0.0019357665    65.293444    4231.9718 
 1890000   -200947.26    1.7384168 0.0018581825    65.046928    4244.7443 
 1895000    -200829.8    1.7501471 -0.0011326512    65.221228     4257.526 
 1900000   -200735.85    1.7332759 -0.0013202256     65.29824    4270.2665 
 1905000   -200912.15    1.7187252 0.0022854997    65.123048    4283.0219 
 1910000   -200946.21    1.7462282 0.00077621302    65.174872    4295.8036 
 1915000   -200843.86    1.7418139 -0.00032470349    65.208696    4308.5616 
 1920000   -200894.67    1.7872334 0.00022596856    65.225988    4321.3723 
 1925000   -200798.43     1.741624 0.00065776685    65.255151    4334.1089 
 1930000   -201060.81    1.7604509 -0.0023543954    65.284395    4346.8956 
 1935000   -200902.88    1.7662155 -0.0019796241    65.291179    4359.6389 
 1940000   -201028.19     1.740874 0.00024506586    65.216113     4372.411 
 1945000   -200677.35    1.7402364 6.2927211e-05    65.251047    4385.1293 
 1950000   -200677.55    1.7083266 -0.00015657896    65.281161     4397.917 
 1955000    -201007.8    1.7173493 -0.00034359527    65.125222    4410.6704 
 1960000   -200786.87    1.7484617 0.0014506269    65.155408    4423.4388 
 1965000   -200935.12    1.6925929 -0.002198472    65.159371    4436.1961 
 1970000   -200819.02    1.7085553 -0.0049433769    65.259771    4448.9523 
 1975000   -200827.01    1.7415392 -0.002079174    65.174227    4461.7515 
 1980000   -200822.08    1.7522516 -0.0010123086    65.253553     4474.562 
 1985000   -200821.16    1.7497046 -0.0023152064    65.199063    4487.3218 
 1990000   -200787.88    1.7256569 0.00079348341    65.138277     4500.048 
 1995000    -200745.8    1.7531412 0.0056733361    65.095102     4512.842 
 2000000   -200626.98     1.769596 -0.0024667359    65.217171    4525.6038 
 2005000    -200701.2    1.8013065 0.0011409083    65.151613    4538.3944 
 2010000    -200805.2    1.7254838 -0.0034765761    65.183968    4551.1945 
 2015000   -200728.15    1.7405019 -0.00027459449    65.107745    4563.9678 
 2020000    -200740.8    1.7161621 0.0022517595    65.097063    4576.7597 
 2025000   -200610.77    1.7382813 0.0039774238    65.080262     4589.549 
 2030000   -200704.77    1.7245018 -0.0022489423    65.148705    4602.3438 
 2035000   -200805.36    1.7801984 0.0019901113    65.135374    4615.1114 
 2040000    -201067.3      1.72843 -0.0046260768    65.119447    4627.9058 
 2045000   -200921.46    1.7200376 -0.0025832137     65.20903    4640.7178 
 2050000   -200949.57    1.7507378 0.0021576308    65.106567    4653.5102 
 2055000   -200931.06    1.7931501 0.00081610225    65.118021    4666.3129 
 2060000   -201022.16    1.7471863 0.00014906964    65.135626    4679.1077 
 2065000   -200993.59    1.6876418 0.0023168486    65.048783    4691.8711 
 2070000   -200978.32    1.7710866 0.0051510823    64.979724    4704.6891 
 2075000   -200918.58    1.7650019 0.0010335642    64.965959    4717.5025 
 2080000   -200894.55    1.7091985 0.0012001689    65.098022    4730.3015 
 2085000    -200883.1    1.7831076 0.0011514808    65.180425     4743.082 
 2090000   -200918.19    1.8032123 0.0027070339    65.128397    4755.8597 
 2095000    -200753.6    1.7268583 -0.0055670148    65.232811    4768.6676 
 2100000   -200837.06    1.7095073 -0.00022682505    65.211727    4781.4612 
 2105000   -200854.64    1.7452278 0.0032419409    65.243296    4794.2319 
 2110000   -200724.99    1.7510585 0.0033319388    65.162153    4806.9708 
 2115000   -200777.08     1.763344 0.0034809186    65.044252     4819.727 
 2120000   -200923.07    1.7167411 0.0023226382    65.009361      4832.53 
 2125000   -200893.37    1.7091721 -0.0025405593    65.096696    4845.3337 
 2130000   -200881.76    1.7851881  0.001098231     65.07272    4858.0989 
 2135000   -200757.44    1.7392842 -0.0075281415    65.223159    4870.9074 
 2140000   -200785.91    1.7315482  0.002578278    65.130852     4883.675 
 2145000   -200720.44    1.7014679 7.3096408e-05    65.165602    4896.4462 
 2150000   -200940.52    1.7710516 0.0010272046    65.143199     4909.218 
 2155000   -200919.35    1.7074835 -0.00022403222    65.108893    4922.0038 
 2160000   -200837.94    1.7811822 -0.0012039145    65.106662    4934.7656 
 2165000   -201023.08    1.7053746  0.002808882    65.050024    4947.5411 
 2170000   -200994.54    1.7435651 -0.0026002064    65.021115    4960.3739 
 2175000   -200807.87    1.7562729 0.0049532006    64.951401    4973.1555 
 2180000   -200811.39    1.7509271 0.0016608899    64.982347    4985.9904 
 2185000   -200631.87    1.7116301 -0.0060922055    65.204609    4998.8061 
 2190000   -200814.08    1.6825376 0.0028517686    65.001834    5011.5985 
 2195000   -200727.66    1.7477832 0.00060285892    64.997803    5024.3784 
 2200000   -200950.29    1.6911946 -0.00022306569    64.964277    5037.1802 
 2205000   -200913.81    1.7462562 0.0035409809    64.939998     5049.945 
 2210000    -200775.2    1.7655043 -0.0026301854    65.147401    5062.7569 
 2215000   -200758.33    1.7651536 -0.0018590099    65.122064    5075.5767 
 2220000   -200909.91    1.6822836 0.0010178892    65.031333    5088.3793 
 2225000   -200892.66    1.6976919 0.00044557749    64.988745    5101.2085 
 2230000   -200984.15    1.7604029 -0.0026573985     64.96852    5114.0004 
 2235000   -201054.37    1.7267029 0.0069017141    64.832841     5126.797 
 2240000   -201069.28    1.7275345 0.0010786947    64.875885    5139.6111 
 2245000   -200977.63    1.7201627 0.00096071644    64.907005    5152.3768 
 2250000   -200943.77    1.7711386 -0.00092042311    64.917196    5165.1652 
 2255000    -200879.1    1.7534334 0.0018946788    64.984476    5177.9522 
 2260000   -200957.77    1.7369429 0.0016783631    64.965014    5190.7518 
 2265000   -200859.82    1.7390819 -0.0022538179    65.146141    5203.5781 
 2270000   -200753.11    1.7771643 -0.0069162867    65.189851    5216.3637 
 2275000   -200742.14    1.7174851 -0.0013829391    65.093128    5229.1527 
 2280000   -200908.23     1.781928 6.1088994e-05    65.156801    5241.9411 
 2285000   -200695.38    1.7061362 -0.0017123301    65.183184     5254.694 
 2290000   -200634.38     1.733726 -0.0033359393    65.216951    5267.4703 
 2295000   -200681.56      1.77658 0.0018313797    65.201398    5280.2266 
 2300000   -200733.48    1.7446778 -0.00023883861    65.137338    5293.0219 
 2305000    -200688.9    1.7006057 0.0043594072    65.101229    5305.7891 
 2310000    -200648.3    1.6909088 0.00069110976    65.038782    5318.5838 
 2315000   -200794.82    1.7160648 -0.0017389398    65.115597    5331.3582 
 2320000   -200814.11    1.7328756 -0.00077802663    65.002357    5344.1547 
 2325000   -200681.89    1.7323943 -0.00097886113    65.060437    5356.9562 
 2330000   -200790.61    1.7780411 0.0030772681    65.054673    5369.7736 
 2335000   -200846.42     1.707433 -0.0058591886    65.153766    5382.5702 
 2340000   -200989.59    1.7313751 0.00044633057    65.031178     5395.384 
 2345000    -200878.1    1.7183925 -0.0057451628    65.096357    5408.2147 
 2350000   -200842.56    1.7402935 -0.0023933079    65.183338    5421.0129 
 2355000   -200786.59     1.723596 0.0013774887    65.109197    5433.7738 
 2360000    -200889.4     1.745779 -0.002514305    65.232256    5446.5297 
 2365000      -200869    1.7489582 0.0036513067    65.098342    5459.3278 
 2370000   -200774.51    1.7518541 0.00070859208    65.112118    5472.1052 
 2375000   -200947.84    1.7551145 0.0037086642    65.030075    5484.8799 
 2380000   -200746.37    1.7861026 0.0020693824    65.164095    5497.6551 
 2385000   -200803.09    1.7377236 0.0046208033    65.079225    5510.4288 
 2390000   -200708.15    1.7588952 -0.00068519115    65.242213    5523.2173 
 2395000   -200912.83    1.7245192 -0.0019431274    65.249624     5535.977 
 2400000   -200884.89    1.7416089 -0.0006535563    65.148483    5548.7991 
 2405000   -200925.97      1.73211 -0.0047181165    65.211339    5561.5751 
 2410000   -200535.26    1.7523482 0.00059497183    65.104155    5574.3432 
 2415000   -200814.51     1.766019 -0.00056411569    65.109723    5587.1217 
 2420000   -200807.16    1.7182615 0.00033604633     65.14112    5599.8829 
 2425000   -200800.49    1.6976035 -0.0026431456    65.205992    5612.7312 
 2430000    -200725.3    1.7351081 -0.00053823255    65.147706    5625.4709 
 2435000   -200915.17    1.7644579 -0.0032017924    65.264409     5638.252 
 2440000   -200947.16    1.7742949 0.0019227048    65.203705     5651.043 
 2445000   -200926.43    1.7518878 0.0044796811    65.116608    5663.8078 
 2450000   -200804.14    1.7116124 0.0054613616    65.179913    5676.5642 
 2455000   -200954.72    1.7126125 -0.001014252    65.303682    5689.3357 
 2460000   -200737.84    1.7536701 -0.0044535398    65.305191    5702.0918 
 2465000   -200758.89    1.6737334 -0.00032186894    65.202052    5714.8621 
 2470000   -200817.08    1.7241065  0.001912251    65.088355    5727.6319 
 2475000   -200783.78    1.7131596  0.001825166    65.148497    5740.4082 
 2480000   -200836.82    1.7396481 -0.0015171429    65.207631    5753.1568 
 2485000   -200939.57    1.7221166 -0.0040926906    65.111076    5765.9837 
 2490000   -200775.34    1.7475563 0.0021355116    65.107862    5778.7717 
 2495000   -201008.85    1.7402799 -0.0013649343    65.099036    5791.6128 
 2500000   -201060.07    1.7916794 0.00047927766    65.041898    5804.3712 
 2505000   -200799.86    1.7269324 -0.0070221257    65.241955     5817.133 
 2510000   -200606.68    1.7636586 -0.0034915515    65.271558    5829.9155 
 2515000   -200798.99     1.750854 0.00041135398    65.131071    5842.7213 
 2520000    -200954.7    1.7295219 -0.0020092843     65.26362    5855.4768 
 2525000   -200869.12    1.7162173 -0.00013031678    65.146118    5868.2325 
 2530000    -200893.2     1.673289  0.001662045    65.086338    5881.0391 
 2535000   -200818.11    1.7733256 -0.0019549323    65.167642    5893.8063 
 2540000   -200831.34    1.7453999 0.0030872592    65.110063    5906.6075 
 2545000   -200753.34    1.7232067 -0.00010414846    65.113379    5919.3862 
 2550000   -200746.04    1.7546753 0.0025976827    65.046784    5932.1823 
 2555000   -200577.15    1.7412981 -0.0018311888    65.049683    5944.9678 
 2560000   -200839.56    1.7646074 -0.0018060083    65.136555    5957.7335 
 2565000   -200580.43    1.6984382 -0.0044129068    65.234346     5970.503 
 2570000   -200900.99    1.7983318 -0.0031732308    65.117447    5983.3551 
 2575000   -200797.13    1.6909438 -0.0073383224     65.21943     5996.146 
 2580000    -200683.4    1.7007498 0.0014883099    65.036575    6008.9612 
 2585000   -200895.89    1.7580836 0.0013583184     65.09336    6021.7477 
 2590000   -200744.55    1.7319348 0.0013213205    65.113552    6034.5491 
 2595000   -200715.34    1.7614198 0.00064562762    65.130194    6047.3172 
 2600000   -200789.12    1.6704309 0.0041283985    65.106914    6060.1045 
 2605000   -200793.56    1.7667672 0.0011322507    65.178745     6072.896 
 2610000   -200753.25    1.7148052 0.0011133453    65.111096    6085.7015 
 2615000   -200918.96    1.6976214 0.0012744381    65.074165     6098.469 
 2620000   -200702.99    1.7712738 0.0015097412    65.062707    6111.2542 
 2625000   -200731.76    1.6668414 -0.0031161806    65.158956    6123.9929 
 2630000   -200750.74    1.7356534 0.0014879563    65.235115    6136.7543 
 2635000   -200893.64     1.715271 -0.0014037595    65.098326    6149.5371 
 2640000   -200787.09    1.6878051 0.0010936001    65.216562    6162.3195 
 2645000   -200867.34    1.7500666 -0.00094765157    65.265877    6175.0635 
 2650000   -200793.21     1.757328 -0.0010242122    65.327474    6187.8287 
 2655000   -200887.72     1.762033 0.0010657234    65.345114    6200.6006 
 2660000   -200724.01    1.7345375 0.0011134856    65.224613     6213.383 
 2665000   -200739.22    1.7196468 0.0016863936    65.159869    6226.1777 
 2670000    -200773.7    1.7277951 -0.0024328392    65.246698    6238.9531 
 2675000   -200868.67    1.7271057 -0.0060335709    65.229828    6251.7207 
 2680000   -200911.19     1.757901 0.0032322368    65.210361    6264.5115 
 2685000   -200644.04     1.759111 0.0016904069    65.211502    6277.2762 
 2690000   -200463.06    1.7403521 6.1908396e-05    65.153169    6290.0866 
 2695000   -200719.53    1.7708693 0.00087882121    65.159807     6302.879 
 2700000    -200824.4    1.7749506 -0.0015990918    65.147227    6315.6223 
 2705000   -200563.17    1.7098032 -0.00038742714    65.225225    6328.3839 
 2710000   -200512.07    1.7218724 -0.0004322362    65.275352    6341.1679 
 2715000   -200717.55    1.7230602 -0.00054127203    65.160331    6353.9469 
 2720000   -200663.14     1.764227 0.0065314189    65.109202    6366.7256 
 2725000   -200675.22    1.7530551 -0.00016175339    65.212803     6379.467 
 2730000   -200883.34     1.713829 -0.00081564994    65.214763    6392.2362 
 2735000   -200777.24    1.7136764 -0.0039785263    65.246349     6405.017 
 2740000   -200524.04    1.7552326 0.0013131297    65.194261    6417.7669 
 2745000   -200881.52    1.7502041 0.0038632794    65.009432    6430.5504 
 2750000   -200844.85    1.7376169 -0.00073528502    65.077462    6443.3466 
 2755000   -200760.97    1.7805016 -0.0019715695    65.123308     6456.168 
 2760000   -200758.98    1.7348531 1.9431529e-05    65.074872    6468.9515 
 2765000   -200663.74    1.7865452 0.0014890082    65.102864    6481.7123 
 2770000   -200820.35    1.6947368 -0.0048945751    65.178519    6494.4921 
 2775000   -200935.96    1.7132804 0.0018648506    64.988231    6507.2922 
 2780000    -200976.5    1.7145173 -0.0030643698    65.092631    6520.0628 
 2785000   -200848.57    1.7477185 0.0022933669    65.047348    6532.8543 
 2790000   -200844.15    1.7473844 0.0030284192    65.055956    6545.5783 
 2795000   -200780.67    1.7456336  0.004327118    65.064616    6558.4106 
 2800000   -200769.68    1.6979083 -0.0050031042    65.183082      6571.19 
 2805000      -201020    1.7694906  0.001540884     65.10928    6583.9602 
 2810000   -200892.16    1.7779877 0.0028462606    65.116496    6596.7286 
 2815000   -200798.79    1.7614592 -0.0017806106    65.189416    6609.4958 
 2820000   -200681.96    1.7194075 -0.002861352    65.194748    6622.2647 
 2825000   -200792.15    1.7326816 0.0037684569    65.069523    6635.0742 
 2830000   -200733.24    1.7226268 -0.0047849667    65.249329    6647.8361 
 2835000   -200910.61    1.7279058 0.0016884065    65.172885    6660.5991 
 2840000    -200614.2    1.7254714 -0.00054487845    65.233914     6673.367 
 2845000   -200875.56    1.7244144 -0.0018020672    65.181191    6686.1475 
 2850000   -200741.25    1.7597799 -0.0020132028    65.281307    6698.9016 
 2855000    -200959.6    1.7130491 -0.0038515656    65.220691    6711.7194 
 2860000   -200799.83    1.7634519 0.0013873282    65.122929    6724.4815 
 2865000   -200822.85     1.745587 -0.00036034507    65.108884    6737.2508 
 2870000    -200889.7    1.7167321 -0.0026220627    65.119592    6750.0515 
 2875000   -200643.11     1.760815 -0.0011033724    65.110135    6762.8561 
 2880000   -200736.23    1.7155117 0.0020883092    65.144646     6775.592 
 2885000   -200782.05    1.7774572 0.0031403742    65.062328    6788.3937 
 2890000   -200926.65    1.7593217 0.00052750905    65.023358    6801.1554 
 2895000   -200765.45    1.7546073 0.0025365518    65.112447    6813.9546 
 2900000   -200649.73    1.7047139 -0.004413027     65.29367     6826.748 
 2905000   -200851.09    1.7379922 0.00075044499    65.286683    6839.5216 
 2910000   -200720.66    1.7304703 -0.012443864    65.451753    6852.3382 
 2915000   -200576.17    1.7958187 0.00089213805    65.217834     6865.091 
 2920000   -200790.72    1.8025948 -4.6516296e-05    65.156473    6877.8456 
 2925000   -200808.38     1.719292 0.0061864665    65.046859    6890.6108 
 2930000   -200788.73    1.7273494 -0.0013771026    65.222864    6903.4544 
 2935000   -200821.82    1.7480258 -0.0015786809     65.19067    6916.2594 
 2940000    -201026.6    1.7289623 0.0036790331    65.038882    6929.0472 
 2945000   -200887.65    1.6792551 -0.004514078    65.257529    6941.8529 
 2950000   -200918.09    1.7109232 -0.0013151869    65.191574    6954.6438 
 2955000   -200993.33    1.7626366 -0.000908587    65.133599     6967.445 
 2960000   -200807.44    1.7151235 -0.0023435028    65.234967    6980.2217 
 2965000   -200962.73    1.7843881 0.0052256447     65.07405    6993.0306 
 2970000   -200748.09    1.7217131 -0.00037827384     65.13968    7005.8421 
 2975000   -200851.79    1.7364803 0.0051421683    65.097586     7018.651 
 2980000   -200851.08    1.7382797 0.0009974552    65.072802    7031.4267 
 2985000   -200883.73     1.754173 -0.0020943572    65.121505    7044.2092 
 2990000   -200823.03    1.6880538 0.00056928631    65.044233    7056.9622 
 2995000   -200959.41    1.7749447 -0.0019639849    65.102513    7069.7474 
 3000000   -201031.32    1.7617598 0.0033223417     64.98689    7082.5267 
 3005000   -200788.78    1.7441822 0.0032074153    65.072301    7095.3192 
 3010000   -200805.33    1.7792832 -0.0020983666    65.129053    7108.0943 
 3015000   -200640.06    1.7611717 0.0053153233    65.067367    7120.8631 
 3020000   -200532.86    1.7469773 -0.00033121029    65.121031    7133.6862 
 3025000   -200756.99    1.7459346 0.0045212116     65.08347    7146.4247 
 3030000   -200760.88    1.7891222 0.0036052589    65.095433    7159.2149 
 3035000   -200738.39    1.7278576  -0.00392876     65.19502    7172.0238 
 3040000   -200736.59    1.7330464 0.0013913543     65.00707    7184.8081 
 3045000   -200723.42    1.7642778 -0.0011446574    65.080294     7197.613 
 3050000   -200807.72    1.7867511 0.0041447685    65.057127    7210.3865 
 3055000   -200751.15    1.7547818 -0.0021607171    65.197127    7223.1499 
 3060000   -200705.53    1.7445543 0.0037614442    65.107259    7235.9031 
 3065000    -200795.4    1.7424784 0.00099531778    65.107881    7248.6711 
 3070000   -200817.92    1.7049062 -0.0061858337    65.205269    7261.4902 
 3075000   -200906.32    1.7845732  0.001059845     65.07236    7274.3044 
 3080000   -200864.01    1.7691666 0.00071509589    65.072599    7287.1105 
 3085000   -200861.15      1.73465 -0.00048131295    65.083605    7299.9009 
 3090000   -200781.95    1.7422125 0.0012791071    65.049951    7312.7212 
 3095000   -200996.37    1.7494484 0.0015261775    65.072052    7325.4937 
 3100000   -200804.53    1.7381283 -0.00046031212    65.262184    7338.2737 
 3105000   -200836.42    1.7329194 0.0026943789    65.152348    7351.0787 
 3110000   -200831.81    1.7090924 -0.00010487727    65.180887    7363.8342 
 3115000   -200785.84    1.6958373 0.00090491255    65.154467    7376.6164 
 3120000   -200812.77    1.7259559 0.0030043469    65.044406    7389.3896 
 3125000   -200981.99    1.7540671 -0.00010136557    65.113888    7402.1608 
 3130000   -200821.55    1.7317179 0.0010670101    65.106368    7414.9332 
 3135000   -200748.56    1.7086642 -0.0011318507    65.158408    7427.6795 
 3140000      -200622    1.7281407 -0.0057154706    65.260801    7440.4832 
 3145000   -200784.88    1.7908406 -0.0052999606    65.198216    7453.2192 
 3150000   -200847.19    1.7237424 0.0019769035    65.060273    7466.0103 
 3155000   -200739.45    1.7306745 -0.0018023345    65.008989    7478.7997 
 3160000   -200922.83    1.7297727 -0.0052805613    65.064571    7491.6372 
 3165000   -200816.41    1.7188836 -6.8310488e-05    65.047327    7504.4282 
 3170000   -200899.85    1.7808052  0.001902766    65.044388      7517.26 
 3175000   -200826.45    1.7371245 -0.0045213667    65.204938    7530.0349 
 3180000   -200729.09    1.7601026 0.00084465893    65.151392    7542.7858 
 3185000   -200879.78    1.7400937 0.0022593928    65.084758    7555.5612 
 3190000   -200828.66    1.7298905 -0.0041411811    65.212226    7568.3458 
 3195000   -200718.85    1.7403586 0.0077373597    65.072944    7581.1187 
 3200000   -200776.01    1.7107289  0.002692003     65.19603    7593.9065 
 3205000   -200839.47    1.7919962 0.00069065491    65.188345    7606.6592 
 3210000    -200754.5    1.7381387 0.00071427283    65.383779    7619.3836 
 3215000   -200818.69    1.7522095 -0.00016698689    65.337034    7632.1016 
 3220000   -200871.62    1.7233953 -0.00015766491    65.315951    7644.8911 
 3225000   -201054.05    1.7332177 0.0033876889    65.321547    7657.6649 
 3230000   -200772.51    1.7023575 0.0027868907    65.303722    7670.4471 
 3235000   -200903.21    1.7841449 -0.001291786    65.332612    7683.1995 
 3240000   -200777.98    1.7396982 -0.0027306449    65.355718    7695.9581 
 3245000   -200867.22    1.7512583 -0.00042959158    65.218529    7708.7124 
 3250000   -200833.23    1.7372825 0.0042711284    65.243949    7721.4685 
 3255000   -200617.27    1.7366377 0.0076512796    65.106766    7734.2697 
 3260000   -201005.06    1.7986719 0.00066291261     65.22752     7747.038 
 3265000   -200808.48    1.7583641 -9.6464232e-05    65.331973    7759.7935 
 3270000   -200870.06    1.7254457 -0.0048236954    65.380712    7772.5831 
 3275000   -200628.63    1.7404826 -0.0020104806    65.297712    7785.3072 
 3280000   -200924.02    1.7390252 -0.0016196316    65.251422    7798.0936 
 3285000   -200871.14     1.799214 0.00024702554    65.176919    7810.8475 
 3290000   -200834.45    1.7706279 0.0034083069    65.094341      7823.58 
 3295000   -200759.92    1.6615339 0.0035393974    65.109188    7836.3291 
 3300000   -200729.43     1.727627 -0.00056135565    65.125165     7849.075 
 3305000   -200870.52    1.7736753 0.0036158098    65.014732    7861.8752 
 3310000   -200607.18    1.7221299 -0.0020554591    65.115631     7874.678 
 3315000   -200852.69      1.70181 0.0027193223    65.118718    7887.4633 
 3320000   -200817.19    1.7240782 -0.0033643486    65.224451    7900.2218 
 3325000   -200690.11    1.7347189 0.0015437341    65.125958    7912.9693 
 3330000   -200895.57    1.7801373 0.00047742873    65.153748    7925.7861 
 3335000   -200767.01    1.7876456 0.00045127506    65.201419    7938.5747 
 3340000    -200821.2    1.6813137 9.5872032e-05    65.155837    7951.3138 
 3345000   -200821.35    1.7330311 0.0016282894    65.127479    7964.0791 
 3350000   -200574.36    1.7239143 -0.00092339519    65.266564     7976.895 
 3355000   -200712.09    1.7487266 -0.00020890398     65.20768    7989.6801 
 3360000   -200763.85    1.7628238 0.00024889543    65.113658     8002.477 
 3365000   -200803.84    1.7210368 -0.0015987591    65.136866    8015.3202 
 3370000   -200972.25    1.7337922 0.00036646324    65.043341    8028.1285 
 3375000   -200847.87    1.7522794 0.0035217564    65.133233    8040.9768 
 3380000   -200840.81    1.6874549 -0.0023860252     65.29177    8053.7685 
 3385000   -201033.22    1.7957569 0.0019050476    65.228824    8066.4929 
 3390000   -200876.97    1.7349582 -0.0015688513    65.318308    8079.2426 
 3395000    -200883.2    1.7778802 0.00019990737    65.259145    8091.9842 
 3400000   -201047.88    1.7375742 -0.00025769843    65.219927     8104.777 
 3405000   -201048.96    1.7515037 -0.0037236665    65.199553    8117.5446 
 3410000   -200759.46    1.6839225 0.0020989098    65.246881    8130.3238 
 3415000   -200750.35    1.7307389 -0.00035087818    65.175724    8143.1406 
 3420000    -200935.2    1.7408688 -0.0010991476    65.134887    8155.9347 
 3425000   -201092.11    1.7706485 -0.0027766351    65.164957    8168.7148 
 3430000   -200783.86     1.750404 -0.00040898755    65.228627    8181.4968 
 3435000   -200817.63    1.7106282 0.0049072614    65.054171    8194.3108 
 3440000   -200935.93    1.7311236 -2.5686562e-05    65.094759    8207.0923 
 3445000   -200919.59    1.7818026 0.0012284227    65.099659     8219.915 
 3450000   -200711.51    1.7686906 -0.0018380022    65.195273    8232.7237 
 3455000   -200729.58    1.7632127 -0.0049525825      65.2535    8245.4944 
 3460000   -200851.41    1.7321349 0.0031064788     65.08445    8258.2921 
 3465000   -200804.44    1.7126947 -0.00030436049    65.196896    8271.0512 
 3470000   -200779.85    1.7639765 -0.0026813817    65.387776    8283.8104 
 3475000   -200817.14      1.73542 0.00090638972    65.424683    8296.5632 
 3480000   -200764.72    1.7587848 -0.0040830578    65.410959    8309.3164 
 3485000   -200656.79    1.7450364 0.00031551892    65.371386    8322.0538 
 3490000   -200636.93    1.6765802  0.001334545    65.340749    8334.7875 
 3495000   -200874.15     1.709132 0.0039269863    65.171729    8347.5365 
 3500000   -201032.33    1.7348071 -0.0029694832    65.272297    8360.2864 
 3505000    -200789.3    1.7708227 -0.0063235537    65.385274    8373.0602 
 3510000   -200754.28    1.7343831 -0.002780199    65.270738    8385.8338 
 3515000   -200750.67    1.7658272 0.00086529015     65.16635    8398.5908 
 3520000    -200923.6     1.698989 0.00072870238    65.052609    8411.3688 
 3525000   -200628.73    1.6831035 -0.0042813557       65.208     8424.169 
 3530000   -200793.08    1.7687457 -0.00081172911    65.168586    8436.9547 
 3535000   -200835.17    1.7142635 -6.7928587e-05    65.065773    8449.7224 
 3540000   -200697.03    1.7882442 -0.0032242824    65.229158    8462.5175 
 3545000    -200625.7    1.6979911 0.00023201811    65.231222    8475.2984 
 3550000   -200915.89    1.7242448 0.0047071433    65.075366     8488.089 
 3555000   -200902.06      1.74554 -0.0037217189    65.298003    8500.8589 
 3560000   -200926.36    1.7563653  0.003755943    65.171916    8513.5861 
 3565000   -200738.71    1.7208675 -0.0037158058    65.279221    8526.3346 
 3570000   -200706.69    1.7340028 0.0027647643    65.264504    8539.0901 
 3575000   -200708.56    1.7956685 -0.00087691031     65.24916    8551.8342 
 3580000   -200666.45    1.7229897   -0.0051536    65.344607    8564.5693 
 3585000   -200720.83    1.7454246 0.0024620966    65.190353    8577.3422 
 3590000   -200738.36    1.6903815 0.0037310687    65.169617    8590.0568 
 3595000   -200901.74    1.7397363 -0.0030168894    65.253895    8602.8674 
 3600000   -200935.02     1.733984 0.0010365453    65.007971    8615.6488 
 3605000   -200896.19    1.7572158 0.00082869804    65.105099     8628.455 
 3610000   -200739.13    1.7917575 -0.0036037148    65.301394    8641.2263 
 3615000   -200778.07    1.7533391 -0.0047369909    65.259332    8653.9685 
 3620000   -200761.43    1.7202535 0.0030449078    65.240655    8666.7457 
 3625000    -200705.5    1.7192082 0.0021540481    65.326635    8679.4757 
 3630000   -200801.15    1.7649656 -0.0021246552    65.443934    8692.2349 
 3635000   -200820.13    1.7323963 -0.0017162852    65.450576    8704.9722 
 3640000    -200718.8    1.7445889 0.00086794577    65.397778    8717.6852 
 3645000   -200568.89    1.8003117 -0.0016059039    65.390806    8730.4164 
 3650000   -200849.37    1.7420093 0.0066141997    65.225026    8743.1746 
 3655000   -200642.09    1.7236564 -0.0030567893    65.350555    8755.9518 
 3660000   -200789.05    1.7016969 -0.00066488035    65.196132    8768.7145 
 3665000   -200856.14    1.7423706 -0.0013152792    65.240764    8781.4754 
 3670000   -200884.09     1.775704 0.0027785366    65.137575    8794.2219 
 3675000   -200593.22    1.7720415 0.0030398261    65.175312    8806.9674 
 3680000   -200743.27    1.7444972 -0.0038002759    65.310333    8819.7076 
 3685000   -200843.84    1.7592307 -0.0028867318     65.30645    8832.4725 
 3690000   -200740.07    1.7307641 -0.0066109565    65.299467    8845.2305 
 3695000   -200845.93    1.7119889 -0.0035982148    65.159192    8857.9824 
 3700000   -200899.41    1.7221933 0.0024283035    65.181031    8870.7683 
 3705000   -200889.77    1.7747129 0.0040708884    65.067745    8883.4985 
 3710000   -200864.79    1.7079574 0.00016469812    65.234734    8896.2975 
 3715000   -200910.14    1.7406719 -0.0011490846    65.255974    8909.0631 
 3720000   -200814.66    1.7344618 0.0046083514    65.110606    8921.8672 
 3725000   -200769.56     1.761749 0.0051117138    65.173884    8934.6647 
 3730000   -200849.96    1.7148654 0.0020632824    65.184417    8947.4494 
 3735000   -201014.79    1.7248228 -0.0073545796    65.286449     8960.206 
 3740000   -201043.04    1.7128366 0.00096186776    65.073398    8973.0007 
 3745000   -200990.96      1.71606 -3.5245114e-05    65.109096    8985.7465 
 3750000   -200880.99    1.7775716 0.0036381914     65.09536    8998.5528 
 3755000   -200858.82    1.7513524 0.0048251151    65.089171    9011.3209 
 3760000   -200811.97    1.7697234 -0.002736186    65.181103    9024.1158 
 3765000   -200792.58     1.728837  0.001855392    65.174702    9036.8946 
 3770000    -200800.8    1.7195444 0.0012563984    65.144575    9049.6648 
 3775000      -200718    1.7541177 0.00011475154    65.214571    9062.4419 
 3780000   -200676.89    1.7322981 0.0044545139    65.117801    9075.2207 
 3785000   -200618.18    1.6929969 0.0043665486    65.094786     9088.012 
 3790000   -200658.58    1.7594658 -0.0043303748    65.204386     9100.744 
 3795000   -200653.24    1.7068899 0.00058513408    65.089054    9113.5056 
 3800000   -200874.82    1.7902622 0.0049559875     64.95983    9126.3152 
 3805000   -200806.01    1.7431099 -0.00041063158    65.201666    9139.0647 
 3810000   -200680.74    1.7141868 -0.00013992109    65.223637    9151.8344 
 3815000   -200558.99    1.7560173 -0.0076925754    65.399148    9164.6233 
 3820000   -200790.63    1.7367999 0.0041332149    65.136559    9177.3878 
 3825000   -200670.45    1.7286882 -0.0016845465    65.251608    9190.1856 
 3830000   -200507.66    1.7153398 0.0013234217    65.262613     9202.951 
 3835000   -200731.72    1.7440819 0.00092362844    65.206669    9215.7078 
 3840000   -200869.69    1.7589526 0.0036387051    65.146827    9228.4495 
 3845000   -200831.41    1.7484366 0.0024763098    65.062831    9241.2241 
 3850000   -200844.38    1.7514461 -0.0017704194    65.005895    9253.9928 
 3855000   -200765.81    1.7742504 -0.0022154055    65.060118    9266.7692 
 3860000   -200480.12    1.7491543 0.0060400277    65.019354    9279.5811 
 3865000   -200556.15    1.7572923 0.00087912562    65.154773    9292.3874 
 3870000   -200575.52    1.8123825 0.0017135867    65.150116     9305.164 
 3875000   -200610.23    1.7095284 -0.002148474       65.205    9317.9486 
 3880000   -200811.77    1.7697129 -0.0015798905    65.114421    9330.7074 
 3885000   -200875.08    1.7288615 -0.0018761407    65.150514      9343.45 
 3890000   -200833.72    1.6721638 0.00043485831    65.170787     9356.195 
 3895000   -200997.83     1.706338 0.0021123891    65.129931      9368.94 
 3900000   -200683.85    1.7296065 0.0025925193    65.179957    9381.7318 
 3905000   -201033.77    1.7518357 0.0030568651    65.088217    9394.4781 
 3910000   -200774.28    1.7246641 -0.0039996011    65.223071    9407.3106 
 3915000   -200895.03    1.6888065 -0.0019867802     65.11564    9420.0706 
 3920000   -200874.99    1.7515541 -2.6841532e-05    65.067745    9432.8649 
 3925000    -200762.9    1.7200661 0.0015343976    65.060337     9445.658 
 3930000   -200807.87    1.7351859 -0.0027138639    65.106695     9458.394 
 3935000   -200765.13    1.7234868 -0.0058968566    65.137575    9471.2033 
 3940000   -200771.84    1.7267716 -0.0028387844    65.054984    9484.0294 
 3945000   -200747.71    1.7201072 -0.0031606905    65.126528    9496.8173 
 3950000   -200735.16     1.713613  0.004808346    65.037859    9509.6175 
 3955000   -200829.58      1.71697 -0.0060418732    65.197114     9522.405 
 3960000   -200780.92    1.7374223 -8.4700242e-05    65.178417     9535.193 
 3965000   -200851.42    1.7544753 -9.5433765e-05    65.094114    9547.9795 
 3970000   -200820.04    1.7180401 -0.0005642324    65.127518    9560.7311 
 3975000    -200857.2    1.7300789 -0.0057832412    65.161937    9573.5055 
 3980000    -200584.2    1.7260019 0.0016668927    65.034472    9586.2752 
 3985000   -200711.79    1.7736123 0.0027720743    65.030298    9599.0963 
 3990000   -200722.81    1.7385337 0.00084281836    65.026875    9611.9038 
 3995000   -200730.44    1.7506251 0.0020082344    65.129069    9624.6986 
 4000000   -200938.36    1.7558453 -0.0034618924    65.161539    9637.5047 
 4005000    -200780.5    1.7802151 -0.0034022491    65.144743    9650.3646 
 4010000   -200976.08    1.7227316 -0.00052124304    64.966192    9663.1475 
 4015000   -200685.93    1.7509778 0.0047799159    65.016935    9675.9795 
 4020000   -200706.66    1.7576507 0.0049083648    64.953672    9688.7911 
 4025000   -200840.16    1.7486724 -0.0013986518    65.065397    9701.5735 
 4030000   -200720.93    1.7563828 -0.002108298    65.109548     9714.346 
 4035000   -200727.54    1.7236601 -0.0064385659    65.261177    9727.1424 
 4040000    -200735.2    1.7072708 -0.0029596753    65.171331    9739.9211 
 4045000   -200838.23    1.7189573 0.00037437379    65.167391    9752.7182 
 4050000   -200619.03    1.7495414 0.0025107139     65.16582    9765.5089 
 4055000   -200793.47    1.7058549 0.0051369293    65.075659    9778.2979 
 4060000   -200821.69    1.7503841 -0.0029536966    65.247203    9791.0927 
 4065000   -200945.85    1.7502509 0.00090804755    65.176464     9803.837 
 4070000   -200990.43    1.7851004 -0.00053000194    65.176289    9816.6212 
 4075000   -200918.45    1.7405939 -0.00094980647    65.170253    9829.3956 
 4080000    -200865.9    1.7205207 -0.00062433343    65.269987     9842.157 
 4085000   -200855.26    1.7388868 0.0025425278    65.230781    9854.9129 
 4090000   -200764.04    1.7796862 0.00096533653    65.210293    9867.6562 
 4095000   -200864.29    1.7103709 -0.0011279473    65.316806    9880.4928 
 4100000   -200735.69    1.7813479  0.001652974    65.286104    9893.2531 
 4105000    -200817.1    1.7917842 0.0016570086    65.278044    9906.0186 
 4110000   -200520.55    1.7621158  0.006303882    65.110118    9918.7731 
 4115000   -200738.56    1.7485676 0.0040594013      65.1761    9931.5617 
 4120000   -200805.72    1.7280217 -0.0012610121    65.246687    9944.2922 
 4125000    -200594.3    1.7667527 0.00067797334    65.252074     9957.069 
 4130000    -200628.4    1.7044116 -0.0045846984    65.368972    9969.8207 
 4135000   -200856.94    1.7195226 -0.0042307846    65.300583    9982.6051 
 4140000   -200747.87    1.7365992  0.002126972    65.167261      9995.38 
 4145000    -200741.3    1.7690207 0.0034702228    65.101634     10008.17 
 4150000   -200949.44    1.7435382 -0.00043025939    65.208608    10020.932 
 4155000   -200800.39    1.7176393 -0.003503455    65.374632    10033.666 
 4160000   -200815.13    1.7176591 -0.0028322637    65.365343    10046.408 
 4165000   -201063.08    1.7254898 0.00054181177    65.168253    10059.148 
 4170000   -200772.62    1.6996249 0.00054143205    65.167565    10071.893 
 4175000   -200779.65    1.7459237 -0.0012779182    65.204412    10084.696 
 4180000   -200899.34    1.7492446 0.0022926163    65.140023    10097.454 
 4185000   -200851.74     1.718192 0.00017529677    65.143947     10110.23 
 4190000   -200707.62      1.65331 0.0043062304     65.07688    10123.013 
 4195000   -200829.14    1.7804002 0.0026853117    65.167673    10135.802 
 4200000   -200825.79    1.7408703 -0.00031364891    65.184687    10148.569 
 4205000   -200909.03    1.7561952 0.00051028095     65.12197    10161.328 
 4210000   -200883.58    1.7071158 0.0014886714    65.117958    10174.114 
 4215000   -200836.52    1.7447785 0.0015395527    65.273885    10186.874 
 4220000   -200693.55    1.7310083 -0.0016715448    65.260879    10199.621 
 4225000   -200855.96     1.745975 -0.0013941356    65.178619    10212.382 
 4230000   -200879.87    1.7151973 0.0022080633    65.164464    10225.116 
 4235000    -200706.5    1.7098091 0.00030181607    65.163571    10237.908 
 4240000   -200842.88    1.7520086 2.1464766e-05    65.136677     10250.69 
 4245000   -200811.17    1.7144111 -0.0038436882    65.203251    10263.474 
 4250000   -200801.68    1.7272179 0.00043235381    65.132765    10276.258 
 4255000   -200714.76    1.7006254 0.0012005085    65.198198     10289.01 
 4260000   -200908.37    1.7432933 -0.00019863233    65.121037    10301.813 
 4265000   -200727.31    1.7170516 0.0039414936    65.167243    10314.608 
 4270000   -200937.85    1.7318446 0.0031158358    65.071625    10327.384 
 4275000   -200877.73    1.7068514  0.001594511    65.261437    10340.167 
 4280000   -200888.19    1.7654868 -0.0031626249    65.280517    10352.938 
 4285000   -200898.33    1.7025009 -0.00056113918    65.163144    10365.739 
 4290000   -200974.74    1.7395641 0.00061153981    65.162552    10378.522 
 4295000   -200864.83    1.7298726 0.0038397911    65.119687     10391.29 
 4300000   -200623.43    1.7177135 0.0021886163    65.162111    10404.098 
 4305000   -200673.25    1.7728342 0.0045403353    65.132881    10416.874 
 4310000    -200689.2     1.745052 -1.1769275e-05    65.327821    10429.713 
 4315000   -200862.31    1.7339843 -0.0009281095    65.356728    10442.506 
 4320000   -200833.17    1.7206857 0.0043489628    65.244673    10455.248 
 4325000   -200698.18    1.7667952 -0.0037000237    65.470568    10468.016 
 4330000   -200909.24    1.7314039 0.0004919071    65.365051    10480.801 
 4335000   -200865.77    1.7258953 0.0018980098    65.216833     10493.54 
 4340000   -200769.07    1.7983386 0.0035534417    65.196086    10506.297 
 4345000   -200786.26    1.7285086 0.00074821083    65.191596    10519.057 
 4350000   -200955.61    1.7267888 0.00023668243    65.195308    10531.808 
 4355000    -200977.2    1.7750491 0.0031953778    65.210095    10544.557 
 4360000   -201035.17    1.7653779 -0.0021516591    65.243029    10557.328 
 4365000   -200841.93    1.7620663 -0.00065163996    65.254752    10570.086 
 4370000   -200767.29    1.7333001 0.0011047971    65.252869    10582.849 
 4375000   -200864.36    1.7212027 -0.0003245702    65.221619    10595.621 
 4380000   -200794.09    1.7474606 0.0011740863     65.14865    10608.376 
 4385000   -200906.67    1.6974218  -0.00446562    65.317892    10621.107 
 4390000   -200958.53    1.7261272 0.0012936375    65.225554     10633.89 
 4395000   -200988.41    1.6981658 0.0047598135    65.189857    10646.678 
 4400000   -200834.99    1.7749382 0.0011315469    65.258256    10659.396 
 4405000   -200585.03    1.7405036 -0.0023312561    65.322211    10672.199 
 4410000    -200733.7    1.7519728 -0.0027682926    65.345494    10684.936 
 4415000   -200864.83    1.6885871 0.0021832511    65.243165    10697.664 
 4420000    -200586.1    1.7867084 0.00044658983    65.346154    10710.428 
 4425000   -200616.19    1.7818835 -0.00065408476    65.357775    10723.198 
 4430000   -200821.09    1.7362569 -0.00034465113    65.330213    10735.952 
 4435000   -200837.48    1.7297449 0.00085628182    65.246338    10748.672 
 4440000    -200727.2     1.715058 0.0015522076    65.361199    10761.452 
 4445000   -200918.97    1.7295293 0.00059115223     65.19578    10774.199 
 4450000   -200861.13    1.7493916 0.0015466273    65.272051    10786.984 
 4455000   -200908.84    1.7389615 -0.0032705194    65.267114    10799.777 
 4460000   -200863.81    1.7196718 0.0062810028    65.138195    10812.545 
 4465000   -200749.84    1.7362978 -0.0014796814    65.262583    10825.312 
 4470000   -200678.35    1.7074458 -0.00022355288    65.244882    10838.088 
 4475000   -200876.93    1.7545917 0.0029211675    65.143903    10850.865 
 4480000   -200894.34     1.763336 -0.00051766551    65.263935    10863.625 
 4485000   -200869.22    1.7421659 -0.00077476872    65.292019    10876.386 
 4490000   -200852.93    1.7016581 -0.0030666854    65.324782    10889.139 
 4495000   -200983.13    1.7527361 -0.0028749461    65.269734    10901.927 
 4500000   -200960.14    1.7306959 0.00096057417    65.318459    10914.726 
 4505000   -200906.75    1.7339594 -0.0024712682    65.262093    10927.476 
 4510000   -201117.89    1.7202348 -0.00072492849    65.106332    10940.288 
 4515000   -201072.41    1.7969378 0.00021155334    65.143375    10953.073 
 4520000   -201037.33    1.7304873 0.00023908755    65.087285    10965.821 
 4525000   -200802.35    1.7482257 0.0060644847    65.060937    10978.577 
 4530000   -200869.95    1.7337252 -3.7525679e-05    65.128065    10991.365 
 4535000   -200946.97     1.732957 0.0037059245    65.025667    11004.145 
 4540000   -200849.93    1.7251014 -0.0001344092    65.044023    11016.964 
 4545000   -200732.29    1.7111663 0.0066219946     64.99283    11029.741 
 4550000   -200721.25    1.7634046 0.00080303734    65.097006    11042.505 
 4555000   -200833.17    1.7357045 -0.0031839913    65.100118    11055.319 
 4560000   -200735.98    1.6758862 -0.0028649487    65.135018    11068.124 
 4565000   -200959.15    1.7089248 -0.0017478949    65.214351    11080.928 
 4570000   -200830.98    1.7633854  0.009440003     65.02457    11093.747 
 4575000   -200901.72    1.6911633 7.2519442e-05    65.139927    11106.506 
 4580000   -200763.52    1.7101705 -0.00036404745    65.260729    11119.282 
 4585000   -200756.99    1.7853412 -0.0070585888    65.357776    11132.065 
 4590000    -200875.9    1.7581092 -0.0012654442    65.232982    11144.845 
 4595000   -200811.97     1.698464 -0.00046103813    65.376078    11157.623 
 4600000   -200870.02    1.7077641 -0.0029988656    65.446537    11170.367 
 4605000   -200943.62    1.7530958 -0.0023170754    65.404563     11183.14 
 4610000   -201002.78    1.7230953 0.00098296138    65.308201     11195.94 
 4615000   -200736.09    1.7744075 -0.0026141032    65.419011    11208.692 
 4620000    -200889.3    1.7474945 -0.0027265766    65.344466    11221.424 
 4625000    -200996.5    1.7446724 0.0006769178    65.229522    11234.169 
 4630000    -200673.8    1.7255287 -0.0012306459    65.286653     11246.93 
 4635000   -200880.89     1.744101 -0.0017664233    65.202435    11259.691 
 4640000   -200843.01    1.7205655 0.0040522905     65.16601    11272.476 
 4645000   -200758.41     1.731473 -0.0030545649    65.280463    11285.257 
 4650000   -200760.81    1.7590053 -0.00052158542    65.205465    11297.992 
 4655000   -201010.14    1.7432384 0.0027057175    65.089028      11310.8 
 4660000   -200828.67    1.7170806 -0.00073873202     65.19842    11323.564 
 4665000   -200651.11    1.7392577 0.00028239941    65.237329     11336.35 
 4670000   -200877.55    1.7528922 0.0017982269    65.202282    11349.138 
 4675000   -200870.57    1.7412526 0.0011252256    65.192523    11361.949 
 4680000   -200830.64     1.704853 -0.00057861128    65.231396    11374.691 
 4685000    -200803.9    1.7524374 0.0052236253    65.192809    11387.494 
 4690000   -200867.37    1.7529401 -0.00093671664     65.21516    11400.292 
 4695000   -200940.57    1.7327395 0.0016912237    65.104628    11413.102 
 4700000    -200731.3    1.7729534 -0.00026232593    65.167782    11425.892 
 4705000   -200880.83    1.7388629 0.00062523812    65.074885    11438.671 
 4710000   -200850.15    1.7264753 -0.0019770074    65.103367    11451.471 
 4715000    -200888.9    1.7491328 0.0016765056    65.034433    11464.292 
 4720000   -200860.79    1.7154282 -0.0011064038    65.128436    11477.054 
 4725000   -200653.36    1.7415456 0.00017363397    65.172936    11489.834 
 4730000   -200842.93    1.7293186 -0.0058115785    65.252992    11502.648 
 4735000   -200921.14    1.7006339 -0.00094861358    65.142619     11515.46 
 4740000   -200929.57    1.7303371 0.0025381792    65.010123     11528.27 
 4745000   -200874.65    1.7126653 -0.0060824422    65.245215    11541.051 
 4750000   -200819.81    1.7373218 -0.0027314952    65.142804    11553.861 
 4755000   -200996.28    1.7897558 0.0042701665    64.982858     11566.65 
 4760000   -201191.17    1.7408622 0.0021669666    64.976164    11579.469 
 4765000   -200909.77    1.7471256 -0.0039995478    65.139571    11592.343 
 4770000   -200736.55    1.7459591 0.00090577437    65.130398    11605.115 
 4775000   -200786.27    1.7390521 -0.0016829191    65.115024    11617.916 
 4780000   -200734.19    1.7243299 -0.0052087265    65.187248    11630.751 
 4785000   -200557.84    1.7476719 0.0013413539    65.145638    11643.538 
 4790000   -200840.38    1.7822543 0.0047001633    65.085199    11656.343 
 4795000   -200787.94    1.7746788 -2.4694109e-05    65.244321    11669.085 
 4800000   -200709.39     1.740963 0.00018039291    65.216445    11681.865 
 4805000   -200815.29    1.7174233 0.0034875699     65.16315    11694.665 
 4810000   -200809.45    1.7505859 0.0025193248    65.159006    11707.459 
 4815000   -200764.62    1.7042002 -0.0010273821    65.320811      11720.2 
 4820000   -200712.45    1.7863186 0.00090966322     65.27865    11732.954 
 4825000   -200799.97    1.7290111 0.0038142959    65.232614    11745.729 
 4830000   -200767.32    1.6843089 -0.00093958906    65.221376    11758.525 
 4835000   -200640.75    1.7600382 3.6872102e-05    65.101502    11771.287 
 4840000   -200882.21    1.7435565 0.00063628511    65.007135    11784.088 
 4845000   -200715.66    1.7760856 -0.002309794    65.169411     11796.88 
 4850000   -200788.07    1.8127531 0.00032724121    65.106933    11809.675 
 4855000   -200762.43     1.760177 -0.0027769902    65.185594    11822.501 
 4860000   -200928.21    1.7958308 -0.0031223947    65.211942    11835.283 
 4865000   -200839.82    1.7595603 0.00065643618     65.03389    11848.089 
 4870000   -200804.98     1.669818 -0.004067028    65.112749    11860.892 
 4875000   -200618.97    1.7715817 -0.0021111693      65.2174    11873.652 
 4880000   -200672.74     1.727577 0.00044273377    65.144385    11886.418 
 4885000   -200786.46    1.6731686 -0.00076437242    65.144382    11899.177 
 4890000   -200834.58    1.7358069  0.001934702    65.092094    11911.957 
 4895000   -200614.94    1.6894344 0.0037750227    65.141546    11924.706 
 4900000   -200934.91    1.7097999 0.00021821684    65.151491    11937.484 
 4905000   -200778.28    1.7527908 -0.0030088887    65.215157    11950.251 
 4910000   -200781.92    1.7399234 0.00022946194    65.174684    11963.002 
 4915000   -200712.14    1.7574142 -0.0028339677    65.248245    11975.773 
 4920000   -200776.52    1.7196085 -4.7247102e-05    65.098034    11988.567 
 4925000   -200905.21    1.7617565 0.0044734494     64.98671    12001.372 
 4930000   -200970.49    1.7885252 0.0023161879    65.005935    12014.189 
 4935000   -200871.81    1.7519279 3.9777921e-05    65.059919    12026.999 
 4940000   -200743.44    1.7572728 0.0045030014    65.059275    12039.794 
 4945000   -200599.68    1.7591766 -0.001128239    65.142367    12052.586 
 4950000   -200826.87    1.7327419 -0.00033274569    65.062971    12065.371 
 4955000   -200961.18      1.72355 0.00011084842    65.007373    12078.131 
 4960000   -200921.14    1.7015087 0.00043602888    64.991564    12090.906 
 4965000   -200946.32    1.7435643 -0.0024575516    65.187559    12103.701 
 4970000   -200788.26    1.7645737 0.0028857025    65.055828    12116.474 
 4975000   -200665.75    1.7281318 0.00089877451    65.106379    12129.258 
 4980000   -200587.14    1.6961919 0.0059949459    65.053714    12142.099 
 4985000   -200684.27    1.7135947 -0.0066755772    65.331186    12154.906 
 4990000   -200940.27    1.6679716 -0.0012815635    65.158193    12167.655 
 4995000   -200876.37    1.6912486 0.0022170351     65.17319    12180.443 
 5000000   -200961.89    1.7166338 0.0019625047    65.166577    12193.245 
 5005000   -200652.63    1.7217602 -0.0056218004    65.363717    12206.001 
 5010000   -200796.29    1.7350714 -0.0008759694    65.282811     12218.76 
 5015000   -200676.61    1.7211796 -0.00064958867    65.329556    12231.506 
 5020000   -200809.25    1.7522825 -0.0065189858    65.319091    12244.279 
 5025000   -200801.93    1.7318178 0.00070593309    65.285989     12257.07 
 5030000   -200848.94    1.7291768 -0.0053399936    65.411673    12269.816 
 5035000   -200726.37    1.7264763 -0.0022640812     65.40898    12282.568 
 5040000   -200803.64    1.8080645 -0.00053350583    65.406604    12295.292 
 5045000   -200827.93     1.709857 0.0016072023    65.274441    12308.006 
 5050000   -200830.49    1.7212769 4.5064797e-05     65.29601    12320.755 
 5055000   -200859.46    1.6945433 0.00085951407    65.334086    12333.488 
 5060000   -200728.95    1.7039369 -0.0063420103    65.514917     12346.24 
 5065000   -200717.24    1.7369666 -0.0021942254    65.302125    12358.986 
 5070000   -200951.42    1.7826883 -0.0019055857    65.314217    12371.751 
 5075000   -200850.54    1.7515283 -0.0024109897    65.370608     12384.49 
 5080000   -200805.44    1.7590039 -0.0013567613    65.379951    12397.276 
 5085000   -201109.99    1.7159461 0.00050518455    65.315142    12410.018 
 5090000   -200924.27     1.758005 0.0058918521    65.250709    12422.764 
 5095000   -200911.46    1.7544897 -0.00065212136    65.319175    12435.534 
 5100000   -201005.04    1.7251212 -0.00071222725    65.253261    12448.332 
 5105000   -200975.75    1.7411487 -0.0017639848    65.115669    12461.115 
 5110000   -200704.23     1.809319 -0.0020865278    65.285225    12473.865 
 5115000   -200819.04    1.7412375 0.0019708044    65.160359    12486.669 
 5120000   -201026.39    1.7527231 -0.0025000158    65.244763    12499.452 
 5125000   -200968.51    1.7870615  0.001044727    65.273967    12512.196 
 5130000    -201164.6    1.7472818 -0.0030306163    65.169595    12524.941 
 5135000   -201034.69    1.7433609 0.0050025461    65.105805    12537.728 
 5140000   -200912.89    1.7227503 -0.00031380918    65.104961    12550.521 
 5145000   -200998.39    1.7669856 0.0018352981    65.160738    12563.276 
 5150000   -200672.12    1.7305072 0.0032076258    65.153709    12576.034 
 5155000   -200753.04    1.7268801 -0.0014159746    65.014422    12588.834 
 5160000   -200945.48    1.7221483 0.0025825436    64.910348    12601.646 
 5165000   -200836.87    1.7544688 0.0098464412    64.956822     12614.47 
 5170000   -200920.03    1.7284679  0.008187435    64.959003    12627.321 
 5175000   -200850.86    1.7382441 0.0011021173    65.058003    12640.113 
 5180000   -201033.49    1.7130174 0.0041355607    64.957473    12652.958 
 5185000   -200710.83    1.7619099 -0.0015190782     65.10691    12665.758 
 5190000   -200744.81    1.6947387 -0.0024007149    65.168908    12678.535 
 5195000   -200733.22    1.7295427 -0.00066394269    65.224348    12691.311 
 5200000   -200824.46    1.7509344 0.0010406288    65.180821    12704.104 
 5205000   -200800.53    1.7283649 -0.003132317    65.157796    12716.878 
 5210000   -200699.98    1.7330796 -0.003857885    65.191686    12729.633 
 5215000   -200936.94    1.7311262 3.2409128e-05    65.123193     12742.43 
 5220000   -200859.08    1.7769663 -0.006953193    65.283809    12755.209 
 5225000   -200846.55    1.7851844 0.0017636731    65.112018    12767.984 
 5230000   -200951.44     1.718205 0.0050921873    65.003858    12780.759 
 5235000   -200776.46     1.753646 -0.00049343459    65.109334    12793.528 
 5240000   -200960.09    1.7210549 0.0024162844    65.047499      12806.3 
 5245000   -200975.68    1.7721703  0.004459819    65.087002    12819.098 
 5250000   -200787.47    1.7992403 0.0020903616    65.258576    12831.837 
 5255000   -200671.16    1.7481526 -0.0032134562    65.290993    12844.579 
 5260000   -200829.32    1.7077061 0.0029856581    65.193911    12857.348 
 5265000   -200781.53    1.7463628  0.002601872    65.230206    12870.098 
 5270000   -200697.61    1.7271523 -0.0010049183    65.342219    12882.854 
 5275000   -200707.64    1.7588345 -0.0019347618    65.406295    12895.638 
 5280000   -200853.78    1.7083098 0.0017813936    65.296368     12908.39 
 5285000   -200755.25    1.7871615 0.00056071726    65.206731    12921.182 
 5290000   -200583.53    1.7301938 -0.0020529262    65.358575    12933.955 
 5295000   -200837.01    1.7718178 -0.0027665811    65.289098    12946.728 
 5300000   -200696.97    1.7717109 -0.00054923776    65.259175     12959.46 
 5305000   -200679.31    1.7325555 -0.00015960302    65.244095    12972.225 
 5310000   -200777.73    1.7568767 0.0009755937    65.109887    12985.021 
 5315000   -200767.83    1.7760861 0.0046507632    65.084306    12997.811 
 5320000   -200814.05    1.7366723 -0.002074273    65.102203    13010.559 
 5325000   -200863.94    1.7402583 -0.00044582826    65.061708    13023.304 
 5330000   -200800.25    1.7286602 -0.0045221353    65.227203     13036.07 
 5335000      -200703    1.6950587 -0.0048543992    65.361334    13048.832 
 5340000   -200714.94    1.7453061 -0.0059094432    65.367187    13061.597 
 5345000   -200769.15    1.7453828 0.0005712581    65.133171    13074.356 
 5350000   -200730.84    1.7126578  0.001410018    65.163488     13087.08 
 5355000   -200853.34    1.7342984 0.0023131517    65.034077    13099.863 
 5360000   -200914.76    1.7567864 -0.00099108369    65.026318    13112.657 
 5365000   -200828.31    1.7568841 0.00097011018    65.020927    13125.442 
 5370000   -200916.57    1.7308678 0.00019959895    65.140185      13138.2 
 5375000   -200855.42    1.7511315 -0.00090506792    65.119823    13151.024 
 5380000   -201016.05    1.6869599  0.004213341    65.037541    13163.793 
 5385000   -200787.32    1.7677357 -0.0062725562    65.335543    13176.571 
 5390000   -200959.52    1.7359834 -0.0026385315    65.255026    13189.371 
 5395000   -200818.21    1.7350696 0.00089700908    65.117702    13202.186 
 5400000   -200786.94    1.7704948 0.00012383702    65.149533    13214.928 
 5405000   -200741.77    1.7359011 -0.0045992164    65.228479    13227.731 
 5410000   -200881.35    1.7162304  0.004823358     65.08465    13240.483 
 5415000   -200917.41    1.7385709 -0.0048869629    65.194168    13253.248 
 5420000   -200958.44    1.6898635 -0.0019540907    65.160375    13266.047 
 5425000   -201019.08     1.737536 -0.0030155877    65.191712    13278.861 
 5430000   -200899.75    1.7476364 -0.001450919     65.25165    13291.623 
 5435000   -200893.63    1.7783665 -0.00081501187    65.193587    13304.401 
 5440000   -200708.22    1.7595939 0.00053756592    65.218137    13317.141 
 5445000   -200750.55    1.7465033 0.0017875786    65.127042    13329.954 
 5450000   -200869.36    1.7466532 0.0021018792    65.113648     13342.74 
 5455000    -200843.5    1.7130936 0.0021164558    65.067636    13355.533 
 5460000   -200769.89    1.7330922  0.001363704    65.092588    13368.346 
 5465000   -200794.82    1.7112914 -0.0063352147    65.248145     13381.13 
 5470000   -200838.96    1.7361443 -0.0016101612    65.208993    13393.881 
 5475000   -200976.52    1.7338713 0.00044883798      65.1649    13406.631 
 5480000   -200897.14    1.7748534 0.00019554173    65.215153    13419.409 
 5485000   -200913.35    1.7317912 0.00086288641    65.149808    13432.157 
 5490000   -200740.92    1.7474185 -0.0038696918    65.224912     13444.93 
 5495000   -200563.66    1.7827243 -0.00073124244    65.363558    13457.667 
 5500000   -200764.85    1.7779834 0.0028290516    65.179842     13470.43 
 5505000   -200726.31    1.7202023 -0.00043530608    65.319001      13483.2 
 5510000   -200908.98    1.6892883 0.0037573538    65.093788    13495.955 
 5515000   -200783.02    1.6673474 -0.0021802539    65.211802    13508.738 
 5520000   -200772.25    1.7323653 -0.0053806823    65.219008    13521.518 
 5525000   -200821.01    1.7421613 -0.0025517402    65.102933    13534.292 
 5530000   -200849.73    1.7296823 -0.0019035495    65.125312    13547.086 
 5535000   -200870.22    1.7192235 -0.0010942428    65.113623     13559.86 
 5540000   -200999.88     1.775726 0.00053863133    65.050259    13572.658 
 5545000   -200985.18    1.6764923 0.0020660113    64.947919    13585.429 
 5550000   -200915.64    1.7135876 0.0046691993    65.005272    13598.216 
 5555000   -200879.93    1.7484037 -0.0059586079    65.205952    13610.948 
 5560000   -200842.42    1.7189594 -0.00074218981    64.992085    13623.761 
 5565000    -200882.3     1.737643 -0.00082034205    64.995771    13636.585 
 5570000   -200893.63    1.7298696 -0.00088064909    65.046874    13649.354 
 5575000   -200776.26    1.7540467 0.00085618028    65.029547    13662.147 
 5580000   -200780.95    1.7570686 0.0032960642    65.029307    13674.936 
 5585000   -200877.12    1.7543221 0.00092868027    65.112118    13687.687 
 5590000   -200868.32    1.7735396 0.00010329749    65.035821    13700.461 
 5595000   -200805.53    1.7319081 -0.0021472377     65.07713     13713.25 
 5600000    -200803.5    1.7131706 1.569338e-05     64.93627    13726.038 
 5605000   -200823.37    1.7983996 -0.0012093688    64.952318    13738.834 
 5610000   -200709.93    1.7389184 0.0001728164    65.049916    13751.633 
 5615000   -201007.04    1.7551053 0.0063996302    64.886772    13764.429 
 5620000   -200890.42    1.7295317 0.0026214196    64.904827    13777.215 
 5625000   -200762.65     1.753958 -0.0056671849    65.039389    13789.988 
 5630000   -200963.27    1.7816288  0.001597375    64.887387    13802.794 
 5635000   -200870.54    1.7394463 0.00071923062     65.06072    13815.601 
 5640000   -200792.12     1.722902 -0.0054219293    65.074587    13828.374 
 5645000   -200652.53    1.8005849 0.0011711095    65.073577    13841.186 
 5650000   -200748.06    1.7874788 0.0091959028     64.87549    13853.979 
 5655000    -200833.7    1.7578183 -0.00065714386    65.073195    13866.763 
 5660000   -200915.17    1.7629227 -0.0014508425     65.10399    13879.603 
 5665000   -200809.94    1.7593691 0.00040648767    65.025148     13892.37 
 5670000   -200929.64    1.7039263 0.0011895547    65.100432    13905.123 
 5675000   -200572.88     1.758209 0.0020023072    65.108013    13917.899 
 5680000    -200547.8    1.7509891 0.0010057761    65.083341    13930.694 
 5685000   -200661.78    1.7040155 0.0032329591    64.958248    13943.468 
 5690000   -200840.01    1.7481224 -0.00054818232    64.971482    13956.272 
 5695000   -200856.66    1.7553169 -0.00073614943    65.068187    13969.067 
 5700000   -200743.93    1.7179219 0.0031169074    65.019207    13981.857 
 5705000   -200756.28    1.7649045 0.0012921613     64.99835    13994.657 
 5710000   -200986.69    1.7143216 -0.0039996887    65.044913    14007.467 
 5715000   -200722.73    1.7193745 -0.0037133267    65.168854    14020.248 
 5720000    -200695.1    1.7191329 0.00024221589    65.168045    14033.035 
 5725000   -200736.98    1.7104286 -0.0010361791    65.254384    14045.828 
 5730000   -200819.78    1.6981732 0.0026130972     65.11325    14058.554 
 5735000   -200814.58    1.7228933 -0.0010693838    65.278172    14071.312 
 5740000    -200810.7    1.7258689 -0.0043328287    65.351972    14084.097 
 5745000    -200732.3    1.7351034 -0.0026458289    65.429152    14096.803 
 5750000   -201133.64    1.7133129 0.0024603085     65.24597    14109.537 
 5755000   -200853.01    1.7151077 -0.00053009664    65.397771     14122.28 
 5760000   -201106.67    1.7354953 -0.0023756185     65.34164    14135.057 
 5765000   -200933.46    1.7233767 -0.0016975505    65.298662    14147.804 
 5770000   -201033.37    1.7206523 -0.0033612538    65.401111    14160.563 
 5775000   -200851.08    1.7177669 -0.0017681522    65.345179     14173.27 
 5780000   -200770.63    1.6757916 -0.0045761574    65.363911    14186.055 
 5785000   -201035.08    1.7246142 -0.0012238374    65.235248    14198.821 
 5790000   -200909.36    1.7131314 -0.00098545181    65.255884    14211.534 
 5795000    -200819.4    1.7606669 -0.0047319655    65.321501     14224.26 
 5800000   -200781.67     1.704159 -0.0016320803    65.244928    14237.025 
 5805000    -200988.8    1.7617085 -0.0027825055    65.229179    14249.789 
 5810000   -201023.38    1.7414295 0.0033465188    65.105442    14262.551 
 5815000   -200953.79    1.7470077 0.00049248183    65.077806    14275.333 
 5820000   -200896.12     1.725756 -0.00099204511    65.221515    14288.067 
 5825000   -200667.18    1.7255035 -0.0044256238    65.341113    14300.791 
 5830000   -200748.75    1.7263441 0.0014364973    65.127595     14313.57 
 5835000   -200674.32    1.7574041 -0.0010887637     65.22888    14326.308 
 5840000   -200853.57    1.7166275 0.00090490173    65.127794    14339.109 
 5845000   -200820.45    1.7242697 -0.0011420263    65.163666    14351.928 
 5850000   -200743.15    1.7198974 -0.00073847176     65.15338    14364.723 
 5855000   -200827.98    1.7505761 -0.0015909758     65.17126    14377.505 
 5860000   -200766.87    1.7432984  0.005631758    65.073395    14390.312 
 5865000   -200751.64    1.7049365 -0.0057985937    65.225897    14403.162 
 5870000   -200824.99    1.7340427 0.0013320901    65.129755    14415.984 
 5875000   -200966.74    1.7623528 -0.0032784136    65.262937    14428.771 
 5880000   -200708.38    1.7368643 -0.0014663818    65.336201    14441.602 
 5885000   -200547.45    1.6723782 -0.0019139645    65.333777    14454.383 
 5890000   -200851.05    1.7484859  0.001492801    65.160199    14467.187 
 5895000   -200870.53    1.7380292 0.0020915059    65.190987    14479.968 
 5900000   -200968.07    1.7691255 0.0024936022    65.224752    14492.765 
 5905000   -200879.31    1.7764904 -0.00098179621    65.302126    14505.535 
 5910000   -200817.61    1.7436034 0.00027712607    65.295848     14518.32 
 5915000      -200932     1.784503 0.0052276298    65.200182    14531.067 
 5920000   -200922.02    1.7046377 0.0053990786    65.136854    14543.843 
 5925000   -200935.63    1.7296013 -0.001997248    65.175989    14556.657 
 5930000   -200985.83     1.744783 0.0011306159    65.127997     14569.47 
 5935000   -201065.76    1.6850232 0.0032187362     64.97766    14582.242 
 5940000   -200948.44    1.7776933 0.0057249544    65.039873    14595.039 
 5945000   -200991.67    1.6991566 -0.0014414116    65.116791    14607.855 
 5950000   -200810.44    1.7540519 -0.00077646592    65.163532    14620.641 
 5955000   -200859.18    1.7464191 0.0031597144    65.166015     14633.43 
 5960000      -200875    1.7251579 0.0042450896    65.175888    14646.207 
 5965000    -200914.9    1.7207603 -0.0026199483    65.217548     14659.01 
 5970000   -200979.81    1.7708594 0.0016168456    65.131395    14671.795 
 5975000   -200797.93    1.7392908 0.0045573999    65.067656    14684.571 
 5980000   -200808.87    1.6925733 -0.0038735575     65.29645    14697.369 
 5985000   -200848.24    1.8243978 0.0030531449    65.133765     14710.14 
 5990000   -200739.06    1.7596738 -0.00041687238    65.151156    14722.903 
 5995000   -201025.62    1.7041642 -0.00032628102    65.098798    14735.677 
 6000000   -200848.31    1.7756161 -0.0032983479     65.21108    14748.478 
 6005000   -200821.66     1.756357 -0.0027815698    65.241525    14761.268 
 6010000   -200745.32    1.7457464 -0.0020601576    65.223901    14774.017 
 6015000   -200771.33    1.7206797 -0.00042264388    65.192692    14786.787 
 6020000   -200778.96    1.7344001 -0.0040928729     65.39097    14799.514 
 6025000   -200791.17    1.7791124 -0.00097712085    65.360875    14812.265 
 6030000   -200878.39    1.7091217 0.0017463593    65.285993    14825.034 
 6035000   -200955.99    1.7423557 -0.000577537    65.238952    14837.808 
 6040000   -200896.51     1.704716 -0.0023135622    65.220364    14850.589 
 6045000   -200913.57    1.7115012 -0.0032181765     65.23992    14863.397 
 6050000   -200999.02    1.6920217 -0.0012866285    65.220542    14876.146 
 6055000   -200831.94    1.6829145 0.0015339049    65.106381    14888.918 
 6060000    -200774.1    1.7139179 0.0027041343    65.164511    14901.686 
 6065000   -200787.53    1.7477583 0.00029258418    65.183092    14914.446 
 6070000   -200805.93     1.729647 -0.0057692985     65.34468     14927.25 
 6075000   -200783.82    1.7156449 -0.00048462812    65.276836    14940.007 
 6080000   -200719.06    1.7505774 -0.0026744717    65.348392    14952.747 
 6085000   -200790.51    1.7629473 -0.0018958311    65.236163    14965.512 
 6090000   -200730.67    1.7166515 -0.0032816856    65.267682    14978.294 
 6095000   -200869.06    1.7205608 -8.4249555e-05    65.278736    14991.059 
 6100000   -200966.78    1.7367078 -0.00097115602    65.288372    15003.762 
 6105000   -200931.91    1.7205637 -0.0021059364    65.357051    15016.527 
 6110000   -200851.41    1.7367687 0.0016372929    65.321726     15029.25 
 6115000   -200876.16    1.7120496 0.0018156941     65.20934    15042.052 
 6120000   -200924.63    1.7566296 0.0045694634    65.178148    15054.852 
 6125000   -200946.71    1.7722929 0.0022672171    65.254828    15067.634 
 6130000   -200867.24    1.7350385 0.0014183084    65.257506    15080.436 
 6135000   -200757.58    1.8197488 0.0021003532    65.355066    15093.239 
 6140000   -201025.42    1.7615238 0.0035211058    65.204772    15105.983 
 6145000   -200746.29    1.7328989 0.0019798591     65.28649    15118.792 
 6150000   -200612.12    1.7146437 -0.0014258042    65.376628    15131.558 
 6155000   -200798.61    1.7482009 -0.0010225386    65.314766    15144.264 
 6160000   -200692.44     1.723968 -6.1283407e-05    65.379367    15157.012 
 6165000   -200814.27    1.7075725 0.0032482784    65.251643    15169.812 
 6170000    -200731.2    1.6908297 -0.0044088923    65.397564    15182.579 
 6175000   -201000.32    1.7109218 -0.0043434208    65.340192    15195.345 
 6180000   -200986.77    1.7585637  0.001429362    65.290654    15208.106 
 6185000   -200861.26    1.7384181 0.0041344228    65.272462    15220.898 
 6190000   -200946.87    1.7284779 0.0011423721    65.277591    15233.652 
 6195000   -200873.72    1.7559961 0.0022089154    65.154209    15246.395 
 6200000   -200885.51    1.6845601 0.0013278687    65.193158    15259.183 
 6205000   -200908.91    1.7580941 0.0018085358    65.182074    15271.969 
 6210000   -200998.24     1.726879 -0.0012070881    65.248227    15284.676 
 6215000   -200944.97    1.7176888 -0.0015185366    65.275865    15297.462 
 6220000   -200820.97    1.7684383 0.0012805458    65.177179    15310.267 
 6225000    -200836.7    1.7289014  0.004878955    65.239864    15323.053 
 6230000   -200951.22    1.7786873 0.0026100906    65.277715    15335.842 
 6235000   -200972.25    1.7164076 0.0017873229    65.341974    15348.593 
 6240000   -200888.86     1.712504 0.0017119675    65.324709    15361.344 
 6245000   -200843.73    1.7563835 0.0024890306    65.249754    15374.158 
 6250000   -200725.86    1.7344702 -0.005200213    65.305673    15386.965 
 6255000   -200791.86    1.7497774 -0.0016176672    65.201512    15399.733 
 6260000      -200820    1.6991745 -0.0015445498     65.29845    15412.541 
 6265000    -200911.2    1.7112476 -0.0027701171    65.230867    15425.302 
 6270000   -200746.04    1.7418676 0.0021008961    65.165781    15438.074 
 6275000   -200698.17    1.7738895 -0.0020364238    65.170799    15450.852 
 6280000   -200791.87    1.7280043 -0.0027405207    65.201925    15463.674 
 6285000   -200908.51    1.7734824 -0.0027715196    65.171495    15476.454 
 6290000   -200819.66    1.7531597 -0.002948359    65.123065    15489.252 
 6295000   -200808.57    1.7348444  0.003451527    65.068405    15502.035 
 6300000   -200714.32    1.7734082  0.002700663    65.127091    15514.823 
 6305000   -200626.75     1.752506 -0.0031466385    65.154115    15527.632 
 6310000   -200830.96    1.7622051 0.00097061258    65.017284    15540.456 
 6315000    -200887.6    1.7639404 -0.00048533364    65.107537    15553.242 
 6320000   -200580.28    1.7428201 -2.2626899e-05    65.207316    15566.027 
 6325000   -200819.67    1.7153455 -0.001729945    65.130722    15578.786 
 6330000   -200877.93     1.726568 -0.0015773694    65.136741    15591.598 
 6335000   -200701.07    1.7366618 -0.001827487    65.185399    15604.391 
 6340000   -201055.93    1.7578983 -0.00060335391     65.04271    15617.188 
 6345000   -200954.85    1.7500828 0.0047199586    64.934402    15630.015 
 6350000   -200863.16    1.7002542 4.0817399e-05    65.046669    15642.834 
 6355000   -200813.78    1.7137104 -0.0068030868    65.188112     15655.63 
 6360000   -200789.53     1.749901 -0.0018206963    65.134202    15668.435 
 6365000    -200782.8     1.744402 -0.0013661269    65.173252    15681.229 
 6370000   -200902.51    1.7560799 0.0047745741    64.908711    15694.047 
 6375000   -200928.69    1.7376263 -0.0018084022    65.095358    15706.838 
 6380000   -200976.15    1.7758809 0.0052491147     64.94724    15719.633 
 6385000   -200823.05    1.7124335 -0.0010949111    65.089329    15732.433 
 6390000   -200829.59    1.7009119 0.0012568297    65.114273    15745.186 
 6395000   -200921.45    1.7574195 0.0025123407    65.039308     15757.98 
 6400000   -200776.24    1.7634255 0.0052964079    64.913444    15770.785 
 6405000   -200926.87    1.7592006 0.0016180209    65.122156     15783.59 
 6410000   -200826.69    1.6976567 0.0045608019    64.998391    15796.388 
 6415000   -200792.45    1.7203002 -0.001513125    65.072746     15809.18 
 6420000   -201022.48     1.743009  0.001113079    65.015599    15821.983 
 6425000   -200964.37    1.6805304 -0.0052706752     65.12635    15834.806 
 6430000   -200911.49    1.7575636 -0.00041430663    65.057922     15847.56 
 6435000   -201048.87    1.7403696 -0.0010092759    65.002407     15860.37 
 6440000    -201097.7    1.7241927 0.00059840517    64.906349    15873.175 
 6445000   -200916.46    1.7229754 0.0045714295    64.882687    15885.994 
 6450000   -200844.01    1.7171361 -0.002117244    64.951964    15898.801 
 6455000   -200725.08    1.7531321 0.0031179761    64.987197    15911.688 
 6460000   -200838.36    1.7318377 0.0022482857    64.879878    15924.492 
 6465000   -200677.93    1.7885221 0.0014223525    64.990439    15937.318 
 6470000   -200854.09    1.7813993 0.0012046727    64.922639    15950.142 
 6475000      -200831     1.678082 0.0023845871      64.9148    15962.969 
 6480000   -200901.31    1.7636942 0.00078240438    64.891745    15975.809 
 6485000   -200693.35    1.7328413 -0.0043438044    65.072886    15988.626 
 6490000   -200985.27    1.8013485 0.00093633792    64.926368    16001.417 
 6495000    -200997.6    1.7130135 -0.0027092449    65.007643    16014.194 
 6500000   -200933.44    1.7380785 -0.0048462465    65.110852    16026.993 
 6505000   -200885.53    1.7126424 -0.0010004855    65.075672    16039.788 
 6510000   -200852.56    1.8153866 -0.00075812746    65.010786     16052.56 
 6515000   -200724.29    1.7688081 -0.0016290137    65.063305    16065.372 
 6520000   -200848.86    1.7492452 0.0041078815     64.95429    16078.236 
 6525000   -200769.73    1.7520187 0.00036021873    65.042801    16091.061 
 6530000   -200678.93    1.7630677 -0.00049617386    65.008784    16103.875 
 6535000   -200825.81     1.771775 -0.00088907386    64.985625    16116.714 
 6540000   -200912.15    1.7669473 -0.0004561257    64.996072      16129.5 
 6545000   -200798.29     1.791679 0.0035829023    64.904516    16142.302 
 6550000   -201036.03    1.7350887 0.00046675992    64.878139    16155.126 
 6555000   -200901.69    1.7597724 -0.0031765124    64.962999    16167.955 
 6560000   -201105.91    1.7943083 0.00067213381    64.861535    16180.746 
 6565000    -200871.3    1.7408077 0.0020791334     64.96013    16193.567 
 6570000   -201075.75    1.7670831 0.0032004017    65.037001    16206.342 
 6575000   -200837.68    1.6820748 0.00028884488    65.097718    16219.156 
 6580000   -200873.28    1.7833371 0.00053431919    65.204184    16231.913 
 6585000   -200882.76     1.776517 -0.00028726306    65.251463    16244.662 
 6590000   -200801.12    1.7319766 0.0016364279    65.178399    16257.427 
 6595000    -200634.3    1.7391123 0.0020235421    65.105733     16270.23 
 6600000   -200726.57    1.7317437  0.001158364    65.216583    16283.014 
 6605000    -200780.8    1.7928742   0.00510619    65.200306     16295.78 
 6610000   -200650.13     1.731839 -0.00096785918    65.291449    16308.547 
 6615000   -200624.91    1.7519131 -0.0004559634    65.237805    16321.327 
 6620000    -200722.1    1.7832275 -0.00079278423    65.176512    16334.093 
 6625000   -200628.66    1.7509473 0.0027204394    65.074652    16346.861 
 6630000   -200770.87    1.7370455 0.0059131303    65.021547    16359.668 
 6635000   -200846.28      1.79708 0.0039061571    65.083519    16372.447 
 6640000    -200751.8    1.7517841 -0.0012078821    65.101694     16385.22 
 6645000   -200610.48    1.7617284 0.0016207012    65.126305    16398.028 
 6650000   -200731.62    1.7814909 0.0016346288    65.133667    16410.811 
 6655000   -200603.97    1.7829202 -0.0041455974    65.254808    16423.609 
 6660000   -200767.95    1.7448034 0.0031153111    65.116201    16436.376 
 6665000   -201036.88    1.7637919 -0.0025298217     65.22624     16449.15 
 6670000   -201060.34    1.7784263 0.0015152682    65.187911    16461.932 
 6675000   -200735.41    1.7331354 0.00057006558    65.269402    16474.709 
 6680000   -200814.37    1.7214749 -0.0020730689    65.237446    16487.468 
 6685000   -200847.65    1.7513372 -0.0026196143    65.275179    16500.272 
 6690000   -200876.93    1.7298796 0.0022039822    65.211492    16513.038 
 6695000   -200756.43     1.751511 0.0022312844    65.097745    16525.807 
 6700000   -200764.23     1.729662 0.0015188494    65.146499    16538.617 
 6705000   -200789.69    1.7409671 0.0001581092    65.180333    16551.439 
 6710000   -200626.69     1.748056 0.0013544226    65.245857    16564.222 
 6715000   -201060.81    1.6914353 0.0026176594    65.218195    16576.997 
 6720000   -200794.31    1.7258443 0.00072928989    65.241928    16589.739 
 6725000   -200690.87    1.7092661 -0.002298749    65.228368    16602.535 
 6730000   -200823.52     1.708489 0.0028602033    65.098385    16615.292 
 6735000   -200752.05     1.761458 -0.0023750782    65.218506    16628.102 
 6740000   -200851.01    1.7872205 -0.0031767483    65.209483    16640.871 
 6745000   -200873.95    1.6950531 0.00064227525    65.081477    16653.714 
 6750000   -200661.42    1.7555759 -0.0052656265    65.288856     16666.53 
 6755000    -200884.2    1.7609496 -0.00014842702     65.14546    16679.319 
 6760000   -200775.98    1.7233322 -0.0026298164    65.208376    16692.061 
 6765000   -200879.81    1.7294981 -0.0023418263    65.221608     16704.87 
 6770000   -200796.55    1.7174437 0.0040693162    65.121239     16717.61 
 6775000   -200808.11    1.7601859 0.0009819844    65.140714    16730.421 
 6780000   -200636.48    1.7241929 0.00025989023    65.157577    16743.212 
 6785000   -200598.48    1.7696851 0.00061347582    65.228458    16755.981 
 6790000   -200711.08    1.7197845 -0.0061332415    65.295139    16768.745 
 6795000   -200890.33    1.7622339 0.0045084416    65.099795    16781.628 
 6800000   -200883.94    1.7547168 0.0021514727    65.033808    16794.433 
 6805000   -200805.19    1.7964539 0.00080445408    65.055122    16807.218 
 6810000   -200796.31    1.7415084 0.0020824524    65.077596     16819.98 
 6815000   -200875.96    1.7177902 0.0032029507    65.006365    16832.806 
 6820000    -200842.1    1.8005824 -0.0011822743    65.129703    16845.614 
 6825000   -200749.76    1.7435354 -0.0026372432    65.227389    16858.461 
 6830000   -200740.05    1.7372358 0.0014275539    65.160961    16871.231 
 6835000   -200731.04    1.7252495 0.0033892614    65.134833    16883.984 
 6840000   -200835.59    1.7465669 0.00036298136    65.103579    16896.762 
 6845000   -200840.39    1.7450075  0.002925567    65.113345    16909.558 
 6850000   -200756.21    1.7558199 -0.00076921676    65.159399    16922.305 
 6855000   -200872.45    1.7165811 -0.0051416602    65.248141    16935.069 
 6860000   -200819.33    1.6929329 0.0053314139    65.109686    16947.841 
 6865000   -200781.03    1.7565078 -0.0060793121    65.356782    16960.592 
 6870000    -200738.1    1.7191149 0.00063815756    65.245556    16973.369 
 6875000   -200774.26    1.7377997 0.00084842274     65.21652    16986.145 
 6880000   -200689.05    1.7436042 0.0021669532    65.281442    16998.946 
 6885000   -200836.01    1.7006805 -0.0017286684    65.283088    17011.695 
 6890000   -200837.88    1.7612244 -0.0029922539    65.178727    17024.506 
 6895000   -200900.63    1.7387802 -0.0046037522    65.197514    17037.271 
 6900000    -201059.3    1.7289024 0.00040957248     65.06364      17050.1 
 6905000    -201026.2    1.6943851 -0.00045117825    65.027112    17062.895 
 6910000   -200699.76    1.7419523 0.0054060261    64.960023    17075.713 
 6915000   -200810.32    1.7592898 0.00044398343     65.06978    17088.489 
 6920000   -200784.88    1.7725337 -0.00014241266    65.146321    17101.274 
 6925000   -200796.09    1.6929495 -0.0024214968    65.237327    17114.028 
 6930000   -200607.62     1.756006 0.0042631601    65.217455    17126.783 
 6935000   -200856.95    1.7380833 0.00076804727    65.201086    17139.545 
 6940000   -200820.25    1.7541352 0.0014060005    65.154794    17152.309 
 6945000   -201015.72    1.7148506 -0.0056938368    65.190903    17165.093 
 6950000   -200961.37    1.7371534 0.0021862844    65.009653     17177.88 
 6955000   -200667.42     1.705335 0.0010172591     65.10306    17190.685 
 6960000   -200749.47    1.7405385 -0.0023663498    65.221889     17203.51 
 6965000   -200912.77    1.7387245 0.0012404279    65.067674    17216.269 
 6970000   -200631.22    1.7750609 0.0005209308    65.280354    17229.009 
 6975000   -201072.85     1.758653 -0.0040790121    65.163016    17241.791 
 6980000   -200822.49    1.7676414 -0.00046648053    65.193899    17254.564 
 6985000    -200792.6    1.7287514 0.00017595618    65.135123    17267.361 
 6990000   -200887.33    1.7955068 0.0044745053    64.978025    17280.117 
 6995000   -200778.11    1.7153025 -0.0032977075    65.225617     17292.93 
 7000000   -200861.78    1.7354034 0.0030805814     65.14238    17305.734 
 7005000   -200844.96    1.7310771 -0.0025416561    65.182762    17318.538 
 7010000   -200776.26    1.7295272 -0.0012048838     65.22977    17331.329 
 7015000   -200731.88    1.7843979 -0.0027832736    65.257258     17344.07 
 7020000   -200749.97    1.7429597 0.00038450236     65.13016    17356.864 
 7025000   -200760.21    1.7266475 -0.0016271784    65.226002    17369.609 
 7030000   -200719.75    1.6960639 -0.0042471034    65.257113     17382.39 
 7035000   -200911.04    1.7009222 0.0030485484    65.078583    17395.157 
 7040000   -200835.06    1.7549331 0.0023091286    65.066274    17407.931 
 7045000   -200913.89    1.7144011 0.0026078741    65.061454    17420.749 
 7050000   -201009.23    1.6860125 0.0028237112    64.940892    17433.515 
 7055000    -200731.3    1.7260786 0.0018482582    65.227553    17446.305 
 7060000   -201029.91    1.8018369 0.0032674973     65.03814    17459.084 
 7065000   -200889.32    1.7628335 -0.0038599523    65.145608    17471.868 
 7070000   -200870.28    1.7410703 0.0006355789    65.089778     17484.69 
 7075000   -200892.93    1.7368725 0.00047057482    65.036279     17497.45 
 7080000    -200737.7    1.7320202 0.0006749865    65.139552     17510.21 
 7085000   -200785.35    1.7398945 0.00026819039    65.220881    17522.988 
 7090000   -200874.58    1.7421035 -0.0020138298    65.218288    17535.797 
 7095000   -200837.83    1.8056197 -0.0034414131    65.244224    17548.604 
 7100000   -200939.59    1.7079502 0.0040323732    65.112713    17561.409 
 7105000   -200956.84    1.7865365 0.0029832447    65.048762    17574.198 
 7110000   -200875.96    1.7385748 -0.0026650286    65.019374    17586.984 
 7115000   -200778.65    1.7927111 -0.0019769523    65.053462    17599.776 
 7120000   -200875.06    1.6973682 0.0029163961    64.817131    17612.564 
 7125000   -200894.33    1.7514899 0.00084165426    64.932989    17625.379 
 7130000   -200942.87    1.7446609 -0.0084097934    65.010236    17638.202 
 7135000   -200818.19    1.7503936 0.0030017063    64.879006    17651.013 
 7140000   -200842.96    1.7489637 0.0016686808    64.947574    17663.842 
 7145000   -200751.07     1.728057 -0.00024483278    64.954394    17676.676 
 7150000   -200805.34    1.7423866 0.00042536978    64.846133    17689.515 
 7155000   -201017.84    1.6978604 -0.004323887    64.965538    17702.344 
 7160000   -200905.72    1.7948036 0.0006133327    65.068682    17715.178 
 7165000   -200867.75    1.7768047 -0.0011938351    65.068148     17727.97 
 7170000   -201018.85    1.7242098 0.0041425618    65.020135    17740.786 
 7175000   -200839.57    1.7489108 0.0047376616    65.065261    17753.608 
 7180000   -200989.72     1.780581 -0.0019396435    65.154655    17766.407 
 7185000   -200976.17    1.7073463 -0.0028173661    65.170148    17779.167 
 7190000   -200746.19    1.7056964 -0.0015297578    65.221476    17791.942 
 7195000   -200849.09    1.7608064 -0.00045378606    65.281883    17804.716 
 7200000    -200860.1    1.6930797 -0.0014254264    65.240012    17817.495 
 7205000   -201026.41    1.7378912 0.0036069427    65.132326    17830.243 
 7210000   -200746.56     1.736561 -0.0020343451    65.223678    17843.001 
 7215000   -200713.56    1.7562052 4.1706729e-05    65.263498    17855.803 
 7220000   -200544.23    1.7774016 -0.0063248464    65.386087    17868.591 
 7225000   -200683.55    1.7035189 -0.0080592416    65.332273    17881.395 
 7230000    -200777.3    1.7021659 -0.0042885363     65.31064    17894.155 
 7235000   -200747.48    1.7635975 -0.0030626603    65.256803    17906.932 
 7240000   -200749.51    1.7442151 -3.9238883e-06    65.179377    17919.717 
 7245000   -200814.51    1.6918083 -0.0012839284    65.275461    17932.523 
 7250000   -200852.52    1.7415863 0.0016140327    65.181997    17945.302 
 7255000   -200956.73    1.7545059 -0.00010189496    65.160308    17958.088 
 7260000    -200817.1    1.7463379 0.0011980772    65.164663    17970.893 
 7265000   -200926.81    1.8332075 0.0011760301    65.134162    17983.674 
 7270000   -200977.07    1.7177385 0.0025305932    65.173852    17996.429 
 7275000   -201125.08    1.7205081 0.00039547805    65.149633    18009.161 
 7280000   -201182.35    1.7115713 6.7478837e-05    65.168403    18021.971 
 7285000   -200915.61    1.6840501 -0.0051259516    65.167922    18034.791 
 7290000   -200870.16    1.7027418 0.00030314042    65.181668    18047.594 
 7295000    -200844.8    1.7402655 0.0017501379    65.137076    18060.345 
 7300000   -200776.65    1.7282431 -0.00063928193    65.203274    18073.124 
 7305000   -200869.23    1.7501354 -0.0025581165    65.301983     18085.87 
 7310000   -200840.15    1.7595473 0.00071528932    65.256911    18098.608 
 7315000   -200816.56    1.7427454 -0.008768498    65.524479    18111.375 
 7320000   -200809.23    1.7272634 0.00074242442    65.255339    18124.129 
 7325000   -200879.39     1.716345 0.0012792387    65.215415    18136.872 
 7330000   -200740.94    1.6805474 0.0011493952    65.214769    18149.602 
 7335000   -200895.65    1.7197616 0.0017907002    65.166634    18162.329 
 7340000   -200781.81    1.6922982 0.0011434668    65.152068    18175.087 
 7345000   -200817.43    1.7419825 0.0020205553    65.087165    18187.855 
 7350000    -200701.5    1.7259382 0.00038621115    65.075333    18200.665 
 7355000   -200910.14    1.7574992 -0.00053537293    65.119365    18213.441 
 7360000   -200760.49    1.6806203 0.0035336194    65.113095    18226.235 
 7365000   -200591.33    1.7476913 0.00070684198    65.146016    18238.984 
 7370000   -200839.32    1.7357865 0.0032288849    65.061936    18251.763 
 7375000   -200832.82    1.7244781 0.0010645924    65.064428     18264.55 
 7380000   -200845.82    1.7792523 -0.0016359608    65.080344    18277.355 
 7385000   -200894.01    1.7623608 -0.00065225217    65.045817    18290.199 
 7390000   -200967.67    1.6931069 -0.0037157591    65.083145    18303.008 
 7395000   -200696.29    1.7643958  0.001939355    65.102299    18315.803 
 7400000   -200913.57    1.7266516 0.0028350348    65.164477     18328.59 
 7405000   -200942.55    1.7459041 0.0015517901    65.177929    18341.397 
 7410000   -200826.56    1.7070005 0.0020111103    65.169356    18354.144 
 7415000   -200794.63    1.7064308 0.0047126305     65.06863    18366.917 
 7420000   -200800.61    1.7703711 0.0017507675    65.218315     18379.73 
 7425000   -200746.57    1.7015454 -0.0090420175    65.381877     18392.51 
 7430000    -200593.5    1.7483884 -0.0012277752    65.353945    18405.339 
 7435000   -200759.45    1.7583351 0.0027384739    65.202929    18418.138 
 7440000   -200778.99    1.7246252 0.00054666345    65.339608    18430.946 
 7445000   -200773.44    1.7040039 -0.0013118674    65.353561    18443.725 
 7450000   -200846.73    1.7051769 -0.0049946889    65.346624    18456.471 
 7455000   -200804.83    1.7358072 0.0038510322    65.274021    18469.227 
 7460000    -200704.8    1.7237425 -0.0012955832    65.327533    18481.958 
 7465000   -200912.99    1.7154486 -0.0010499618     65.30382    18494.712 
 7470000   -200770.11    1.7760329 0.0033409796    65.195487     18507.46 
 7475000   -200968.07    1.7313866  0.003893136    65.158327    18520.262 
 7480000   -200786.53    1.7463458 0.00010919197    65.250196    18533.043 
 7485000   -200913.93    1.6873266 5.4649047e-05     65.20367    18545.826 
 7490000   -200927.29    1.7228763 -0.0010439014    65.223072    18558.569 
 7495000    -200981.1    1.7095787 0.00034925641    65.221085    18571.291 
 7500000   -200881.08    1.7173919 0.0012466608    65.281579    18584.049 
 7505000   -200779.49    1.7622348 -0.0019594427    65.439165    18596.802 
 7510000   -200959.16    1.8013397 0.00076005689    65.309895    18609.604 
 7515000    -200872.2    1.7726751 0.0040203049      65.3218    18622.345 
 7520000   -200859.07    1.7252186 0.0013592744    65.320749    18635.092 
 7525000   -200891.77      1.71526 -0.0023609384     65.30582    18647.854 
 7530000    -201037.3    1.7652578 -0.0007240297    65.215808    18660.593 
 7535000   -201027.27    1.6822174 0.0033236932    65.083716    18673.379 
 7540000   -200837.49    1.7245528 -0.0019046346    65.343099    18686.136 
 7545000   -200788.25    1.7336459 0.0023164698    65.257755    18698.857 
 7550000   -200809.16    1.7278487 -0.00030778139    65.192394    18711.599 
 7555000   -200905.34    1.7792533 -0.0031917249    65.241625    18724.377 
 7560000   -201001.09    1.7696957 0.00039068335    65.120977    18737.135 
 7565000   -200809.24    1.7389565  0.001621596    65.125009    18749.889 
 7570000   -200872.43    1.7375892 -0.0020344346    65.072047    18762.695 
 7575000   -200876.72    1.7573777 -0.00053626406    64.980907    18775.521 
 7580000   -200823.28    1.7288055 -0.0037829218    65.055107    18788.327 
 7585000   -200767.02    1.7203233 0.0021264277    65.110761    18801.069 
 7590000   -200921.01    1.7888725 0.0019010645    65.022776    18813.849 
 7595000    -200810.3    1.7273851 -0.0047530441    65.081789     18826.62 
 7600000   -200847.76    1.7108389 0.0036144422    64.953593    18839.382 
 7605000   -200942.71    1.7129847 0.00047388902     65.08541    18852.197 
 7610000      -201014    1.7087181 -0.001850041    65.026516    18864.963 
 7615000   -200638.26    1.7494761 -0.00056228695    65.091942    18877.771 
 7620000   -200893.42    1.7640394 0.00051370038    65.079346    18890.538 
 7625000   -200664.37     1.724574 0.0012280202     65.12398    18903.319 
 7630000   -200804.34    1.7566846 -0.0049544068    65.172238    18916.097 
 7635000   -200989.19    1.7137178 0.0014334808    65.048016     18928.84 
 7640000   -200771.47    1.7399181 0.00079754319    65.119766     18941.65 
 7645000   -200764.79    1.7783925 -0.0028316192    65.228934    18954.461 
 7650000   -200795.07    1.7193904 0.00048337494    65.090233    18967.246 
 7655000   -200868.41    1.7202965 0.00062309782    65.065166    18980.058 
 7660000   -200924.64    1.7397409 0.0012209006    65.032413    18992.879 
 7665000   -200927.83    1.7480602 0.0059484014    64.951183    19005.662 
 7670000   -200962.13     1.705056 0.0012120987    64.993103    19018.456 
 7675000   -200962.92    1.7134371 0.0020843055     65.01839    19031.262 
 7680000   -200862.41    1.7362524 0.0029036692    65.099044    19044.069 
 7685000   -200867.43    1.7042355 0.0037793224    65.052063    19056.877 
 7690000   -200781.45     1.694968 -0.0035164761    65.238987     19069.67 
 7695000    -200844.3    1.7781796 0.0023317676    65.196677     19082.47 
 7700000   -200680.58    1.7039033 -0.0020686069    65.307301    19095.281 
 7705000    -200915.4    1.7009224 8.2912966e-05    65.137524    19108.092 
 7710000   -200795.25     1.743848 0.0044327184    65.106508    19120.893 
 7715000   -200913.66    1.7618393 -0.00061841058    65.207312    19133.679 
 7720000   -200807.34    1.7031898 -0.00059298657    65.195385    19146.432 
 7725000   -200754.69    1.7583272  0.003616823    64.974743    19159.195 
 7730000   -200989.55     1.768104 -0.0028701642    65.054596    19172.018 
 7735000   -200858.31    1.7625111 -0.002998056    65.126237    19184.812 
 7740000   -200976.22    1.7471171 0.0042216887    65.091297    19197.604 
 7745000   -200618.91    1.7160921 0.0031904705    65.024064    19210.384 
 7750000   -200615.05    1.7316549 0.0038703057    64.927284    19223.192 
 7755000   -200776.24    1.7527957 0.0019697237    65.010073    19236.004 
 7760000   -200823.87    1.7756798 -0.0031880119    65.102088    19248.811 
 7765000   -200775.19     1.698574 0.0027876378    64.984964    19261.644 
 7770000   -200795.84    1.7731672 0.0031311598    65.000633    19274.448 
 7775000   -200868.99    1.7216364 -0.0035641049    65.132407    19287.245 
 7780000   -201031.86    1.7458226 -0.00047513912    65.073711    19300.062 
 7785000   -200799.79     1.726667 0.00072688016    65.052874     19312.84 
 7790000   -200856.48    1.7407188 -0.0017241787    65.119385    19325.627 
 7795000   -200858.89    1.7552409 -0.00070343891    65.135491    19338.451 
 7800000   -200829.23    1.7576687 0.0033454595    65.045703    19351.237 
 7805000   -200877.05    1.7402553  0.001465871     65.03048    19364.056 
 7810000   -200894.46    1.7351663 0.0041726273    65.070613    19376.848 
 7815000   -200844.36    1.7553605 -0.00025543892    65.151829    19389.651 
 7820000   -200695.43    1.7438239 -0.0052642698     65.26234     19402.46 
 7825000   -200875.94    1.7234286 0.0064207438    65.065583     19415.27 
 7830000   -200608.38     1.701711 -0.0031416534    65.199038    19428.006 
 7835000   -200654.57    1.7299522 -0.003954435     65.13159    19440.772 
 7840000   -200720.11    1.6960732 -0.0026999555     65.11688    19453.597 
 7845000    -200621.2    1.7070229 -0.0027740476    65.159288    19466.436 
 7850000   -200773.42    1.7820731 0.0028038208      65.0402    19479.201 
 7855000      -200809    1.7050821 -0.0014966383    65.124992    19491.958 
 7860000   -200797.57    1.7805757 0.00097824275    65.005427    19504.739 
 7865000   -200744.22      1.70658 0.0019260787    65.085835    19517.486 
 7870000    -200721.9     1.669198 -0.0059950325    65.215048    19530.252 
 7875000   -200919.89     1.715451 0.0027869643    65.043929     19543.04 
 7880000   -201032.63    1.7243817 -0.00013546328    65.113909    19555.799 
 7885000   -200974.08    1.7352482 0.0019665141    65.124974    19568.585 
 7890000   -200779.85    1.7620309  0.001685768    65.097359    19581.404 
 7895000   -200818.34    1.7271612 0.00046042007     65.16146    19594.199 
 7900000   -200871.53    1.7121279 -0.0012101632    65.190147    19606.972 
 7905000      -200774    1.7212293 -0.0028316819    65.181703    19619.717 
 7910000   -200884.76    1.7381459 -0.0058340361    65.288329    19632.476 
 7915000   -200715.86    1.7526127 0.00090837371    65.296865    19645.259 
 7920000   -200768.64    1.7811466 -0.0034102857    65.428382    19658.009 
 7925000   -200727.98     1.781241 0.0026924876    65.263727    19670.771 
 7930000   -200617.94     1.734582 -0.0027287686    65.457706    19683.544 
 7935000   -200610.79    1.7276806 -0.0041406357    65.420785    19696.278 
 7940000   -200688.22     1.797537  0.003107803    65.247063    19709.037 
 7945000   -200723.27    1.7147284 0.0011366099    65.277229    19721.817 
 7950000   -200742.84    1.7223513 -0.00019266916    65.314252    19734.609 
 7955000    -200711.3     1.687295 0.00056515762     65.22955    19747.393 
 7960000    -200742.5     1.724318 -0.00099691575    65.332135    19760.208 
 7965000   -200901.93    1.6739877 -0.0012251913    65.316289    19772.952 
 7970000   -200811.05    1.6800399 -0.0053067077    65.445199    19785.747 
 7975000   -200798.26     1.735372 -0.0012381469    65.390168    19798.487 
 7980000   -200731.45    1.8007475 -0.0019403366      65.3973    19811.206 
 7985000   -200794.07    1.7539655 -0.00030555417    65.391928    19823.932 
 7990000   -200818.88     1.714974 0.0021954917    65.293814    19836.657 
 7995000   -200753.58    1.7732874 0.0016130777    65.282691    19849.411 
 8000000   -200712.32    1.7375945 0.0041017579    65.284256    19862.166 
 8005000   -200758.32    1.7425864 0.0014653026    65.326618    19874.913 
 8010000    -200739.6    1.7934036 -0.0012931318     65.35512    19887.673 
 8015000   -200674.36    1.7566747 0.0010193816    65.317829    19900.465 
 8020000   -200810.43    1.7412131  0.004600541    65.248278    19913.246 
 8025000   -200823.36    1.7168075 0.0027161312    65.180158    19926.044 
 8030000    -200829.3     1.710126 0.0043247586    65.200949    19938.846 
 8035000   -200921.91    1.7566946 0.0025105052    65.227385    19951.598 
 8040000   -200712.44    1.7610887 0.00087750266    65.238359    19964.358 
 8045000   -200832.02     1.719407 0.0035385835    65.203007    19977.142 
 8050000   -200859.58    1.6482785 0.0010050016    65.218127     19989.94 
 8055000   -200881.89    1.7486999 0.0013434581    65.243341    20002.729 
 8060000   -200813.19    1.7182694 -0.001996326    65.274086    20015.514 
 8065000   -200653.65    1.7544927 0.0014690983     65.27651    20028.297 
 8070000   -200697.65    1.7509011 -0.0067241158    65.389152    20041.062 
 8075000   -200966.45    1.7132789 0.0015763975    65.122215    20053.836 
 8080000   -200940.41    1.7640452 0.0030648812    65.100277    20066.594 
 8085000    -200898.1    1.7352662 0.0020520463    65.126653    20079.335 
 8090000   -200782.37    1.7295195 0.0019784525     65.23698     20092.09 
 8095000   -200789.41    1.7414242 -0.003465541    65.332357    20104.831 
 8100000   -200726.02    1.7404518 0.0060702945    65.208948    20117.614 
 8105000    -200611.5    1.7581752 0.0013100878     65.21147    20130.396 
 8110000   -200708.12    1.7301526 -0.0031034492    65.258567    20143.157 
 8115000   -200801.42    1.7861825 -0.0018927594    65.269881    20155.942 
 8120000   -200769.28    1.7077512 0.00015738869    65.330162    20168.699 
 8125000   -200862.02    1.7272233 -0.0024283073    65.389342    20181.452 
 8130000   -200929.42    1.7058102 -0.0067965119     65.42339    20194.235 
 8135000   -200987.04    1.7580518 -0.00058583147    65.384837     20207.02 
 8140000   -200931.66    1.6739579 -2.25974e-05     65.25454    20219.769 
 8145000   -200799.03    1.7667131  0.005024614    65.269748    20232.524 
 8150000   -200738.22    1.7943571 0.0038044327    65.243013    20245.304 
 8155000   -200847.47    1.7140976 0.0035704767    65.183387    20258.078 
 8160000   -200908.38    1.7566108 -0.0012451428    65.132798    20270.852 
 8165000   -200868.62    1.7464386 0.0016663239    65.116087    20283.584 
 8170000   -200762.53    1.7337131 -0.0010920076    65.094399    20296.351 
 8175000   -200742.56    1.7772822 -0.0025053384    65.221138    20309.137 
 8180000   -200745.84    1.7187071 -0.0026844737    65.209176    20321.932 
 8185000   -200892.32    1.7779613 0.0004442357    65.180345    20334.739 
 8190000   -200852.91    1.7709173 0.0054351636    65.075535    20347.524 
 8195000    -200931.5    1.7172566 -0.00066057563     65.15251    20360.329 
 8200000   -200762.59     1.709809 -0.0029534839     65.28732    20373.127 
 8205000   -200790.33    1.7212187 0.0026341633    65.238856     20385.93 
 8210000   -200690.87     1.723158 0.00087492858    65.284373    20398.664 
 8215000   -200880.71    1.7259893 0.0028107682    65.187553    20411.428 
 8220000   -200773.57    1.7696197 -0.0061923773    65.395447    20424.213 
 8225000   -200954.38    1.7089038 0.0040881627    65.128106    20437.002 
 8230000    -200823.9    1.7858621 0.0023620835    65.175031    20449.799 
 8235000   -200710.88    1.7440209 -0.0023803663    65.308387    20462.583 
 8240000   -200760.44    1.7314224 -0.0062648972    65.389784    20475.319 
 8245000    -200957.2    1.7096133  0.003516852    65.259562    20488.092 
 8250000   -200747.12    1.7530043 0.0030533486    65.283553    20500.867 
 8255000   -200854.15    1.7388807 0.0020653552    65.255146    20513.631 
 8260000   -200748.52    1.7261706 -0.00042289352    65.315366    20526.395 
 8265000   -200978.52    1.7221108 -0.0010732761    65.215013    20539.135 
 8270000   -200875.05    1.7736098 0.0025196191     65.06549    20551.909 
 8275000   -200764.06    1.7189058 0.0026879318    65.126074    20564.695 
 8280000   -200866.21    1.7178709 0.0030222112    64.985534    20577.509 
 8285000   -200903.37    1.7015763 0.0021403609    65.000959    20590.292 
 8290000   -200690.18     1.711927 -0.0011531353    65.088804    20603.108 
 8295000   -200926.66    1.7516953  0.001969243    64.994713    20615.892 
 8300000   -201050.08    1.7179285 0.0010465469    65.023268    20628.722 
 8305000   -200950.97    1.7432225 -0.0043604251    65.151148    20641.516 
 8310000   -200776.65    1.7477251 -0.0011124202    65.165995     20654.32 
 8315000   -200983.45    1.8016517 0.0047353531    65.035719    20667.125 
 8320000   -200991.11    1.7333544 0.00025882322    65.150976    20679.952 
 8325000   -200894.71    1.7328366 0.0022866822    65.077303    20692.744 
 8330000   -201032.53    1.7193241 0.00026726425    65.100958    20705.522 
 8335000   -200793.47    1.7308368  0.007770975    64.937305    20718.324 
 8340000   -200940.18    1.7009071  0.006434871    64.968349    20731.083 
 8345000   -200928.09    1.7260361 -0.00035585609    65.106362    20743.885 
 8350000   -200917.22    1.7846098 -0.0044951016    65.154181     20756.64 
 8355000   -200778.84    1.7527192 0.0013917471    65.037795    20769.434 
 8360000   -200879.57    1.7572144 0.0064772485    65.008996    20782.207 
 8365000    -200916.1     1.781983 0.0064402268    65.039132    20794.985 
 8370000   -200844.11      1.77369 -0.0046834823    65.216761    20807.743 
 8375000   -200934.94    1.7544542 0.0074127632     65.02903    20820.547 
 8380000   -201018.58     1.724673 0.0028445684    64.997013    20833.314 
 8385000   -200681.18    1.7467103 0.0025896176    65.068093    20846.116 
 8390000   -200949.77    1.7619055 0.0023455481    65.127599    20858.921 
 8395000   -200921.27    1.7226686 -0.0012337788    65.268918    20871.685 
 8400000   -201097.75     1.750672 -0.00047731087    65.210464    20884.469 
 8405000   -200956.48    1.7419419 0.00092419109    65.217533    20897.256 
 8410000   -201005.94    1.7097395 5.3497211e-05    65.262174    20910.015 
 8415000   -200885.58    1.7465016 -0.0020881485    65.284128    20922.779 
 8420000   -200972.25    1.7529301 0.0017338028    65.094228    20935.556 
 8425000   -200785.59    1.7748268 -0.0029344566    65.334229    20948.316 
 8430000   -201041.97    1.7167714 0.0014840467    65.131364    20961.084 
 8435000   -200891.31      1.72739 0.0023082317    65.163605    20973.887 
 8440000   -200818.19    1.7068448 -0.0028865969    65.271943    20986.666 
 8445000   -200852.08    1.7145215  0.001954705     65.22825    20999.407 
 8450000   -200644.01    1.7228371 -0.0034037438    65.277279    21012.167 
 8455000   -200861.54    1.7599458 0.0054657427    65.186526    21024.968 
 8460000   -200920.52    1.7434326  9.07682e-05    65.172545    21037.727 
 8465000   -200689.25    1.7804471 -0.00018304955    65.365917    21050.484 
 8470000   -200871.05    1.7204622 -0.0036179981    65.323985    21063.236 
 8475000   -200757.68    1.7593117 -0.0049253648    65.425977    21075.994 
 8480000   -200840.25    1.6911571 -0.00025784092    65.225815    21088.753 
 8485000   -200795.04    1.7642034 -0.0012011651    65.222076    21101.509 
 8490000   -200899.46    1.7147658 -0.0042993762    65.272705    21114.286 
 8495000   -200658.47     1.765343 -0.0066172833     65.33976    21127.055 
 8500000   -200685.23    1.7156136 0.00038523019    65.208746    21139.859 
 8505000   -200516.29     1.726356 -0.0035928345    65.260787     21152.67 
 8510000   -200812.61    1.7291965 -0.0033528812    65.231033    21165.434 
 8515000   -200808.31     1.734938 0.0029588289    65.118202    21178.197 
 8520000   -200730.36    1.7069866 -0.00063345243    65.167709    21190.961 
 8525000   -200782.74    1.7491646 0.0032448564      65.0649    21203.778 
 8530000   -201055.89    1.7295177 -0.00059066271    65.024332    21216.577 
 8535000   -200705.91    1.7479917 0.0053963774    65.031205    21229.379 
 8540000   -200728.16     1.701395 -0.00053251245     65.09639    21242.203 
 8545000   -200811.21    1.7209015 -0.0016455672    65.045936    21255.014 
 8550000   -200818.18      1.72479 -0.00035880119    65.049913    21267.816 
 8555000   -200874.65    1.7428817 -0.0029914007    65.079794    21280.645 
 8560000   -200927.38    1.7767966 -0.0036207989    65.088727    21293.453 
 8565000   -200874.07     1.766876 0.0011990579    65.160172    21306.215 
 8570000   -200795.65    1.7537805 0.0020049479    65.157536    21318.971 
 8575000   -200699.59    1.6770262 0.00086722071    65.209685    21331.762 
 8580000   -201008.32    1.6849435 -0.0020314969    65.159846    21344.519 
 8585000   -200934.39    1.7034196 -0.00086947273    65.148553    21357.288 
 8590000   -200863.64    1.7111873 -0.0035088471    65.243723    21370.064 
 8595000   -201046.87     1.797221 0.0035906756    65.129238    21382.809 
 8600000   -200830.53    1.7428903 -0.00026116008    65.223384    21395.596 
 8605000   -200929.68    1.7483625 -0.00058173621    65.106757     21408.42 
 8610000   -200780.66    1.7323029 0.0013395071    65.103108     21421.18 
 8615000   -200866.81    1.7474285 -0.00040685891    65.142766    21433.953 
 8620000   -200742.18    1.7516983 -0.0012318578    65.207369    21446.725 
 8625000   -200726.52    1.7113453 0.0019696292    65.087699    21459.482 
 8630000   -200924.32    1.7049305 0.0043558895     65.07391    21472.285 
 8635000   -200828.54    1.7391653 0.0025954305    65.140534    21485.127 
 8640000   -200849.19    1.6997458 0.0037922533    65.119219    21497.916 
 8645000   -200800.42    1.7354238 -0.0029429767    65.221602    21510.717 
 8650000   -200821.93    1.7034322 0.0020760541    65.092638    21523.531 
 8655000   -200927.23    1.7645864 -0.0018043674    65.052513    21536.326 
 8660000   -200747.31    1.7294284 0.0011334829    65.141226    21549.111 
 8665000   -200733.14    1.7782301 0.0010480933     65.27269    21561.862 
 8670000   -200895.11    1.7482525 -0.00072782023    65.220312    21574.677 
 8675000   -200585.32    1.7542259 -0.004832181    65.416149    21587.424 
 8680000   -200905.44    1.7670906 0.00078282777    65.190897    21600.184 
 8685000   -200812.84    1.7216444 -0.0049546068     65.33509    21612.955 
 8690000   -200764.98    1.7217267 0.00046895458    65.181457    21625.748 
 8695000   -200705.59    1.7475906 0.0024473731     65.18563    21638.539 
 8700000   -200800.61      1.71893 0.00083470758    65.207938     21651.31 
 8705000   -200871.44    1.7312093 -0.0067131251    65.285184    21664.105 
 8710000   -200794.57    1.7294428 0.00076607689     65.09537    21676.897 
 8715000   -200947.51    1.7245289 0.00061016794    65.038548     21689.71 
 8720000   -200894.77    1.7186682 0.00091653944    65.104834    21702.502 
 8725000   -201027.96    1.7327137 0.00074425036    65.043025    21715.312 
 8730000   -200841.66    1.7393919 -0.0022467046     65.17158    21728.121 
 8735000   -200965.47     1.723694 0.0010332325    65.095949    21740.908 
 8740000   -200790.38    1.7847444 0.0032286643    65.086396     21753.66 
 8745000   -200701.81    1.6987635 -0.0036644677    65.287853    21766.451 
 8750000   -200953.92    1.7113006 -0.001794725    65.076442     21779.24 
 8755000   -200985.47    1.7346604 0.00044898849    65.130562    21792.024 
 8760000    -200893.2    1.7593095 -0.0029435609    65.281732    21804.805 
 8765000   -201046.24     1.777601 -0.0020463858    65.315423    21817.606 
 8770000   -200774.12    1.7349049 -0.0019760847     65.20213    21830.395 
 8775000   -200754.86    1.7371624 -0.0036606135    65.262754     21843.14 
 8780000   -200844.54    1.7172514 -2.9836004e-05    65.186554      21855.9 
 8785000   -200678.37    1.7857553 -0.00082304068    65.222679    21868.658 
 8790000   -200532.54    1.7139316 -0.0016331962    65.283809    21881.487 
 8795000   -200813.09    1.7364229 0.0016890066    65.211855    21894.252 
 8800000    -200937.7    1.7756211 -0.0022771698    65.182861    21907.039 
 8805000   -200969.73    1.6784684 -0.0030630244    65.192936    21919.807 
 8810000   -200743.72    1.7919746  0.002684933    65.083635    21932.561 
 8815000   -200750.96    1.7261197 0.0040420688    65.040006    21945.314 
 8820000   -200760.68    1.6879937 -0.0011925477    65.132069    21958.108 
 8825000    -200882.1    1.7503213 -0.0026264621    65.140954    21970.876 
 8830000   -200831.33    1.7625113 -0.00061620354    65.219829    21983.604 
 8835000   -200860.99    1.7309312 -0.0014282608    65.187675    21996.384 
 8840000   -201010.82    1.7742583 0.0034790298    65.103614     22009.13 
 8845000   -200838.13    1.7590128 0.0047104683    65.210645    22021.878 
 8850000   -200752.76    1.7276052 0.0028614838     65.22789    22034.633 
 8855000   -200690.22    1.7309902 0.0022442712     65.31435    22047.388 
 8860000   -200698.86    1.7634764 0.0015371071    65.260936    22060.167 
 8865000   -200682.58    1.7527979 0.00040533281    65.266872    22072.917 
 8870000   -200691.11    1.7370095 0.00025589907    65.218019    22085.672 
 8875000   -200688.05    1.7270964 0.0007820505    65.255149    22098.425 
 8880000    -200804.3    1.7814499 -8.2293466e-05    65.230606    22111.149 
 8885000   -200744.65    1.7710383  0.001347476    65.196552    22123.918 
 8890000   -200877.05    1.7589772 0.0019753802    65.220224    22136.639 
 8895000   -200949.18    1.7398765 -0.0027330608    65.285823    22149.395 
 8900000   -200824.47    1.7452174 0.00040458891    65.223156    22162.152 
 8905000   -200700.89    1.7491642 -0.00082135604    65.260321    22174.917 
 8910000   -200947.75    1.7624085 0.0019202357    65.172699     22187.65 
 8915000    -200737.7    1.7082685 -0.0016828253    65.244469      22200.4 
 8920000   -201081.71    1.7667027 0.0067188658    65.054249    22213.199 
 8925000   -200787.14     1.750357 0.0017221518      65.2231    22225.962 
 8930000   -200688.97    1.7037683 0.0068486544     65.20408    22238.702 
 8935000   -200877.66    1.7006437 -0.0011550039    65.346655    22251.457 
 8940000   -200882.25    1.7201004 0.0038396728    65.284944     22264.24 
 8945000   -200719.66    1.7059289 0.00060231136    65.382928    22276.958 
 8950000   -200684.76    1.6979713   0.00111389     65.33953    22289.714 
 8955000   -200878.61    1.7563074 0.00048329995    65.307337    22302.496 
 8960000   -200829.09    1.7885153 0.0029418403    65.276842    22315.252 
 8965000   -200875.34    1.7299572 -0.0040539003    65.337845    22328.026 
 8970000   -200908.52    1.7120094 -0.0041752097    65.309882    22340.818 
 8975000   -200708.79    1.7925461 0.00022779909    65.260265    22353.548 
 8980000   -200905.89    1.7476038 -0.0021213377    65.309755    22366.282 
 8985000   -200883.35    1.7213274 -0.0035312833    65.257699    22379.057 
 8990000   -200780.23    1.7456811 -0.0011493404     65.22027    22391.856 
 8995000   -200690.37    1.7436266 0.00093002794    65.232321    22404.621 
 9000000   -200742.89    1.7275286 0.0026594434     65.17578     22417.39 
 9005000   -200803.17    1.7474394 -0.0049537477     65.33906    22430.195 
 9010000   -200824.17     1.761749 -0.001069947    65.302372    22442.941 
 9015000   -200882.39    1.7300281 -0.003317326    65.239049    22455.694 
 9020000   -200806.55    1.7326073 -0.0036457659    65.313318    22468.466 
 9025000   -200853.14    1.7703116 0.0064797564    65.115099    22481.262 
 9030000   -200748.53    1.7489815 0.0046240836    65.141025    22494.035 
 9035000   -200871.27    1.7291089 0.0048971284    65.054162    22506.831 
 9040000   -200503.72    1.7041804 7.8727735e-05    65.264478    22519.648 
 9045000   -200805.23    1.7555136 -0.0039722096    65.277026      22532.4 
 9050000   -200756.32     1.743251 0.0033839612    65.123317    22545.188 
 9055000   -200858.55    1.7628688 -0.0010664532    65.219498     22557.92 
 9060000   -200944.19    1.7276397 -0.0010594659    65.277468    22570.679 
 9065000   -200909.74    1.7304153 -0.0025321794    65.232575    22583.496 
 9070000   -200769.58     1.706839 0.00013094058    65.267179    22596.245 
 9075000   -200574.05    1.7383484 -0.0017884129    65.385939    22608.972 
 9080000   -200657.26    1.7672075 0.0072576557    65.179976    22621.746 
 9085000   -200531.53    1.7413987 0.0074727542    65.149887    22634.479 
 9090000   -200622.19    1.7360636 0.0039669196    65.190041    22647.225 
 9095000   -200696.09    1.7684704  0.001414596      65.2701    22660.006 
 9100000   -200840.54    1.7673777 -0.0016424406    65.264978    22672.837 
 9105000   -200586.42    1.7230207 0.0052261135    65.205091    22685.625 
 9110000   -200866.04     1.729866 0.0050402019    65.083421    22698.427 
 9115000   -200781.38    1.7666477 0.0021796982    65.140944    22711.226 
 9120000   -200948.82    1.7616511 0.0041054895    65.057088    22724.005 
 9125000   -200771.16    1.7023464 -0.00020143633    65.210933    22736.806 
 9130000   -200702.02     1.760261 0.0012837336    65.261364    22749.591 
 9135000   -200702.86    1.7382705 0.0064285167    65.108809     22762.36 
 9140000   -200801.49    1.7878174 5.7709884e-05    65.090645    22775.117 
 9145000   -200956.37    1.7591142 0.0008654359    64.954278    22787.931 
 9150000   -200693.68    1.7468382 -0.00052710519     65.05711    22800.744 
 9155000   -200908.11    1.7395151 -0.0011837305    65.139516     22813.54 
 9160000   -200774.39    1.7883427 -4.3114571e-05    65.058556    22826.328 
 9165000   -200803.87    1.7420116 -0.00092449161    65.136296    22839.093 
 9170000   -200918.26    1.7356119 0.0030292975    65.023512     22851.87 
 9175000   -200772.22    1.7287598 -0.00063519571    65.129835    22864.646 
 9180000   -200856.86    1.7726026 0.00067660609    65.044467    22877.405 
 9185000   -200782.03    1.7544001 -0.0015628683    65.100682      22890.2 
 9190000   -200880.58    1.7530688 -0.0040456484    65.210093    22903.011 
 9195000   -200897.34    1.7207699 -0.0042474056    65.145567    22915.855 
 9200000   -200927.63    1.7550872 -0.001080374    65.181611    22928.628 
 9205000   -200819.35    1.7715162 0.00014733402    65.092168    22941.424 
 9210000   -200863.11    1.6976045 -0.0034023009    65.087829    22954.222 
 9215000   -200998.41    1.7335728 -0.0046085568    65.192406    22967.026 
 9220000   -200817.17    1.7462357 0.0057193895     64.94723    22979.803 
 9225000   -200963.84    1.7376156 -0.0017003558    65.097193    22992.616 
 9230000   -200931.65    1.7347441 -0.0025696915     65.05564    23005.446 
 9235000   -200897.28    1.7678063 -0.0043162578    65.076609    23018.238 
 9240000   -200770.82    1.7768204 -0.0015739041    65.145356    23031.055 
 9245000   -200931.22    1.7838112 0.0011853515     64.99153    23043.845 
 9250000   -200954.99     1.754618 -0.0018954509    65.184353    23056.667 
 9255000   -200896.79    1.7393256 0.0035637221    65.050336    23069.486 
 9260000   -200687.12    1.7136491  -0.00324365     65.17674     23082.29 
 9265000   -200742.16    1.7137192 -0.003303713     65.30107    23095.081 
 9270000   -200826.75    1.7785343 0.00080002008    65.203129    23107.831 
 9275000   -200867.89    1.7369175 0.00046428647    65.066668    23120.587 
 9280000   -200752.17    1.7076564 -0.00038590978    65.198483    23133.382 
 9285000    -200927.7    1.7108184 0.00012036223    65.086953    23146.132 
 9290000    -200791.3    1.7297064 -0.0011959183    65.120035    23158.902 
 9295000   -200739.03    1.7355844 0.0036023938    65.179034    23171.657 
 9300000   -200805.29    1.7537935 0.00012445857    65.233482    23184.441 
 9305000   -200853.45    1.7581326 -0.0031525736    65.212904     23197.21 
 9310000   -200909.32    1.7193436 -0.00054856629     65.05534    23210.022 
 9315000   -200771.88    1.7611737 -0.0037132693    65.175446    23222.818 
 9320000   -200817.86    1.7774399 0.0022347027    65.259639      23235.6 
 9325000   -200841.64    1.7085747 -0.001739308    65.211278    23248.379 
 9330000   -200643.25    1.7669953 0.0046821048    65.226304    23261.131 
 9335000   -200734.96    1.6816465 -0.0034186689    65.241506    23273.926 
 9340000   -200776.95    1.7408144 -0.0036796498    65.285019    23286.714 
 9345000   -200747.96    1.7145729 0.0012626653    65.170261    23299.461 
 9350000   -200754.42    1.7420383 0.00070508147    65.214726    23312.231 
 9355000   -200652.95     1.742226 0.00080129714    65.245906    23325.003 
 9360000   -200606.64    1.7694335 -0.0014306001    65.324065    23337.783 
 9365000   -200760.41    1.7287376  0.004017799    65.159123    23350.569 
 9370000   -200701.06    1.7656602 6.9357593e-05    65.244598    23363.303 
 9375000   -200785.56       1.7625 -0.0012194821    65.163574    23376.085 
 9380000   -200894.98    1.7870656 -0.0025617665    65.292554    23388.889 
 9385000   -200993.79    1.6900291 -0.0019687715    65.189229     23401.66 
 9390000   -201077.27     1.722783 0.0016967892     65.20928    23414.421 
 9395000   -200861.92    1.7881907 -0.0025417213    65.357185     23427.19 
 9400000   -200886.73     1.725653 0.00048117674    65.321635    23439.972 
 9405000   -200849.46    1.7200894 -0.0016296117    65.237905    23452.752 
 9410000   -200908.55    1.7731213 -0.0049498107    65.270071    23465.545 
 9415000   -200940.97      1.67531 -0.0010553943    65.193514     23478.32 
 9420000   -200960.38    1.7999031 -0.0040186622    65.370322    23491.071 
 9425000   -200769.58    1.7559811 0.0025384557    65.228975    23503.875 
 9430000   -201130.18    1.7507127 0.0021678299    65.126116    23516.702 
 9435000   -200928.52    1.7273393 -0.00073830575    65.255286    23529.488 
 9440000   -200849.32    1.7425526 -0.0015268618    65.276434    23542.236 
 9445000   -200979.83    1.7586685 0.0010512917    65.306866    23554.967 
 9450000   -200914.22    1.7231616 -0.0031059804    65.306794     23567.74 
 9455000   -201014.47    1.7332122 0.0031684512    65.173327    23580.579 
 9460000    -201054.6      1.72815 -0.0028749413    65.339641    23593.341 
 9465000   -201013.72    1.7716601 0.0024191049     65.23703    23606.119 
 9470000   -200798.75    1.6924582 0.0037299474      65.1717    23618.936 
 9475000   -200784.09    1.7305454 0.0013775779    65.162825    23631.703 
 9480000   -200962.09    1.7221698 -0.00090519469    65.138746    23644.476 
 9485000   -200792.19    1.7101336 0.0018218624    65.055566    23657.277 
 9490000   -200879.96    1.7469524 0.00040914967    65.011907    23670.106 
 9495000    -200851.3    1.7954057 -0.00047441788    65.041931    23682.897 
 9500000   -200843.66    1.7326633 -0.00020883667    64.963318    23695.702 
 9505000   -200886.39    1.7225956 0.0025031807     65.00938    23708.528 
 9510000   -200796.96    1.7765623 0.0012828055    65.074231    23721.373 
 9515000   -200809.65    1.7274682 0.0050981644    64.987023    23734.145 
 9520000   -200926.91    1.7068269 0.0029648423    64.998929    23746.929 
 9525000   -200741.03    1.7524295 0.0012671903    65.077091    23759.713 
 9530000   -200890.04    1.7675896 0.00050190729    65.002444    23772.517 
 9535000   -200837.84    1.7405519 -0.0011889283    65.125038     23785.34 
 9540000   -201009.14    1.7210124 -0.0013759445    65.064575    23798.139 
 9545000   -201039.69     1.763533 -0.002847736    65.044261    23810.932 
 9550000   -200807.88    1.7413211 0.0017594047    65.094738     23823.78 
 9555000   -200813.62    1.7759232 -0.002850691    65.254798    23836.549 
 9560000   -200912.18    1.7638648 -0.00046011004    65.155078     23849.34 
 9565000    -200914.7    1.6962283 0.00096549918    65.132313      23862.1 
 9570000   -200915.39    1.7624541 0.00087518552    65.069392    23874.881 
 9575000   -200853.54    1.7317536 0.0032370737    65.068791     23887.68 
 9580000   -200732.67    1.7528083 -0.0025449056    65.136601    23900.452 
 9585000   -200881.98    1.7052049 -0.0044890036    65.186911    23913.229 
 9590000   -200940.54    1.7710458 -0.0022714334    65.185242    23926.045 
 9595000   -200896.46     1.763221 0.0045587925    65.018893    23938.853 
 9600000    -200848.7    1.7417683 -0.00068666295    65.086937     23951.64 
 9605000   -200835.69    1.7166463 0.0029346474    65.095563    23964.406 
 9610000   -200905.59    1.6820349 -0.0011555109     65.09128    23977.194 
 9615000   -200981.14    1.7150894 0.0032644709    64.980508    23989.973 
 9620000    -200665.6    1.7093191 -0.0025033694    65.116013    24002.805 
 9625000   -200715.51    1.6791812 -0.0055964922    65.203425    24015.596 
 9630000   -200875.94    1.7073887 -0.0029236689    65.125269    24028.404 
 9635000    -200946.7    1.7161679 0.00025658475    65.046676    24041.167 
 9640000   -200826.59    1.6795794 0.0020230436    64.992652    24053.926 
 9645000   -200800.44    1.6926982 -0.00076776031    65.105415    24066.703 
 9650000   -200758.58    1.7765871 -0.00075870131    65.132881    24079.496 
 9655000   -201016.99    1.7166151 0.00064009812    65.118978    24092.271 
 9660000   -201168.55    1.7606874 0.0039054113    65.055145    24105.106 
 9665000   -200911.49    1.7423754 -0.0006400408    65.183316    24117.857 
 9670000   -200889.04    1.7086308 -0.0042992255    65.245881     24130.64 
 9675000   -200849.44    1.7316239 0.0046664776    65.101688    24143.419 
 9680000   -200763.74    1.7070749 -0.0012321413    65.364479    24156.177 
 9685000   -200805.29    1.7631025 -0.0035715811    65.286694     24168.97 
 9690000   -200871.27     1.758284 0.0042026774    65.209808    24181.748 
 9695000   -200846.33    1.7470235 -0.0021155531    65.306952    24194.569 
 9700000   -200861.35    1.7513696 -0.0014636886    65.232327     24207.33 
 9705000   -200789.09    1.7387653 -0.0024818942    65.240129    24220.142 
 9710000   -201056.85    1.7377985 -0.00076169707    65.228713     24232.87 
 9715000   -200717.85    1.7748788 0.0039385542    65.155182    24245.613 
 9720000   -200940.99    1.7077704 0.0055681529    65.164523    24258.397 
 9725000   -200733.74    1.7087958 0.0022198333    65.258622    24271.113 
 9730000   -200860.81    1.8118207  0.001253003    65.190359    24283.912 
 9735000    -200887.4    1.7586486 0.00056463566    65.210502    24296.635 
 9740000   -200942.18    1.7338463 -5.0610527e-05    65.208323    24309.372 
 9745000   -200939.57    1.7271736 -0.0010075781    65.303044    24322.113 
 9750000   -200881.25    1.6888099 -0.0051579746    65.340765    24334.863 
 9755000   -201091.15    1.7345655 -0.0016331975    65.271812    24347.632 
 9760000   -200788.63     1.735003 -0.0015875373     65.23742    24360.366 
 9765000   -200783.31    1.6966414 7.6170251e-05    65.198301    24373.129 
 9770000   -200797.41    1.7156716 -0.0014981596    65.152507    24385.886 
 9775000   -200853.45    1.7139844 0.00080339886     65.15277    24398.679 
 9780000   -200765.01    1.6562862 -0.0026405323    65.201066    24411.434 
 9785000   -200710.96    1.7466115 0.0013973046    65.192777    24424.251 
 9790000   -200773.01    1.7654142 -0.0026926038    65.212796    24437.025 
 9795000   -200894.39     1.763769 -0.0029224977    65.168518    24449.817 
 9800000   -200813.24    1.7580763 -0.0045469771    65.243215    24462.651 
 9805000   -200599.81    1.7403674 0.0028805236    65.162965    24475.429 
 9810000   -200837.96    1.7055779 -0.0020709717    65.100818    24488.208 
 9815000   -200743.22    1.7223386  0.004252254    65.104067    24501.042 
 9820000   -200784.52    1.7576907 -4.2511953e-05    65.150718    24513.843 
 9825000   -201038.53    1.7666701 -0.0043958656    65.158888    24526.615 
 9830000   -200927.58    1.7755956 0.0026052996    64.971068     24539.42 
 9835000   -200752.44    1.7118505 0.0024938556    65.071937    24552.224 
 9840000   -200863.73    1.7355683 -0.0022385307    65.164697    24565.035 
 9845000   -200670.33    1.7250839 -0.00047924113     65.16703    24577.833 
 9850000   -200768.82    1.8113498 -0.0024640249    65.232087    24590.614 
 9855000   -200738.21    1.7638184 0.0003027224    65.124486    24603.433 
 9860000   -200882.62    1.7232522 -5.9094832e-05    65.053836    24616.242 
 9865000   -200796.79     1.704628 -0.0023872676    65.130101    24629.076 
 9870000   -200872.23    1.7054505 -0.00042541884    65.104776    24641.882 
 9875000   -201019.41    1.7282647 -0.00098796772    65.105969    24654.654 
 9880000   -200869.18    1.6907305 -0.00098098582    65.154518    24667.431 
 9885000   -200959.22    1.7813715 0.0030879446    65.136071    24680.215 
 9890000   -200732.61    1.7345044  0.003486146    65.212114    24692.996 
 9895000   -200878.09    1.7090248 0.0019405591    65.157351    24705.786 
 9900000   -200928.56    1.7050267 -0.0025701204    65.222474    24718.546 
 9905000   -200851.84    1.6740583 0.0017203979     65.13281    24731.299 
 9910000   -200923.17     1.728177 0.0034633491    65.050595    24744.119 
 9915000   -200998.84    1.6950075 -0.00059069395    65.184084    24756.876 
 9920000   -200947.89    1.7219919 -4.252939e-05    65.138218    24769.681 
 9925000      -200995    1.7386202 -0.0017301763    65.220663     24782.45 
 9930000   -200698.58    1.7572675 -0.0013325326    65.163639    24795.288 
 9935000   -200788.86    1.7560634 0.0043669329    65.114015     24808.07 
 9940000   -200709.48    1.7074766 -0.00045966933    65.112915    24820.892 
 9945000   -200627.22    1.7125329 0.00047169148    65.206334    24833.648 
 9950000   -200765.65    1.7256667 -0.0052098699    65.280764    24846.469 
 9955000   -200854.27     1.709419 -0.003794638    65.307185    24859.211 
 9960000   -200668.35    1.7501546 -0.003186073    65.299169    24871.984 
 9965000   -200858.85    1.6993223 -0.0015087953    65.189757    24884.746 
 9970000   -200781.92     1.724958 -0.0026304614    65.149621     24897.53 
 9975000   -200633.39      1.77715 -0.0029406098    65.277919    24910.322 
 9980000    -200737.5    1.7291599 -0.0052001159    65.228443    24923.123 
 9985000   -200774.32    1.7711428 -0.0015424769    65.148646    24935.882 
 9990000   -200728.87    1.7074907 0.00032425626    65.198074     24948.68 
 9995000   -200683.85    1.7457624 0.00023714142    65.172786    24961.446 
10000000   -200784.91    1.7191722 0.0014091174    65.177182    24974.211 
10005000   -200907.26    1.7511927 0.0023290208    65.153305     24986.98 
10010000   -200739.61    1.7191821 -0.0011548319    65.214818    24999.728 
10015000   -200647.48    1.7706436 0.0007260758    65.315152    25012.446 
10020000   -200677.61    1.7856814 -0.0015310898     65.32088    25025.188 
10025000   -200740.74    1.7577022 -0.0010206068    65.238623    25037.915 
10030000   -200817.64    1.6990627 -0.0014351576    65.215597    25050.661 
10035000   -200660.82    1.7548765 0.00071869533    65.205133     25063.44 
10040000   -200796.11    1.7245911  0.002284199    65.074179    25076.212 
10045000   -200930.37    1.7091038 -0.00097819279    65.129749    25088.993 
10050000   -200814.47    1.6785585 -0.0043669069    65.232189    25101.765 
10055000    -200788.5    1.7174592 -0.00045695066    65.106653    25114.578 
10060000   -200764.09    1.7676003 -0.0024470997    65.117784    25127.394 
10065000   -200930.03    1.7099217 0.00075648139     65.09697    25140.196 
10070000   -200798.43    1.6809549 0.0034251963    65.123128    25152.952 
10075000   -200593.32    1.7172117 -0.0034182595     65.25648    25165.717 
10080000   -200785.56    1.7762257 0.00059535474    65.196727    25178.487 
10085000   -200697.55    1.7653111 -0.00080759227    65.262335    25191.263 
10090000   -200812.63    1.6996081 -0.0016824308    65.210129    25204.054 
10095000   -200598.71    1.7024008 -0.00091671581    65.308128    25216.816 
10100000   -200796.15    1.7410257  0.000354691    65.199857    25229.559 
10105000   -200838.62    1.7581976 -0.0023006746    65.261534    25242.328 
10110000   -200790.34    1.7502397 0.0024505676    65.151538    25255.087 
10115000   -200777.34    1.7403694 0.00050422611    65.304291    25267.859 
10120000   -200658.24    1.7243406  0.001262258    65.206005    25280.593 
10125000   -200515.52    1.7568146 -0.0022074873    65.304144    25293.375 
10130000   -200696.79     1.763246  0.001128138    65.186933    25306.168 
10135000   -200827.05    1.6909612 0.0031706927     65.11663     25318.99 
10140000   -200717.74    1.7441127 0.0018169364    65.229786    25331.768 
10145000   -200876.41    1.6915178 0.0031512241    65.218634    25344.558 
10150000   -200899.24    1.7208338 0.00026333946    65.300646    25357.338 
10155000   -200751.66    1.7542055 -0.0013542815    65.376794    25370.081 
10160000   -200863.63    1.7313573 -0.0041781649    65.366011    25382.831 
10165000   -200705.74    1.7836629 -0.0034372359    65.367932    25395.587 
10170000   -200846.26    1.7357677 0.0015547342    65.195455     25408.32 
10175000   -200941.38     1.749727 -0.0030600959    65.252152    25421.086 
10180000   -200726.45    1.7003064 -0.0008410171    65.308373    25433.842 
10185000   -200821.24    1.7428872 0.0011370956    65.258152     25446.59 
10190000   -200632.53    1.7589458 -0.0057976118    65.420938    25459.386 
10195000   -200887.64    1.7145372  0.004281044    65.130474    25472.189 
10200000   -200745.37    1.7677426 -0.0044873553    65.252885    25485.002 
10205000   -200593.85    1.7243161 -0.0050055354    65.280046      25497.8 
10210000   -200629.23    1.7247003 -0.0027744111    65.234775    25510.565 
10215000   -200691.48    1.7768835 0.0044199033    65.082493    25523.314 
10220000   -200708.03    1.7569429 0.0010758476    65.209161    25536.066 
10225000   -200675.78     1.757886   0.00458292    65.052883    25548.864 
10230000   -200488.65    1.7475111  0.004563454    65.069623     25561.66 
10235000      -200564    1.7094953 -0.0033196269    65.063749     25574.47 
10240000   -200614.03    1.7579321 0.0010121736    65.001181    25587.264 
10245000   -200803.46    1.7444267 0.00050698683    65.043434    25600.045 
10250000   -200856.33    1.7451762 -0.0037188527     65.09651     25612.87 
Loop time of 25612.9 on 8 procs for 10000000 steps with 2304 atoms

Performance: 33733.042 tau/day, 390.429 timesteps/s
95.6% CPU use with 8 MPI tasks x 1 OpenMP threads

MPI task timing breakdown:
Section |  min time  |  avg time  |  max time  |%varavg| %total
---------------------------------------------------------------
Pair    | 3979       | 4429       | 5092.8     | 509.7 | 17.29
Bond    | 0.9217     | 1.1141     | 1.3182     |  11.3 |  0.00
Kspace  | 10828      | 10934      | 11027      |  86.4 | 42.69
Neigh   | 646.96     | 655.33     | 670.06     |  30.2 |  2.56
Comm    | 996.06     | 1014.2     | 1030.6     |  34.3 |  3.96
Output  | 0.85153    | 0.88218    | 1.0929     |   8.5 |  0.00
Modify  | 6478.2     | 7848.9     | 8827.4     | 941.1 | 30.64
Other   |            | 729        |            |       |  2.85

Nlocal:        288.000 ave         303 max         280 min
Histogram: 1 1 1 4 0 0 0 0 0 1
Nghost:        5978.62 ave        6003 max        5966 min
Histogram: 3 2 0 0 0 0 1 0 1 1
Neighs:         0.00000 ave           0 max           0 min
Histogram: 8 0 0 0 0 0 0 0 0 0
FullNghs:      245694.0 ave      259386 max      238649 min
Histogram: 1 1 2 3 0 0 0 0 0 1

Total # of neighbors = 1965556
Ave neighs/atom = 853.10590
Ave special neighs/atom = 0.0000000
Neighbor list builds = 80561
Dangerous builds = 0

## ----- deletion for small NPs and salt ----- ##
#    reset_timestep 0

#    label checking

#    compute     peatom    all   pe/atom
#    variable    exppe    atom    exp(2*c_peatom/${ttemp})
#    compute     aveS    small   reduce ave v_exppe
#    compute     aveCl   anion   reduce ave v_exppe
#    compute     aveNa   cation  reduce ave v_exppe

#    fix AVE all ave/time 5 ${repeat} ${freq} c_aveS c_aveCl file average.dat
#    thermo 10000
#    thermo_style custom step pe c_press lx cpu
#    thermo_modify norm no flush yes
#    fix AVE all ave/time 1 ${repeat} ${freq} c_aveS c_aveCl c_aveNa
#    variable    chempNP equal ${ttemp}*(ln(v_numS/vol)+ln(v_numCl/vol)*25+ln(f_AVE[1])+ln(f_AVE[2])*25)
#    variable    chempS  equal ${ttemp}*(ln(v_numNa/vol)+ln(v_numCl/vol)+ln(f_AVE[2])+ln(f_AVE[3]))
#    timestep 0.0005
#    run ${freq}

#    print "done! ChempNP= ${chempNP}" append potential.dat
Total wall time: 7:27:42
