LAMMPS (27 Oct 2021)
OMP_NUM_THREADS environment is not set. Defaulting to 1 thread. (src/comm.cpp:98)
  using 1 OpenMP thread(s) per MPI task
package gpu 0
package gpu 2 neigh no pair/only on
#Lammps gcmc code for electrolytes

## ----- Simulation times ----- ##
    variable t_nve      equal 50000             #nve/limit
    variable t_deform 	equal 50000            #nvt
    variable t_pressed 	equal 50000            #nvt
    variable t_relaxed 	equal 100000            #nvt
    variable t_eq 	equal 10000000           #nvt

    variable smallc	equal 10
    variable bigc	equal -80
    variable numB	equal 256
    variable numS	equal ${numB}*8
    variable numS	equal 256*8
#    variable numCl	equal ${numS}*${smallc}+${bigc}*${numB}

## ----- Environment setting ----- ##
    boundary p p p
    atom_style full

## ----- System Variables  ----- ##
    variable    ttemp       equal   $b          	#reduced temperature
    variable    ttemp       equal   1.70          	
    variable    ppress      equal   0			#osmetic pressure
    variable    cutoff_pppm equal   27.8	        #cutoff for the real part of pppm
    variable	ipress      equal   0.1

    variable    bigd        equal   10                      #LJ sigmas
    variable    smalld      equal   2
#    variable    Cl_d        equal   0.4
    variable    d_bs        equal   0.5*(${bigd}+${smalld})
    variable    d_bs        equal   0.5*(10+${smalld})
    variable    d_bs        equal   0.5*(10+2)
#    variable    d_sNa       equal   0.5*(v_smalld+v_Na_d)
#    variable    d_sCl       equal   0.5*(v_smalld+v_Cl_d)
#    variable    d_bNa       equal   0.5*(v_bigd+v_Na_d)
#    variable    d_bCl       equal   0.5*(v_bigd+v_Cl_d)
#    variable    d_NaCl      equal   0.5*(v_Na_d+v_Cl_d)

    variable    cut_small   equal   ${smalld}*1.122462	    #cutoffs for LJ
    variable    cut_small   equal   2*1.122462	    
    variable    cut_big     equal   ${bigd}*1.122462
    variable    cut_big     equal   10*1.122462
#    variable    cut_Na_d    equal   ${Na_d}*1.122462
#    variable    cut_Cl_d    equal   ${Cl_d}*1.122462
    variable    cut_bs      equal   ${d_bs}*1.122462
    variable    cut_bs      equal   6*1.122462
#    variable    cut_bNa     equal   ${d_bNa}*1.122462
#    variable    cut_bCl     equal   ${d_bCl}*1.122462
#    variable    cut_sNa     equal   ${d_sNa}*1.122462
#    variable    cut_sCl     equal   ${d_sCl}*1.122462
#    variable    cut_NaCl    equal   ${d_NaCl}*1.122462

## ----- Initialization and grouping ----- ##
    read_data config_fcc8.dat
Reading data file ...
  orthogonal box = (-80.000000 -80.000000 -80.000000) to (80.000000 80.000000 80.000000)
  2 by 2 by 2 MPI processor grid
  reading atoms ...
  2304 atoms
Finding 1-2 1-3 1-4 neighbors ...
  special bond factors lj:    0        0        0       
  special bond factors coul:  0        0        0       
     0 = max # of 1-2 neighbors
     0 = max # of 1-3 neighbors
     0 = max # of 1-4 neighbors
     1 = max # of special neighbors
  special bonds CPU = 0.015 seconds
  read_data CPU = 0.026 seconds

    set type 1 charge   ${bigc}    	#large NPs
    set type 1 charge   -80    	
Setting atom values ...
  256 settings made for charge
    set type 2 charge   ${smallc}       #small NPs
    set type 2 charge   10       
Setting atom values ...
  2048 settings made for charge
#    set type 3 charge   1       #Na+
#    set type 3 charge   -1      #Cl-

    mass    *   0.2
    mass    1   25.0

    group big       type 1
256 atoms in group big
    group small     type 2
2048 atoms in group small
#    group cation    type 3
#    group anion     type 3

## ----- Interaction setting ----- ##
    pair_style lj/cut/coul/long ${cut_big} ${cutoff_pppm} #lj/cut/coul/long/soft 2.0 0.5 5.0 ${cut_small} ${cutoff_pppm}
    pair_style lj/cut/coul/long 11.22462 ${cutoff_pppm} 
    pair_style lj/cut/coul/long 11.22462 27.8 
    #Between regular particles (4*5/2=10)
    pair_coeff  1   1   2.0     ${bigd}     ${cut_big}	        # big-big
    pair_coeff  1   1   2.0     10     ${cut_big}	        
    pair_coeff  1   1   2.0     10     11.22462	        
    pair_coeff  2   2   2.0     ${smalld}   ${cut_small}	    # small-small
    pair_coeff  2   2   2.0     2   ${cut_small}	    
    pair_coeff  2   2   2.0     2   2.244924	    
#    pair_coeff  3   3   2.0     ${Na_d}     ${cut_Na_d}		    # Na-Na
#    pair_coeff  3   3   2.0     ${Cl_d}     ${cut_Cl_d}       	# Cl-Cl
    pair_coeff  1   2   2.0     ${d_bs}     ${cut_bs}	        # big-small
    pair_coeff  1   2   2.0     6     ${cut_bs}	        
    pair_coeff  1   2   2.0     6     6.734772	        
#    pair_coeff  1   3   2.0     ${d_bNa}    ${cut_bNa}	        # big-Na
#    pair_coeff  1   3   2.0     ${d_bCl}    ${cut_bCl}	        # big-Cl
#    pair_coeff  2   3   2.0     ${d_sNa}    ${cut_sNa}       	# small-Na
#    pair_coeff  2   3   2.0     ${d_sCl}    ${cut_sCl}       	# small-Cl
#    pair_coeff  3   4   2.0     ${d_NaCl}   ${cut_NaCl}       	# Na-Cl
#    pair_modify pair lj/cut/coul/long shift yes
    pair_modify shift yes
    kspace_style	pppm	5.0e-4

## ----- Simulation setup ----- ##
    neighbor 1.2 bin
    neigh_modify delay 0 every 1 check yes #one 2000

    compute temp all temp
    compute press all pressure temp

    thermo 5000
    thermo_style custom step pe temp c_press lx cpu
    thermo_modify norm no flush yes

   # dump moldump all custom 50000 ${xyzname} id type q x y z

## ----- Thermalization of system ----- ##
    timestep 0.0002

    fix 1 all nve/limit 0.05
    fix 2 big langevin ${ttemp} ${ttemp} 0.2 1234567
    fix 2 big langevin 1.7 ${ttemp} 0.2 1234567
    fix 2 big langevin 1.7 1.7 0.2 1234567
    fix 3 small langevin ${ttemp} ${ttemp} 0.008 123456
    fix 3 small langevin 1.7 ${ttemp} 0.008 123456
    fix 3 small langevin 1.7 1.7 0.008 123456

    fix freeze big setforce 0.0 0.0 0.0
    fix zeromom all momentum 1 linear 1 1 1 angular
    run ${t_nve}
    run 50000

CITE-CITE-CITE-CITE-CITE-CITE-CITE-CITE-CITE-CITE-CITE-CITE-CITE

Your simulation uses code contributions which should be cited:

- GPU package (short-range, long-range and three-body potentials):

@Article{Brown11,
 author = {W. M. Brown, P. Wang, S. J. Plimpton, A. N. Tharrington},
 title = {Implementing Molecular Dynamics on Hybrid High Performance Computers - Short Range Forces},
 journal = {Comp.~Phys.~Comm.},
 year =    2011,
 volume =  182,
 pages =   {898--911}
}

@Article{Brown12,
 author = {W. M. Brown, A. Kohlmeyer, S. J. Plimpton, A. N. Tharrington},
 title = {Implementing Molecular Dynamics on Hybrid High Performance Computers - Particle-Particle Particle-Mesh},
 journal = {Comp.~Phys.~Comm.},
 year =    2012,
 volume =  183,
 pages =   {449--459}
}

@Article{Brown13,
 author = {W. M. Brown, Y. Masako},
 title = {Implementing Molecular Dynamics on Hybrid High Performance Computers â€“ Three-Body Potentials},
 journal = {Comp.~Phys.~Comm.},
 year =    2013,
 volume =  184,
 pages =   {2785--2793}
}

@Article{Trung15,
 author = {T. D. Nguyen, S. J. Plimpton},
 title = {Accelerating dissipative particle dynamics simulations for soft matter systems},
 journal = {Comput.~Mater.~Sci.},
 year =    2015,
 volume =  100,
 pages =   {173--180}
}

@Article{Trung17,
 author = {T. D. Nguyen},
 title = {GPU-accelerated Tersoff potentials for massively parallel Molecular Dynamics simulations},
 journal = {Comp.~Phys.~Comm.},
 year =    2017,
 volume =  212,
 pages =   {113--122}
}

@Article{Nikolskiy19,
 author = {V. Nikolskiy, V. Stegailov},
 title = {GPU acceleration of four-site water models in LAMMPS},
 journal = {Proceeding of the International Conference on Parallel Computing (ParCo 2019), Prague, Czech Republic},
 year =    2019
}

CITE-CITE-CITE-CITE-CITE-CITE-CITE-CITE-CITE-CITE-CITE-CITE-CITE

PPPM initialization ...
  using 12-bit tables for long-range coulomb (src/kspace.cpp:340)
  G vector (1/distance) = 0.11438956
  grid = 60 60 60
  stencil order = 5
  estimated absolute RMS force accuracy = 0.00041211524
  estimated relative force accuracy = 0.00041211524
  using double precision KISS FFT
  3d grid and FFT values/proc = 42875 28800
  generated 0 of 1 mixed pair_coeff terms from geometric mixing rule
Neighbor list info ...
  update every 1 steps, delay 0 steps, check yes
  max neighbors/atom: 2000, page size: 100000
  master list distance cutoff = 29
  ghost atom cutoff = 29
  binsize = 14.5, bins = 12 12 12
  1 neighbor lists, perpetual/occasional/extra = 1 0 0
  (1) pair lj/cut/coul/long/gpu, perpetual
      attributes: full, newton off
      pair build: full/bin
      stencil: full/bin/3d
      bin: standard
Per MPI rank memory allocation (min/avg/max) = 11.45 | 11.54 | 11.62 Mbytes
Step PotEng Temp c_press Lx CPU 
       0 1.7992005e+08            0    175.78446          160            0 
    5000   -68402.728    1.5164301 -0.0043056679          160    39.559679 
   10000   -73948.967    1.5861198 -0.0043107575          160    78.961196 
   15000   -78461.228    1.4817673 -0.0044234975          160    118.27982 
   20000   -82522.505    1.5559858 -0.0043480726          160    157.62523 
   25000   -86289.354    1.5361415 -0.0044961421          160    197.00094 
   30000   -89787.077    1.5203501 -0.0044916695          160    236.43916 
   35000   -93054.298    1.5314578 -0.004221301          160    275.83103 
   40000    -95955.25    1.5403189 -0.0042405005          160    315.32917 
   45000   -98614.922    1.5541106 -0.0042191413          160    354.81593 
   50000   -101185.64    1.5014805 -0.0040933265          160    394.33065 
Loop time of 394.331 on 8 procs for 50000 steps with 2304 atoms

Performance: 2191.054 tau/day, 126.797 timesteps/s
99.6% CPU use with 8 MPI tasks x 1 OpenMP threads

MPI task timing breakdown:
Section |  min time  |  avg time  |  max time  |%varavg| %total
---------------------------------------------------------------
Pair    | 9.4624     | 9.7932     | 10.129     |   9.0 |  2.48
Bond    | 0.0052771  | 0.0077741  | 0.009769   |   2.0 |  0.00
Kspace  | 377.78     | 378.47     | 378.94     |   2.0 | 95.98
Neigh   | 0.059416   | 0.066786   | 0.075146   |   2.1 |  0.02
Comm    | 2.4107     | 2.6706     | 3.0814     |  14.2 |  0.68
Output  | 0.00034268 | 0.00055    | 0.0019833  |   0.0 |  0.00
Modify  | 2.7794     | 2.8281     | 2.8928     |   2.4 |  0.72
Other   |            | 0.4968     |            |       |  0.13

Nlocal:        288.000 ave         313 max         260 min
Histogram: 2 0 0 0 1 2 1 0 0 2
Nghost:        1333.75 ave        1354 max        1305 min
Histogram: 1 0 1 1 0 1 1 0 1 2
Neighs:         0.00000 ave           0 max           0 min
Histogram: 8 0 0 0 0 0 0 0 0 0
FullNghs:      16565.0 ave       18933 max       14140 min
Histogram: 2 0 0 1 0 3 0 0 0 2

Total # of neighbors = 132520
Ave neighs/atom = 57.517361
Ave special neighs/atom = 0.0000000
Neighbor list builds = 72
Dangerous builds = 0

#    compute     peatom      all     pe/atom
#    variable    exppe       atom    exp(2*c_peatom/${ttemp})
#    compute     aveS        small   reduce ave v_exppe
#    compute     aveCl       anion   reduce ave v_exppe
#    compute     aveNa       cation  reduce ave v_exppe
#    thermo ${every}
#    thermo_style custom step pe temp lx vol c_aveS c_aveCl c_aveNa cpu
#    thermo_modify norm no flush yes
#    variable    chempNP     equal   temp*(ln(2304/vol)+ln(18300/vol)*10+ln(c_aveS)+ln(c_aveCl)*10)
#    variable    chempS      equal   temp*(ln(5500/vol)+ln(18300/vol)+ln(c_aveNa)+ln(c_aveCl))
#    label checking
#    run ${every}
#    if "${chempNP}>${mu_np}" then 'print "ChempNP=${chempNP}; expel"' "jump gcmc.in checking" else 'print "done!"'

    fix deforming all deform 10 x final -33 33 y final -33 33 z final -33 33 remap x
    run ${t_deform}
    run 50000
PPPM initialization ...
  using 12-bit tables for long-range coulomb (src/kspace.cpp:340)
  G vector (1/distance) = 0.11438956
  grid = 60 60 60
  stencil order = 5
  estimated absolute RMS force accuracy = 0.00041211524
  estimated relative force accuracy = 0.00041211524
  using double precision KISS FFT
  3d grid and FFT values/proc = 42875 28800
  generated 0 of 1 mixed pair_coeff terms from geometric mixing rule
Per MPI rank memory allocation (min/avg/max) = 11.45 | 11.54 | 11.62 Mbytes
Step PotEng Temp c_press Lx CPU 
   50000   -101185.64    1.5014805 -0.0040933265          160            0 
   55000   -107535.41    1.5905577 -0.0034471281        150.6    42.215884 
   60000   -114195.62    1.5242385 -0.0038958311        141.2    84.467147 
   65000   -121466.57    1.5205705 -0.0037388887        131.8    126.72604 
   70000   -129435.64    1.5112762 -0.0035342631        122.4    169.09053 
   75000   -137461.53    1.5322688 -0.0023279092          113    211.55523 
   80000   -146222.21    1.5641178 0.0010994019        103.6    254.03674 
   85000   -155026.96    1.4838802  0.010209294         94.2    296.59627 
   90000   -163681.52    1.5547008  0.031242323         84.8    339.26513 
   95000   -171910.99     1.581832  0.080789336         75.4    382.23466 
  100000   -181958.71    1.5581016   0.17235309           66    425.54991 
Loop time of 425.55 on 8 procs for 50000 steps with 2304 atoms

Performance: 2030.313 tau/day, 117.495 timesteps/s
99.6% CPU use with 8 MPI tasks x 1 OpenMP threads

MPI task timing breakdown:
Section |  min time  |  avg time  |  max time  |%varavg| %total
---------------------------------------------------------------
Pair    | 10.238     | 10.574     | 10.888     |   8.6 |  2.48
Bond    | 0.005669   | 0.0076998  | 0.0099392  |   1.6 |  0.00
Kspace  | 378.53     | 379.09     | 379.58     |   1.9 | 89.08
Neigh   | 0.78605    | 0.85552    | 0.93713    |   5.5 |  0.20
Comm    | 3.7736     | 4.1068     | 4.4354     |  11.0 |  0.97
Output  | 0.00042663 | 0.0053058  | 0.011768   |   5.3 |  0.00
Modify  | 25.392     | 27.888     | 30.232     |  34.0 |  6.55
Other   |            | 3.021      |            |       |  0.71

Nlocal:        288.000 ave         305 max         268 min
Histogram: 2 0 0 0 0 2 2 0 0 2
Nghost:        5828.88 ave        5869 max        5787 min
Histogram: 1 1 1 1 0 0 1 1 1 1
Neighs:         0.00000 ave           0 max           0 min
Histogram: 8 0 0 0 0 0 0 0 0 0
FullNghs:      233289.0 ave      248966 max      216111 min
Histogram: 2 0 0 0 1 2 1 0 0 2

Total # of neighbors = 1866312
Ave neighs/atom = 810.03125
Ave special neighs/atom = 0.0000000
Neighbor list builds = 333
Dangerous builds = 0

    unfix 1
#    unfix 2
    unfix freeze
    unfix deforming

    timestep 0.002

    fix 1 all   nph	            iso ${ipress} ${ipress} 1.0
    fix 1 all   nph	            iso 0.1 ${ipress} 1.0
    fix 1 all   nph	            iso 0.1 0.1 1.0
    run ${t_pressed}
    run 50000
PPPM initialization ...
  using 12-bit tables for long-range coulomb (src/kspace.cpp:340)
  G vector (1/distance) = 0.1206864
  grid = 32 32 32
  stencil order = 5
  estimated absolute RMS force accuracy = 0.00049681107
  estimated relative force accuracy = 0.00049681107
  using double precision KISS FFT
  3d grid and FFT values/proc = 9261 4096
  generated 0 of 1 mixed pair_coeff terms from geometric mixing rule
Per MPI rank memory allocation (min/avg/max) = 9.326 | 9.329 | 9.334 Mbytes
Step PotEng Temp c_press Lx CPU 
  100000    -181919.6    1.5581016     0.173973           66            0 
  105000   -200324.68    1.6692246  0.096986804    61.917137    14.125944 
  110000   -202281.41    1.6911416  0.098177939    60.775502    28.458236 
  115000   -203469.39    1.6777173   0.10340857    60.276862    42.985033 
  120000   -204259.33    1.7102029  0.099701215    60.091343    57.541801 
  125000   -204843.72    1.7244901  0.095773276    60.038905    72.130416 
  130000   -204976.91    1.7279907  0.098039347    60.007545    86.741066 
  135000   -205178.05    1.7349452   0.10398855    59.961449    101.31812 
  140000   -205209.33    1.6968454    0.1070084    59.913919    115.93231 
  145000   -205386.57    1.7342303   0.10298926     59.95795    130.52153 
  150000   -205479.92    1.6817884   0.10293698    59.943943    145.13479 
Loop time of 145.135 on 8 procs for 50000 steps with 2304 atoms

Performance: 59530.813 tau/day, 344.507 timesteps/s
97.4% CPU use with 8 MPI tasks x 1 OpenMP threads

MPI task timing breakdown:
Section |  min time  |  avg time  |  max time  |%varavg| %total
---------------------------------------------------------------
Pair    | 15.937     | 18.231     | 19.927     |  27.8 | 12.56
Bond    | 0.0053566  | 0.0058437  | 0.0073203  |   0.8 |  0.00
Kspace  | 66.366     | 66.83      | 67.372     |   4.8 | 46.05
Neigh   | 6.6453     | 6.7947     | 7.0522     |   4.5 |  4.68
Comm    | 6.0446     | 6.1366     | 6.2224     |   2.3 |  4.23
Output  | 0.00032367 | 0.00048046 | 0.0015637  |   0.0 |  0.00
Modify  | 44.142     | 45.346     | 47.192     |  16.9 | 31.24
Other   |            | 1.79       |            |       |  1.23

Nlocal:        288.000 ave         298 max         282 min
Histogram: 1 2 1 2 0 0 0 1 0 1
Nghost:        7257.12 ave        7271 max        7239 min
Histogram: 1 0 0 0 3 0 0 2 1 1
Neighs:         0.00000 ave           0 max           0 min
Histogram: 8 0 0 0 0 0 0 0 0 0
FullNghs:      315098.0 ave      325984 max      308604 min
Histogram: 1 2 1 2 0 0 0 1 0 1

Total # of neighbors = 2520786
Ave neighs/atom = 1094.0911
Ave special neighs/atom = 0.0000000
Neighbor list builds = 745
Dangerous builds = 0
    unfix 1
    fix 1 all   nph	            iso ${ipress} ${ppress} 1.0
    fix 1 all   nph	            iso 0.1 ${ppress} 1.0
    fix 1 all   nph	            iso 0.1 0 1.0
    run ${t_relaxed}
    run 100000
PPPM initialization ...
  using 12-bit tables for long-range coulomb (src/kspace.cpp:340)
  G vector (1/distance) = 0.1214356
  grid = 30 30 30
  stencil order = 5
  estimated absolute RMS force accuracy = 0.00049908431
  estimated relative force accuracy = 0.00049908431
  using double precision KISS FFT
  3d grid and FFT values/proc = 8000 3600
  generated 0 of 1 mixed pair_coeff terms from geometric mixing rule
Per MPI rank memory allocation (min/avg/max) = 9.783 | 9.803 | 9.816 Mbytes
Step PotEng Temp c_press Lx CPU 
  150000   -205479.78    1.6817884    0.1029423    59.943943            0 
  155000   -205614.82    1.6990965  0.093060422    60.027196     14.15204 
  160000   -205562.49    1.6802636  0.091882734    60.066195     28.23423 
  165000   -205586.41    1.6945706  0.088107674    60.093348    42.358905 
  170000   -205422.03    1.6605299  0.083520493    60.176001     56.45738 
  175000   -205601.83    1.6864537  0.078856717    60.188017     70.58719 
  180000   -205717.27    1.6704124  0.064039549    60.357127    84.706762 
  185000   -205585.01    1.6989239  0.064895208    60.407624    98.804331 
  190000   -205859.53     1.732888  0.059481335    60.436847    112.84788 
  195000   -205455.95    1.6389392  0.046928595    60.610694    126.93409 
  200000   -205456.76    1.7268635  0.049768734      60.6391    141.01992 
  205000   -205479.82    1.6707388  0.049544196    60.620794    155.04825 
  210000   -205362.65    1.6682191  0.040857026    60.786983    169.08376 
  215000   -205737.02    1.6811026  0.038591983    60.732413    183.12966 
  220000   -205235.72    1.6997404  0.027112982    60.958526    197.17583 
  225000   -205130.28    1.6704117  0.026631279    61.024709    211.14957 
  230000   -204941.83    1.6359727  0.018250795    61.165557    225.12272 
  235000   -204792.43    1.6800635  0.010039736    61.346679    239.04675 
  240000    -204749.6    1.7531266 0.0093253965     61.34234    252.96358 
  245000   -204493.66    1.6948347  0.002312059    61.566754    266.82349 
  250000   -204265.82    1.7549602 0.0024421141    61.690523    280.68981 
Loop time of 280.69 on 8 procs for 100000 steps with 2304 atoms

Performance: 61562.593 tau/day, 356.265 timesteps/s
94.4% CPU use with 8 MPI tasks x 1 OpenMP threads

MPI task timing breakdown:
Section |  min time  |  avg time  |  max time  |%varavg| %total
---------------------------------------------------------------
Pair    | 53.218     | 59.153     | 62.162     |  37.2 | 21.07
Bond    | 0.011146   | 0.011882   | 0.013212   |   0.7 |  0.00
Kspace  | 108.43     | 109.73     | 111        |   9.2 | 39.09
Neigh   | 13.373     | 13.617     | 13.83      |   3.5 |  4.85
Comm    | 12.182     | 12.338     | 12.526     |   3.2 |  4.40
Output  | 0.00062757 | 0.00094038 | 0.0030955  |   0.0 |  0.00
Modify  | 64.267     | 78.492     | 87.523     |  90.7 | 27.96
Other   |            | 7.348      |            |       |  2.62

Nlocal:        288.000 ave         296 max         277 min
Histogram: 1 0 0 0 1 2 2 1 0 1
Nghost:        6951.12 ave        7010 max        6909 min
Histogram: 2 1 1 0 1 0 1 0 1 1
Neighs:         0.00000 ave           0 max           0 min
Histogram: 8 0 0 0 0 0 0 0 0 0
FullNghs:      289146.0 ave      297937 max      277496 min
Histogram: 1 0 0 0 1 2 2 1 0 1

Total # of neighbors = 2313164
Ave neighs/atom = 1003.9774
Ave special neighs/atom = 0.0000000
Neighbor list builds = 1496
Dangerous builds = 0
    unfix 1

    timestep 0.001
    dump moldump all custom 10000 ${xyzname} id type q x y z
    dump moldump all custom 10000 r8f0_coulombic_1.70.lammpstrj id type q x y z
    fix 1 all   nph                 iso ${ppress} ${ppress} 1.0
    fix 1 all   nph                 iso 0 ${ppress} 1.0
    fix 1 all   nph                 iso 0 0 1.0
    run ${t_eq}
    run 10000000
PPPM initialization ...
  using 12-bit tables for long-range coulomb (src/kspace.cpp:340)
  G vector (1/distance) = 0.12075957
  grid = 30 30 30
  stencil order = 5
  estimated absolute RMS force accuracy = 0.000542484
  estimated relative force accuracy = 0.000542484
  using double precision KISS FFT
  3d grid and FFT values/proc = 8000 3600
  generated 0 of 1 mixed pair_coeff terms from geometric mixing rule
Per MPI rank memory allocation (min/avg/max) = 11.05 | 11.07 | 11.08 Mbytes
Step PotEng Temp c_press Lx CPU 
  250000   -204265.87    1.7549602 0.0024401649    61.690523            0 
  255000   -204213.79    1.6646012 0.0024314756    61.736793    13.398824 
  260000   -204302.95    1.7050796 -0.0021221675    61.776917     26.78648 
  265000   -204254.03    1.7190903 -0.0028699261    61.742519    40.228429 
  270000   -204295.87    1.7382216 -0.002569945    61.757511    53.643744 
  275000   -204122.78    1.7043879 0.0021154891    61.741974     67.10587 
  280000   -204181.46    1.7063763 0.0024739509    61.735315    80.518704 
  285000   -204018.88    1.6748676 0.00012685817    61.821075    93.913441 
  290000    -204028.2    1.7271544 -0.0023105036    61.888767    107.31687 
  295000    -204014.8    1.7198041 -0.00076792669    61.796833    120.66263 
  300000   -204129.83    1.6923689 -0.0029464913    61.774255    134.08362 
  305000   -203842.76    1.7043216 -0.0034638963    61.887073     147.5092 
  310000   -203990.29    1.7557646 0.00011886908    61.843002    160.91713 
  315000   -203829.51    1.6562252 -1.5395502e-05     61.93521    174.27582 
  320000   -203844.52    1.6578856 0.0092466405    61.788937    187.64297 
  325000   -203739.11     1.677269 -0.00061881212     61.95627    201.03748 
  330000   -203728.31    1.6795876 -0.0011205078    61.903187    214.46072 
  335000   -203921.09    1.7015944 0.00017765753    61.890484    227.86262 
  340000   -203850.06     1.701534 0.0056553802    61.832748    241.28999 
  345000   -203750.54    1.6855671 0.0014864974    61.909604    254.65711 
  350000   -203756.27    1.7566568 0.00016975244    61.941055    268.02481 
  355000   -203664.77    1.7164358 0.0013949646    62.023107    281.33317 
  360000   -203731.61    1.7338278 0.0062839707    61.861857    294.72746 
  365000   -203791.59    1.7109741 -0.00053452857    61.977671    308.09657 
  370000   -203885.83    1.6916169 -0.0037097835    61.980231    321.50149 
  375000   -203889.35    1.6853126 0.00059902643    61.972272    334.87954 
  380000   -203856.99    1.6877006 -0.0017963617     61.95228    348.25314 
  385000   -204099.96    1.6875782 0.0018668387    61.797744    361.63028 
  390000   -204105.68    1.7237281 0.0019789552    61.777011    375.01524 
  395000   -203854.61    1.7148059 0.0019712569    61.864836       388.41 
  400000   -203839.01    1.6948743 0.00044781314    61.879816    401.78531 
  405000   -203811.29    1.7257259 -0.00030051198    61.982736    415.17976 
  410000   -203640.96    1.6836065 0.0038061017    61.988312    428.54207 
  415000   -203800.36     1.710131 0.0037961559    61.903597    441.87992 
  420000   -203577.64    1.6827238 -0.0064454065    62.025947    455.23026 
  425000   -203804.17     1.654111 -0.00085765759    61.934673    468.59406 
  430000   -203986.85    1.6783763 0.0020898994    61.848194    481.97476 
  435000   -204009.28    1.7080329 0.0037489669    61.785238    495.33353 
  440000   -204002.61    1.6846107 0.0051831379    61.755787    508.70064 
  445000    -203952.9    1.6964897 -0.0023860523    61.832087    522.07136 
  450000   -203754.56    1.7586297 -0.0030391813    61.989908    535.42414 
  455000   -203774.84    1.7184071 0.0022380132    61.859386    548.80338 
  460000   -203994.73    1.6886472 -0.0017413683    61.864685    562.20325 
  465000   -203790.95    1.6573345 -0.007006786    62.032234    575.60861 
  470000    -204143.1    1.6700127  0.001938514    61.793847     588.9944 
  475000   -203898.94    1.6293727 -0.007760739    61.874754    602.40018 
  480000   -204234.38     1.640164 -0.0015809046    61.691827    615.86821 
  485000   -204315.04    1.7081956 -0.0016014001    61.741788    629.27931 
  490000   -203997.47    1.7408506 -0.0057130571    61.797286     642.7308 
  495000   -204000.58    1.7259408 -0.0066339873    61.833645    656.19335 
  500000   -204052.25    1.6963557 -0.0028538743    61.777396      669.617 
  505000   -204124.59    1.7051894 0.00072421668    61.813766    683.01239 
  510000    -203791.4    1.6591064 -0.005733214    61.938542    696.41095 
  515000   -203855.34    1.6912465 -0.0034249044    61.927871    709.80629 
  520000   -203926.25    1.6996902 0.0018819716    61.805244    723.18354 
  525000   -203763.86    1.7168641 -0.0032370618    61.939783    736.57927 
  530000   -203883.68    1.7071461 -0.0043486951     61.95201    749.94635 
  535000   -203780.23    1.6780076 -0.0030192638    61.925471     763.3214 
  540000    -203811.6    1.6371594 0.0026582243     61.79851    776.69694 
  545000   -203775.43    1.6942418 0.0078935255    61.884602    790.09494 
  550000   -203614.74    1.7355754 0.0033678007    61.945812    803.47118 
  555000   -203570.43    1.6885274 -0.0031020356    61.979121    816.85858 
  560000   -203617.31    1.7067158 -0.0043534547    62.034234    830.23803 
  565000   -203706.21    1.7221032 -0.0017222038    61.950711    843.58529 
  570000    -203802.9    1.7369873 0.0041660926    61.852738    856.99697 
  575000   -203691.76    1.7137422 0.0036735974    61.990444    870.38458 
  580000    -203632.4    1.7338418 0.0022046435    61.927378    883.76243 
  585000   -203864.55     1.721355 -0.0047452022    61.936202    897.12189 
  590000    -203818.8    1.7191614 -0.0010956277    61.863429    910.56181 
  595000   -203795.16     1.630919 -0.004647333    61.967227    923.98271 
  600000   -203673.65    1.7144429 -0.0047833849    61.974353    937.40299 
  605000   -203777.12    1.6952555 -0.001644336    61.966897    950.77719 
  610000   -203530.58    1.7122826 0.00068429594     62.03178    964.10676 
  615000   -203430.44    1.7131882 0.0021755791    62.016373    977.41055 
  620000   -203555.93    1.6548285 0.0015234182    62.047147    990.73718 
  625000   -203460.62    1.6891756 0.00090595082    62.065399    1004.0523 
  630000   -203510.32    1.7430287 -0.0083314723    62.158692    1017.3681 
  635000   -203705.51    1.7403391 -0.0010693161    62.017034     1030.712 
  640000   -203854.88     1.694284 -0.0039066046    61.998555    1044.0337 
  645000   -203632.69    1.6476569 -0.0031641461    62.038874    1057.3838 
  650000   -203538.01    1.6851563 -0.0039583954    62.146884    1070.7009 
  655000   -203685.32     1.683482 0.0018321958    61.931567    1084.0335 
  660000   -203596.82    1.6853978 0.0038446199    61.930159    1097.3747 
  665000   -203598.04    1.7068888 -0.0012428941    61.994976    1110.7614 
  670000   -203668.11     1.679698 -0.0018829183    62.035748    1124.0942 
  675000   -203438.21    1.6734568 -0.0051720736    62.124017    1137.4464 
  680000    -203758.9    1.6754562 -0.0016838417    61.972115    1150.7637 
  685000   -203670.22    1.6989587 -0.0061851469    62.054591    1164.1189 
  690000   -203569.64    1.6996588 -0.0028209203    62.043105    1177.5092 
  695000   -203720.44    1.6762609 0.0016488394    61.925971     1190.908 
  700000   -203678.34    1.6663161 -0.0048952591     62.09433    1204.2116 
  705000   -203547.02    1.6857913 -4.2807522e-05    62.017449    1217.5428 
  710000   -203631.79    1.7259928 -0.005240923    62.064426    1230.8954 
  715000   -203658.52     1.684417 4.1253904e-05    62.056942    1244.2485 
  720000   -203566.14     1.683291  0.001054169    62.034505    1257.5823 
  725000   -203735.91    1.6887285 0.0058575128    61.890136      1270.92 
  730000   -203558.49    1.6748705 -0.00049316705     61.99141    1284.2474 
  735000   -203533.16    1.7080602 -0.0015940755    62.052699    1297.5701 
  740000   -203426.52    1.7174704 -0.0037118105    62.107764    1310.8801 
  745000   -203573.98    1.7009539 -0.0053488034    62.032251    1324.2067 
  750000   -203512.99    1.6682082 -0.00065376538    62.083468     1337.545 
  755000   -203754.16    1.7068089 0.00022688231    61.983274     1350.864 
  760000   -203542.92    1.6774274 -0.0029018606    62.067309    1364.2155 
  765000   -203708.55     1.727149 -0.0020963777    62.033861    1377.5163 
  770000   -203442.46    1.7084391 -0.005190228    62.122323    1390.7899 
  775000   -203447.78    1.7025439 -0.00067595993    62.080738    1404.1508 
  780000   -203581.25    1.6991383 0.0033302109    61.939886    1417.5031 
  785000   -203656.11    1.6703119 3.3459683e-05    61.978591    1430.8771 
  790000   -203588.94     1.701333 -0.001964129    62.039441    1444.2275 
  795000   -203453.38    1.7099464 0.0023215214    62.044035    1457.5515 
  800000    -203454.7    1.7045171 0.0038772071    62.019727    1470.8925 
  805000   -203741.11    1.7199178 0.0077776489    61.902564    1484.2419 
  810000   -203555.43    1.7012869 -0.00031443843    62.028912    1497.6117 
  815000   -203636.46    1.6961062 -0.00032128315    62.047142    1510.9818 
  820000   -203554.83    1.7221414 0.0082834677    61.970764    1524.2991 
  825000   -203402.17    1.6652848 0.0061097492    62.017481    1537.6163 
  830000   -203547.77    1.7093353 0.0041875973    62.040693    1550.9169 
  835000   -203306.88    1.7082972 -0.0076690824    62.149101    1564.2266 
  840000   -203601.27    1.6820107 -0.00066551249    62.102411     1577.518 
  845000   -203433.87    1.7069593 0.00061363358    62.081061    1590.8228 
  850000   -203501.67    1.7256044 -0.0066070584    62.114744    1604.1251 
  855000   -203619.96    1.6971734 -0.00074156095    61.999181    1617.3963 
  860000   -203552.26    1.7040959 0.00049152994     62.01832    1630.7315 
  865000   -203596.31    1.6902447 -0.00067474257     62.01448    1644.0698 
  870000   -203568.65    1.6681168 0.0016133316    62.003786    1657.3809 
  875000   -203645.54    1.6556456 -0.0022723215    62.056481    1670.6856 
  880000   -203274.24    1.6876692 -0.0053591231    62.208867     1684.004 
  885000    -203462.5    1.7298382 -0.002404818    62.101252    1697.3377 
  890000    -203508.4    1.6780594 -0.0017938528    62.141032    1710.6106 
  895000   -203669.63    1.6913483 0.0047914654    62.016572    1723.9319 
  900000   -203550.07    1.7029165  0.001538976    62.095874    1737.2279 
  905000   -203536.82    1.7386779 -0.0011434225    62.111448    1750.4785 
  910000    -203475.5    1.6866003 0.0018616108    62.064577    1763.7521 
  915000   -203550.86    1.6560918 -0.0045193461    62.127786     1777.037 
  920000   -203597.92     1.705198 -0.0017185366    62.039818    1790.3289 
  925000   -203633.72    1.7564089 0.0017833568    61.937464    1803.6753 
  930000   -203578.86    1.7213043 -0.003951227    62.102273    1817.0456 
  935000   -203680.14    1.6910996 0.0021377517     61.94425    1830.4223 
  940000   -203732.56    1.6961071 0.0030451797    61.944025    1843.7375 
  945000   -203517.61    1.7170517 0.0062205099    61.979616    1857.0806 
  950000   -203496.54    1.7034739 0.0042300863    62.040649    1870.4124 
  955000   -203558.94    1.6825163 -0.0039289907    62.081319    1883.7178 
  960000   -203560.63    1.7473821 0.0013845053    62.018256    1897.0084 
  965000   -203733.05    1.7021225 -0.0015894457    61.981579    1910.3477 
  970000   -203777.75    1.7046728 0.0020263166    61.958796    1923.6606 
  975000   -203728.53    1.6906783 -0.0066328728    62.069375    1937.0012 
  980000   -203687.09     1.706755 -0.0040851126    62.149983     1950.332 
  985000   -203724.79    1.6722213 -0.0027565522    62.053735    1963.6343 
  990000   -203399.46    1.6597718   0.00292412    62.081518     1976.937 
  995000   -203464.23    1.7072414 -0.0058207156    62.257191    1990.2516 
 1000000   -203455.48    1.7480063 -0.00088676707    62.183313    2003.5316 
 1005000   -203249.87    1.7198502 -0.00041896306    62.183329    2016.8403 
 1010000   -203454.75    1.7002943 0.00094288337    62.137904    2030.1604 
 1015000   -203410.69    1.6729722 0.00023411523    62.089997    2043.4656 
 1020000   -203469.94    1.6778712 0.0062426381    62.038438    2056.7725 
 1025000   -203308.45    1.7254562 -0.0004374112     62.11089    2070.1035 
 1030000   -203263.66     1.719293 -0.0013506254    62.204759     2083.399 
 1035000   -203175.02    1.7235203 -0.0016504585    62.252271    2096.7278 
 1040000   -203145.03    1.6831707 0.0010577151    62.267244    2110.0199 
 1045000   -203058.34    1.6817364 -0.00059787864    62.348114    2123.2862 
 1050000   -203306.65    1.7232927 0.0016212306    62.177584    2136.4825 
 1055000   -203329.02    1.6600067 0.0033808073    62.159206    2149.7482 
 1060000   -203324.06    1.6839184 0.0032296539    62.176966    2163.0144 
 1065000   -203459.49    1.7235191  0.003555653    62.122466    2176.2934 
 1070000   -203351.55      1.68111 -0.0032495693      62.2138    2189.5851 
 1075000   -203363.67    1.6748473 0.0019977394    62.082656    2202.9199 
 1080000   -203577.74    1.7142542 0.00089123232    62.010842    2216.2303 
 1085000   -203467.56    1.7244752 0.0017272896    62.000509     2229.547 
 1090000   -203354.02    1.7013467 0.0035192747    62.057692    2242.8648 
 1095000   -203428.53    1.7061604 0.0005255181    62.026614     2256.194 
 1100000   -203307.97    1.6563317 0.0039689646    62.064312    2269.4829 
 1105000   -203233.34    1.6919898 -0.0056527634    62.218098    2282.7699 
 1110000   -203373.14    1.7016307  0.001913163    62.095419    2296.0449 
 1115000   -203129.69    1.7627005 0.0033425929    62.145657     2309.348 
 1120000   -203415.66    1.6988496 0.0034064901    62.071293    2322.6638 
 1125000   -203270.59     1.713531 0.0040154743    62.119966    2335.9566 
 1130000   -203383.85    1.7054828 -0.00076395197    62.127127    2349.2697 
 1135000    -203314.9    1.6955548 0.0031111642    62.139071    2362.5795 
 1140000   -203234.97      1.66225 0.0056388531    62.202004    2375.8671 
 1145000   -203382.95    1.6551059 0.0057014209    62.122647    2389.1462 
 1150000   -203169.79    1.7333791 -0.0039417041    62.324823    2402.4625 
 1155000   -203350.58    1.6643811 -0.0071594656    62.356859    2415.7611 
 1160000   -203364.68    1.6940924 0.0066293772    62.136167    2429.0407 
 1165000    -203231.3    1.6821328 0.0018758222     62.20998    2442.3578 
 1170000   -203168.08    1.6755207 0.0017245535    62.145223    2455.6722 
 1175000   -203200.96    1.7252107 -0.00062934638    62.206034     2468.953 
 1180000   -203064.23     1.732711 0.0040517986    62.184726    2482.2272 
 1185000    -203150.8     1.711042 0.0014346348    62.239935    2495.5257 
 1190000   -203323.66    1.6695323 -0.0002746613    62.191762    2508.7987 
 1195000   -203340.39    1.7265295 -0.0022031435    62.184184    2522.0903 
 1200000   -203151.42    1.7204797 -0.0056763039    62.266084     2535.399 
 1205000   -203478.89     1.700616 0.0016922118    62.104582    2548.7021 
 1210000   -203317.13    1.6861294 -0.0036597777    62.284803    2561.9708 
 1215000    -203196.7    1.6844243 -0.00094421131    62.252188    2575.2785 
 1220000   -203197.27    1.6985602 -0.004311839    62.336848    2588.5145 
 1225000   -203342.05     1.708921 0.0023422662    62.177879    2601.8038 
 1230000    -203366.3    1.6673788 -0.0045361753    62.219063    2615.0943 
 1235000   -203369.43    1.7334332 -8.2809657e-05    62.125667    2628.3759 
 1240000   -203159.02     1.701219 -0.0043269473    62.277074    2641.6688 
 1245000   -203144.77    1.6789054 -0.0010256242    62.271527    2654.9512 
 1250000   -203148.72    1.7006858 -0.0018443569    62.270458    2668.2697 
 1255000   -203378.63    1.7233241 0.0019888957    62.192122    2681.5691 
 1260000   -203209.11    1.7010071 -0.00076151971    62.244857    2694.8902 
 1265000   -203320.13    1.6900917 -0.0017401879    62.243853    2708.1872 
 1270000   -203448.99    1.7027642 -0.0052736357    62.187639    2721.4713 
 1275000   -203298.32    1.6792236 0.0019793349    62.093058    2734.7677 
 1280000   -203404.16    1.7079072 -0.001986491    62.031809    2748.1031 
 1285000   -203597.57    1.7569634 0.0037495518    61.968312    2761.4241 
 1290000   -203478.17    1.7197731 -0.0018562686     62.05355    2774.7474 
 1295000   -203574.21    1.6961488 0.0040575631     61.93875    2788.0546 
 1300000   -203335.33    1.7101199 9.535906e-05    62.146812    2801.4057 
 1305000   -203500.28    1.6654823 0.00057096808    62.116335    2814.6911 
 1310000   -203594.03    1.6808836 -0.0030167053    62.148351    2827.9848 
 1315000   -203599.54    1.6870704 0.0020364037    62.000068    2841.2879 
 1320000   -203547.77    1.6793851 -0.0024103887    62.097757    2854.5784 
 1325000   -203780.15    1.6953756 -0.00092748223    61.991392    2867.9337 
 1330000   -203635.34    1.6845647 -0.0065032561    62.075746    2881.2703 
 1335000      -203667    1.7288351 0.0011897858     61.98638    2894.6348 
 1340000   -203478.26    1.6979711 0.0067451828    62.006278    2907.9608 
 1345000   -203580.81    1.6961218 -0.0034013478    62.050095    2921.3022 
 1350000   -203554.56    1.7050768 0.0013247537    61.983793    2934.6494 
 1355000   -203433.82    1.6643216 -0.0048735972    62.157974    2947.9832 
 1360000   -203576.61    1.6985437 -0.0019868324    62.064071    2961.2914 
 1365000   -203528.57    1.7527153 -0.006912143     62.17621    2974.6293 
 1370000   -203666.91    1.7331484 0.0064890354     61.92879    2988.0037 
 1375000   -203284.84    1.7044915 -0.0021749273    62.140675    3001.3254 
 1380000   -203530.13    1.7125692 -0.00097792043    62.083512    3014.6421 
 1385000    -203159.6    1.7287025 -0.0047193645    62.180995    3027.9548 
 1390000   -203267.08    1.6939322 -0.0034488667    62.163614    3041.2519 
 1395000   -203211.57    1.6669318 -0.00036685063    62.125524    3054.6138 
 1400000   -203444.96    1.7163297 -0.001656172    62.126798    3067.9212 
 1405000   -203423.49    1.6829777 -0.0031857132    62.154899    3081.2753 
 1410000   -203456.48    1.7362482 -0.0030177719    62.180807    3094.5824 
 1415000   -203305.21    1.6884824 -0.00082208682    62.088883    3107.8965 
 1420000   -203526.77    1.6827806 0.0011787037    62.052063    3121.2367 
 1425000   -203372.28    1.7173648 -0.00096813469    62.147589    3134.5535 
 1430000   -203326.95    1.7379842  0.003513552    62.136627    3147.8499 
 1435000   -203519.68    1.6890106  0.005350501     62.00586    3161.1588 
 1440000   -203302.33    1.6974482 0.0015080222    62.105796    3174.4455 
 1445000   -203341.83    1.7030673 -0.0019798447    62.172033    3187.7549 
 1450000   -203332.39    1.7157982 -0.0023476187    62.203456    3201.0551 
 1455000   -203350.68    1.7545144 0.00025207867    62.190157    3214.3359 
 1460000   -203434.16    1.6889538 0.0037031028    62.055616    3227.6823 
 1465000   -203245.01    1.7017386 -0.0011721671    62.191087    3240.9764 
 1470000   -203397.31    1.6687611 0.00015463709    62.215764    3254.2607 
 1475000   -203420.72    1.6906221 -0.00031847869    62.154352    3267.5237 
 1480000   -203363.13    1.6935473 -0.0014106183    62.208842    3280.8234 
 1485000   -203329.62     1.667756 0.0029918789    62.152866    3294.0969 
 1490000   -203627.23    1.6685868 0.0013089352    62.050372    3307.4343 
 1495000    -203435.9    1.7209335 0.0057154244    62.035836     3320.733 
 1500000   -203330.35    1.6695467 0.00053997361    62.137829    3334.0281 
 1505000   -203485.36    1.7097801 0.00035556866    62.158648    3347.3475 
 1510000   -203307.37    1.6626606 -0.0068783874    62.233399    3360.6301 
 1515000   -203575.91    1.7280414 0.0050802789    62.021937    3373.9051 
 1520000   -203531.37    1.7198863 0.00059713267    62.103555    3387.2161 
 1525000   -203288.42    1.6852817  0.002176287    62.081128    3400.5015 
 1530000   -203346.37    1.6798541 0.0022655596    62.116305    3413.8304 
 1535000   -203473.47    1.6864133 -0.0056265643    62.106555     3427.143 
 1540000   -203583.64    1.7016771 0.0041672325    61.991186    3440.4522 
 1545000   -203409.89    1.7411914 -0.00011814037    62.098509    3453.7763 
 1550000    -203601.4    1.6866259 0.00082734043    62.088298    3467.1192 
 1555000   -203684.69    1.7283878 -0.00057774513    62.106224    3480.4344 
 1560000   -203460.61    1.7421267 -0.0061456481    62.187063    3493.7477 
 1565000   -203399.39    1.7110638 -0.007837098    62.209866    3507.0625 
 1570000   -203317.94    1.6803918 0.0064282555    62.074584     3520.354 
 1575000   -203452.37    1.7031484 -0.0042170851    62.168938    3533.6486 
 1580000   -203356.74     1.699243 5.4894987e-05     62.14964    3546.9477 
 1585000   -203428.04    1.7201184 0.0014836673    62.090524    3560.2478 
 1590000   -203457.72     1.624432  0.002157982    62.018376    3573.5871 
 1595000    -203572.3    1.7078615 -0.0037967013    62.119459    3586.9225 
 1600000   -203461.46    1.6860984 -0.0019633787    62.122368    3600.2591 
 1605000   -203654.46    1.6925986 0.0060786092    61.991581    3613.5688 
 1610000   -203561.02    1.6735693 -0.00038655819    62.028134    3626.9056 
 1615000   -203545.33    1.7318949 0.0039891882    61.952928    3640.2249 
 1620000   -203808.24    1.6860509 -0.0017888683    61.915065    3653.5838 
 1625000   -203548.52    1.6857123 0.0041885928    61.936492     3666.968 
 1630000   -203716.61    1.7291394 2.4579797e-06    61.972399    3680.2719 
 1635000   -203736.97    1.7016249 0.0028389388    61.901484    3693.6311 
 1640000   -203736.25    1.7089361   -0.0013097    61.961998    3706.9889 
 1645000   -203496.38    1.6977791 0.0040827067    62.057493    3720.3211 
 1650000   -203588.67    1.6724862 0.0021050718    61.969415     3733.692 
 1655000   -203444.51    1.7531564 0.0041052502    62.016019    3747.0263 
 1660000   -203238.37    1.7140443 -0.0010668237    62.130013    3760.3449 
 1665000   -203315.28    1.6569413 -9.2336826e-05    62.120952    3773.6664 
 1670000   -203303.27    1.6869333 -0.012532882    62.311534    3787.0152 
 1675000   -203351.57    1.7082023 0.0032686737    62.063357    3800.3195 
 1680000   -203405.55    1.6999304 -0.0020907234    62.165867    3813.6039 
 1685000   -203271.58    1.6703075 0.0027287896    62.081245    3826.9175 
 1690000   -203394.12    1.6967496 -0.0013215288    62.026742    3840.2495 
 1695000   -203402.19    1.6647297 0.0050192751    62.008414     3853.591 
 1700000   -203672.64    1.7170181 0.0097088542    61.856033    3866.9514 
 1705000   -203391.97    1.6949445 -0.0014749896    62.033861    3880.2881 
 1710000   -203528.66    1.6882992 -0.00093675582    61.986747    3893.5977 
 1715000    -203548.6    1.6914278 -2.2094225e-05    62.020518    3906.9271 
 1720000   -203336.28    1.6957789 0.0038582669    62.037166    3920.2668 
 1725000   -203407.94    1.7133577 -0.0073451251    62.154936    3933.5524 
 1730000   -203454.66    1.7081123 0.0034242194    62.058699    3946.8279 
 1735000   -203244.39    1.7125845 -0.0025594297    62.140714    3960.1793 
 1740000   -203289.08    1.6769835 -0.0045875888    62.226774    3973.4635 
 1745000   -203156.22    1.7223677 -0.00065801804    62.208808     3986.723 
 1750000   -203317.17    1.6912727 -0.0047567288    62.198774    4000.0407 
 1755000   -203587.42    1.6865442 0.00080790415    62.013423     4013.329 
 1760000   -203649.01    1.7513482 0.0003041525    62.000514     4026.649 
 1765000   -203820.29    1.7076351 -0.0032920615    61.886401    4040.0351 
 1770000   -203806.53    1.6791549 0.0056202377    61.928777    4053.3634 
 1775000   -203760.87    1.6989236 0.0016206363    61.948179    4066.7455 
 1780000   -203750.42    1.7613905 -0.0015047002    62.045885    4080.0959 
 1785000   -203715.24    1.6886189 0.0019140429    62.016982    4093.4103 
 1790000   -203759.58    1.6756037 0.0036990113    61.982793      4106.71 
 1795000   -203698.98    1.7505372 0.0065953017    61.876316    4120.0608 
 1800000   -203700.52    1.6659874 0.0038877283    61.893256     4133.392 
 1805000   -203683.42    1.6732181 0.0033844287    61.926171    4146.7467 
 1810000   -203821.94    1.6830601 0.0007468815    61.963467    4160.1072 
 1815000   -203659.27    1.6602663  0.001964894    61.935718    4173.4558 
 1820000   -203747.58    1.7155482 -0.00078122837    61.934323    4186.7981 
 1825000   -203613.36    1.7397702 0.0018329291    61.954828    4200.1537 
 1830000   -203440.05    1.7125608 0.0014639808    62.053589    4213.4777 
 1835000   -203306.59    1.6688115 -0.0036826564    62.169198    4226.7975 
 1840000   -203440.88    1.6831316   0.00458392    62.026115    4240.1035 
 1845000   -203572.29    1.7404393 -0.0011267144    62.062796    4253.4198 
 1850000   -203549.84      1.63954 -0.00020136717    61.996562    4266.7257 
 1855000   -203696.77    1.6765207 0.00080046808    61.918092    4280.0622 
 1860000   -203584.75    1.7272936 0.0030994088     61.96742     4293.381 
 1865000   -203744.64    1.6796631 -0.010876923    62.101577    4306.7289 
 1870000   -203567.72    1.7094317 0.00043451872    62.001766    4320.0402 
 1875000   -203456.28    1.7108814 -0.0049849873    62.174901    4333.3441 
 1880000    -203682.3    1.6806315 0.0053704205    61.989309    4346.6936 
 1885000   -203472.99    1.6767185 -0.0069854478    62.206863    4360.0108 
 1890000   -203507.61     1.687869 -0.0044067642    62.050087    4373.3441 
 1895000   -203720.85    1.7314243  0.001286374    61.934988    4386.7279 
 1900000   -203651.59    1.7182963 -0.0028340083    62.034706    4400.0965 
 1905000   -203581.37    1.6889016 0.0012080929     62.05758    4413.4177 
 1910000   -203473.11    1.6920214 0.0028748789    62.034971    4426.7675 
 1915000   -203393.15    1.6752683 -0.0052311186    62.259094     4440.034 
 1920000   -203577.89    1.7355054 0.0047986528    62.034764    4453.3032 
 1925000   -203679.18    1.7503643 0.00043187636      62.0015    4466.6197 
 1930000   -203650.23    1.6841429 -0.0011280765    62.019796    4479.9876 
 1935000   -203523.08    1.6804201 -0.0040911559    62.138363    4493.2935 
 1940000   -203393.53    1.6958075 0.0017914304    62.108116    4506.6384 
 1945000   -203344.82    1.6319288 -0.0013253969    62.196988    4519.9719 
 1950000   -203534.99    1.6510765 -0.0016274426    62.145073    4533.3009 
 1955000   -203539.47    1.7210268  0.004660454    62.047184    4546.5741 
 1960000   -203542.84    1.6857663 -0.0009688157    62.117026    4559.8838 
 1965000   -203340.15    1.7344604 -0.0019663439    62.195498    4573.2027 
 1970000   -203366.61    1.7251775 -0.0053757592     62.28097    4586.5133 
 1975000   -203345.43      1.75519 -0.0028533941    62.291726    4599.7692 
 1980000   -203284.17    1.6841617 0.0042380563    62.152731    4613.0326 
 1985000   -203162.84    1.7228211 -0.0036165977    62.276547    4626.3207 
 1990000   -203292.26    1.6766897 0.0013112592    62.240335    4639.6442 
 1995000   -203347.32    1.6855746 -0.00074085931    62.215004    4652.9217 
 2000000   -203301.44    1.6874053 -0.0041585866    62.187343    4666.2221 
 2005000   -203392.05    1.6772742 -0.0016453767    62.181311    4679.5098 
 2010000   -203371.16    1.6695664 -0.00033653752    62.138924    4692.8165 
 2015000   -203468.49    1.6871184 0.0034745796    62.074447    4706.1717 
 2020000   -203457.61    1.7053731 0.0026651643    62.089955    4719.5164 
 2025000   -203402.49    1.7114244 0.0054734473    62.051238    4732.8391 
 2030000   -203609.33    1.6763644 0.0041635719    62.007982    4746.1671 
 2035000   -203406.35    1.6921533 -0.00053504168    62.026905    4759.4781 
 2040000   -203432.78    1.6773818  0.002042346    62.026232    4772.8073 
 2045000   -203294.02    1.6948188 -0.0010361775    62.144723    4786.0954 
 2050000   -203401.51    1.7108114 0.0029587619    62.104332    4799.4265 
 2055000   -203384.96    1.6630447 0.0071106683    62.038116      4812.74 
 2060000   -203474.57    1.7463073 0.0018024632    62.088116    4826.0626 
 2065000   -203473.17    1.7112445  0.006149372    61.981465    4839.3866 
 2070000   -203469.51    1.7292977 -0.0023745089    62.102941    4852.7521 
 2075000   -203534.74    1.6846197 0.0013043663    61.998694    4866.1461 
 2080000   -203675.67    1.6723842 0.0017266963    61.959135    4879.4519 
 2085000   -203407.22    1.6900251 -0.00065201281    62.094647    4892.7623 
 2090000   -203463.12    1.7357555 -0.0013887484    62.093769    4906.0829 
 2095000   -203574.54    1.6920538 0.0030412777    62.018597    4919.3623 
 2100000   -203576.32    1.6861965  0.001586307    62.085171    4932.6798 
 2105000      -203371    1.6834093  0.001772963    62.163256    4945.9787 
 2110000   -203370.93    1.6853815 0.0036454714    62.136674    4959.2993 
 2115000   -203395.83    1.6915181 -0.0030959066    62.149559    4972.5719 
 2120000   -203358.57    1.6353808 -0.0004196474    62.075331    4985.8639 
 2125000   -203560.99    1.6905584 0.00084610077    62.041213    4999.1658 
 2130000   -203469.15     1.663492 -0.0024193087    62.062014    5012.4933 
 2135000   -203618.53    1.7072473 0.0038516875    62.066131    5025.8344 
 2140000   -203456.18    1.7380256 -0.0007261659    62.083584    5039.1416 
 2145000   -203461.47    1.7407485 -0.0035873643    62.133493    5052.4995 
 2150000    -203576.8    1.6474452 0.0035212691    61.984138    5065.8408 
 2155000   -203545.67    1.7000331 5.0622462e-05    62.071829    5079.1322 
 2160000   -203272.77    1.7416673 0.0049495269    62.022949    5092.4686 
 2165000   -203299.78    1.7031472 0.00091757388    62.160196    5105.7938 
 2170000   -203391.57     1.721295 0.0024609757    62.064626    5119.1256 
 2175000   -203356.55    1.6639662 0.00044900255    62.075093    5132.4669 
 2180000   -203455.45    1.6678818 0.0035974137    62.065066    5145.7871 
 2185000   -203625.08    1.6967469 0.0050591327    62.015167    5159.1168 
 2190000   -203438.48    1.7084877 -0.00011483117    62.068934    5172.4777 
 2195000   -203516.09    1.7345351 -0.0044104047    62.131688    5185.7541 
 2200000   -203580.96    1.6834982 -0.0011187495    62.066044    5199.0983 
 2205000   -203446.99    1.6559005 0.0076978404    62.042718     5212.421 
 2210000   -203278.47      1.69997 -0.002451773    62.241923    5225.7219 
 2215000   -203289.77    1.7232214 0.0040456387    62.177856    5239.0234 
 2220000   -203297.76    1.6622062 -0.0029193817    62.199559    5252.3456 
 2225000   -203491.75     1.660272  0.004558744     62.09687     5265.694 
 2230000   -203600.32    1.7066951 -0.0078626462    62.257851    5278.9937 
 2235000   -203246.69    1.6749988  -0.00764648    62.275039    5292.3277 
 2240000   -203289.44    1.7018053 0.00061815226    62.164578    5305.6078 
 2245000   -203432.18    1.7051748 0.0014713278     62.10331    5318.8632 
 2250000    -203344.1    1.7216451 -0.00090300547    62.225452    5332.1544 
 2255000   -203230.68    1.6674439 -0.0022736562    62.230246    5345.4197 
 2260000    -203223.2    1.6536265 -0.00061065033    62.134635    5358.6987 
 2265000   -203591.83    1.7232214 0.0050286538    61.993998     5372.012 
 2270000   -203529.89     1.705184 0.0049652141    61.983758    5385.3197 
 2275000   -203512.99    1.7027059 0.0057988573    61.924059    5398.6717 
 2280000   -203392.96    1.7029508 -0.0025606287    62.103726    5412.0141 
 2285000   -203380.51    1.7276089 0.00063587756    62.098445     5425.337 
 2290000   -203431.77    1.6948356 0.0014800609    62.097335    5438.6413 
 2295000      -203325     1.719523 -0.001974553    62.215535    5451.9791 
 2300000   -203412.66    1.6806551 -0.0051697597    62.100864    5465.2939 
 2305000   -203764.42    1.7098809 0.0037817961    61.988496     5478.619 
 2310000   -203358.72     1.645505 0.0021399687    62.048391    5491.9337 
 2315000   -203462.25     1.749689 -0.0013274111    62.093506    5505.2343 
 2320000   -203514.67    1.7223747 0.0022056136    62.024575    5518.5815 
 2325000    -203254.9     1.704804 0.00048068236    62.095157     5531.894 
 2330000   -203402.24    1.6827394 -0.0026926173    62.175744    5545.1877 
 2335000   -203481.59    1.6688714 -0.0057576836    62.107495    5558.5083 
 2340000    -203490.4    1.7203136 0.00021613172     62.05456     5571.811 
 2345000   -203520.05    1.7111957 -0.00072816212    62.078504     5585.155 
 2350000   -203581.85    1.7161468 -0.005339126    62.150229     5598.488 
 2355000   -203375.95    1.6741767 0.00038232952    62.077462    5611.7975 
 2360000   -203427.57    1.6865446 -0.00088504635    62.124116    5625.1828 
 2365000   -203417.26    1.7162791 0.00095053414    62.070808    5638.5181 
 2370000   -203561.67    1.7249022 -0.006099332    62.116539    5651.8199 
 2375000   -203738.17    1.7382581 0.0040317364    62.011517    5665.1283 
 2380000   -203821.73    1.7055693 0.0013183809    61.888763    5678.4728 
 2385000    -203722.7    1.6433668 -0.0034421275    62.040118    5691.8241 
 2390000   -203716.65    1.7317939  0.001274742    62.027828     5705.147 
 2395000   -203477.86    1.7264286 0.0015968797    62.122991    5718.5169 
 2400000   -203224.94    1.7371133 -0.0010241586    62.253059    5731.8573 
 2405000   -203300.31    1.7111534 -0.00021390756    62.196707    5745.1867 
 2410000   -203308.32    1.7195816 -0.0010648305    62.205604    5758.5654 
 2415000      -203406    1.6713243 0.0030062647    62.167049    5771.8522 
 2420000   -203179.65     1.702731 0.00045580683    62.219201    5785.1373 
 2425000   -203528.56    1.6715504 0.0011042629    62.077656    5798.4399 
 2430000   -203472.12    1.7305271 0.0043283969    62.093319    5811.7451 
 2435000   -203346.58    1.7175803 -0.00089851574    62.197993     5825.049 
 2440000   -203354.72    1.6571628 0.0025630968    62.126106    5838.3119 
 2445000   -203146.16    1.6754586 0.0018503944    62.193195    5851.5918 
 2450000   -203448.23    1.7002472 0.00012012112    62.207321    5864.8723 
 2455000   -203376.43    1.6962887 0.0027052695    62.092113     5878.145 
 2460000   -203493.98    1.7481132 0.00020137685    62.110809    5891.4756 
 2465000   -203616.54    1.6625837 -0.0036128913    62.096055    5904.8399 
 2470000    -203676.6    1.6883378 0.00098425661    61.991918     5918.183 
 2475000   -203758.33    1.7370361 6.7118174e-05    61.933134    5931.5314 
 2480000   -203614.54    1.7342413 -0.00061266006    61.977911    5944.9423 
 2485000   -203755.03    1.6841125 0.00078218774    61.945701    5958.2618 
 2490000   -203697.15     1.680414 -0.0033827154    61.996203    5971.5948 
 2495000   -203590.13    1.6981848 -0.0033926614    62.099374    5984.8917 
 2500000   -203670.54     1.717578 -0.0016638456    62.053855    5998.2251 
 2505000   -203660.84    1.6942319 0.0054254384    61.957649    6011.5326 
 2510000   -203571.09    1.6870164 0.0027433566    62.031382    6024.8782 
 2515000   -203743.96    1.7129422 -0.0043490398    62.038561     6038.179 
 2520000    -203878.1     1.703677 0.0032260596    61.886694    6051.5448 
 2525000   -203618.65    1.6919176 -0.0051940315    62.034174    6064.8863 
 2530000   -203894.65    1.6888825 0.0017427404    61.846567    6078.2349 
 2535000   -203656.34    1.6975669 0.00096865528     61.97182    6091.5575 
 2540000   -203848.11    1.6967499 8.7580492e-05    61.977571    6104.9122 
 2545000   -203714.72    1.6633941 0.0066448063    61.844609    6118.2173 
 2550000   -203682.96    1.7419686 0.0043715502    61.907481    6131.5302 
 2555000   -203828.63    1.6902395 0.0021634594    61.853434    6144.8828 
 2560000   -203450.13    1.6470842 -0.0066978006    62.067207    6158.2644 
 2565000   -203623.27    1.7519568  0.002411985    61.909517    6171.6045 
 2570000   -203906.64    1.6918968 -0.0039798723     61.86631    6184.9897 
 2575000   -204043.21    1.7494321 -0.0069483393    61.910619    6198.3558 
 2580000   -204056.01    1.6944769 -0.00089239113     61.77423    6211.7583 
 2585000   -203942.21    1.6782941 -0.0083790434    61.886767    6225.1885 
 2590000   -203715.72    1.6991917 -0.0020367185     61.96206     6238.555 
 2595000   -203840.81     1.673314 0.0023407151    61.876454    6251.8923 
 2600000   -203836.53     1.707245  0.001261389    61.986711    6265.2592 
 2605000   -203717.87    1.6978259 -0.0072919981    62.109056    6278.5992 
 2610000   -203596.75    1.7028541 0.0021817996    61.989503    6291.9294 
 2615000   -204021.56     1.688123 -0.001928419    61.915658    6305.2826 
 2620000    -203730.5     1.714615 -0.00083252377    61.971721    6318.6625 
 2625000   -203774.46    1.7426794 0.00073747901     61.93007    6331.9744 
 2630000   -203857.72    1.7328732 0.0027107257     61.82878    6345.3784 
 2635000   -203979.37    1.7256506 -0.0052392814    61.853347    6358.7389 
 2640000   -203865.08    1.6912561 0.0030316158    61.814304    6372.1537 
 2645000   -203818.02    1.6973807 -0.0039402912    61.893984     6385.529 
 2650000   -204005.32    1.7182269 -0.0011201277    61.873841    6398.8647 
 2655000   -203876.48    1.6573784 -0.0049998961    62.003704     6412.188 
 2660000   -203663.08     1.709798 -0.00012597097    61.984544    6425.5281 
 2665000   -203871.36    1.6553036 -0.0013115153    61.985058    6438.8772 
 2670000   -203678.69    1.7042359 -0.0033801389    62.061724    6452.1882 
 2675000   -203666.31    1.7012891 0.0042609746     61.92388    6465.5331 
 2680000   -203549.29    1.6881552 -0.00011103519     62.03477    6478.8606 
 2685000   -203739.65    1.6995786 0.0013200892    61.946246    6492.1798 
 2690000   -203551.73    1.7412016 0.0044075802    62.007537    6505.4991 
 2695000   -203895.18    1.7192613 0.0034411947    61.889907     6518.862 
 2700000   -203886.88    1.7485516  0.010141563    61.826297    6532.1958 
 2705000   -203986.63    1.6613729 -0.0024980821    61.896304    6545.5623 
 2710000   -203917.13    1.6902039 -0.0026520474    61.956088    6558.8847 
 2715000   -203747.68    1.6745371 0.0021839354    61.964533    6572.2151 
 2720000   -203795.94    1.6815093 -0.004210219    62.002653    6585.5624 
 2725000    -203650.6    1.6912711 -0.0013606572    62.023316    6598.8794 
 2730000   -203696.24    1.7312823 0.0014042701     62.03451    6612.1739 
 2735000   -203914.36    1.7521423  0.010266255    61.837541    6625.5435 
 2740000   -203867.81    1.6518944 0.0049424984    61.843231    6638.8693 
 2745000   -203872.71    1.7453633 0.0034974379    61.865044    6652.2065 
 2750000   -203679.97    1.6907876 0.0035705077    61.895935    6665.5836 
 2755000   -203803.79    1.6962355 -0.0033694892      61.9803    6678.9314 
 2760000   -203825.52    1.7151032 0.0010248265    61.874732    6692.3207 
 2765000   -204037.03    1.7054772 0.0078821318    61.731634    6705.7295 
 2770000   -204013.55    1.7373621 -0.0039228062    61.861324    6719.1148 
 2775000   -204026.67    1.6975134 -0.0087517023     61.88142    6732.5459 
 2780000   -204168.28    1.7423469 -0.0041879035    61.891494    6745.9099 
 2785000   -203979.27    1.7190542 -0.0011756648    61.833163    6759.2563 
 2790000    -204073.1    1.7169543 -0.0034811438    61.821648    6772.6496 
 2795000   -204223.07     1.700801 0.0032305784    61.710249    6786.0397 
 2800000    -204256.2    1.7062664 0.0039865029    61.673736     6799.464 
 2805000   -204242.87    1.7054456 -0.0014902945    61.738874    6812.9289 
 2810000   -204062.29    1.7022238 -0.0015910791    61.854069    6826.3429 
 2815000   -203853.28    1.7143364 0.00018549701    61.877382    6839.7186 
 2820000   -204114.21    1.7464423  0.006585055    61.707535    6853.0867 
 2825000   -203781.29     1.724971 0.0018964078    61.860997    6866.4796 
 2830000   -203893.14    1.6955441 0.0037147126    61.866554    6879.8876 
 2835000   -203820.29    1.6738698 0.00017961925      61.9248    6893.2541 
 2840000    -203784.4    1.6695963 -0.0026631608     61.92203    6906.6579 
 2845000   -203793.85    1.7162719 -0.0003358139    61.872105    6919.9766 
 2850000   -203986.24    1.7035309 -0.0026784479    61.883354    6933.3385 
 2855000   -203943.25    1.6870438 0.0024769397    61.808504    6946.7006 
 2860000   -203860.24    1.7377992 0.0029423575    61.888848    6960.0859 
 2865000   -203933.31    1.6436724 -0.0011100248    61.930472    6973.4541 
 2870000   -203650.32     1.724214 0.0017041551    61.980679    6986.7602 
 2875000   -203540.02    1.6460441 -0.00027801304     61.99612    7000.0576 
 2880000    -203727.5    1.6784753 -0.00056100002    62.021186    7013.3871 
 2885000      -203656    1.6786903 0.0002649077    62.039958    7026.7173 
 2890000   -203609.76    1.6821444 0.0027186993     61.98211    7039.9943 
 2895000   -203557.15    1.7006839 -0.0013805206    62.028888    7053.3032 
 2900000    -203688.9    1.6928962 -0.0045248776    62.080308    7066.6231 
 2905000   -203696.44    1.6872072 0.0045718911    61.949808    7079.9697 
 2910000   -203574.73    1.7026171 0.00034801333    62.048672    7093.2944 
 2915000      -203652    1.6905036 0.0015218812    62.026946    7106.5771 
 2920000   -203565.55    1.6894053  -0.00213079     62.07119    7119.8639 
 2925000   -203475.22    1.6882182 0.0020950131    62.112904    7133.1825 
 2930000   -203608.96    1.7126475  0.002780174    62.003085     7146.462 
 2935000   -203471.19    1.6911402 0.0006595329    62.065172    7159.7545 
 2940000   -203649.71    1.7063723 -0.0012987946    62.077462    7173.0973 
 2945000   -203629.31    1.6857007 -0.0050186223     62.12001    7186.4351 
 2950000   -203716.72    1.6646151 -0.00016321235     62.07251    7199.7406 
 2955000   -203636.88    1.6542968 -0.0089079451    62.076811    7213.1044 
 2960000   -203632.46    1.6543364 -0.005195825     62.04969    7226.4529 
 2965000   -203648.94    1.6584619 0.0050979301     61.89108    7239.7714 
 2970000    -203771.4    1.6623187 0.0017754762    61.912562       7253.1 
 2975000   -203615.83    1.7223001 0.0010867583    61.989672    7266.4106 
 2980000   -203652.15    1.6632054 -0.0040483518     62.09852    7279.7169 
 2985000   -203266.49    1.6829926 -0.00082292628    62.216238    7292.9939 
 2990000   -203518.66    1.6674256 0.0014368715    62.078442    7306.2448 
 2995000   -203107.94    1.6751811 0.00064497649    62.193112    7319.5024 
 3000000   -203246.43    1.7034629 0.0019372155     62.10753    7332.7651 
 3005000   -203203.65    1.7005815 0.0059657051    62.111354    7346.0373 
 3010000   -203405.55    1.7008881 -0.0039953596    62.102176    7359.3322 
 3015000   -203238.53    1.7545853 -0.0041307448    62.205582    7372.6551 
 3020000   -203534.69    1.7186638 -0.00036794664    62.003278    7386.0007 
 3025000    -203445.9    1.7094463 0.0018273998    62.016473    7399.3092 
 3030000   -203367.94    1.6816316 -0.0051834311    62.056292    7412.6789 
 3035000   -203127.83    1.6422203 0.00010791699    62.204626    7425.9778 
 3040000   -203239.77    1.7084995 0.0026980544     62.13585     7439.281 
 3045000   -203376.44    1.7150792 0.00031396059    62.105767    7452.6257 
 3050000      -203399    1.7118516 -0.0037370969    62.149132    7465.9691 
 3055000   -203438.66    1.6812935 -0.0051589741    62.180398     7479.268 
 3060000   -203274.43     1.665406 -0.0039673958    62.235582    7492.5716 
 3065000   -203067.76    1.6751092 0.0051540499    62.201684      7505.92 
 3070000   -203128.25    1.7096383 -0.0021374886    62.241656    7519.1998 
 3075000   -203362.01    1.7357987 0.0016047327    62.098681    7532.4923 
 3080000   -203280.89    1.7176977 -0.0035360587    62.221669    7545.7872 
 3085000   -203201.59    1.7067376 0.0028860208    62.179961    7559.0463 
 3090000      -203084    1.7154529 -0.0043057213    62.325694    7572.3456 
 3095000   -203005.87    1.6786242 0.00068607846     62.34262    7585.6488 
 3100000   -203134.55    1.7111747 0.00050774037    62.300147     7598.962 
 3105000   -203219.94     1.664198 0.0027143506    62.247513    7612.2051 
 3110000   -203332.36     1.721867 0.0034059901     62.18638    7625.4948 
 3115000   -203212.12    1.7704161 -0.0026091173    62.311083    7638.8118 
 3120000   -203448.89    1.7095192 -3.8828545e-05     62.13756    7652.0938 
 3125000   -203271.69    1.7274078 -0.0020119677    62.304593    7665.3536 
 3130000   -203337.53    1.7046391 -0.0016599574     62.15852    7678.6248 
 3135000   -203143.05    1.6628216 0.0010925718     62.21745    7691.9187 
 3140000   -203325.96    1.7185216 0.0008921733    62.160427    7705.2086 
 3145000   -203381.85    1.6845225 -0.0041149914    62.139032    7718.5089 
 3150000   -203296.41    1.6588946 0.0040065512    62.113463    7731.7787 
 3155000   -203213.64    1.6844626 0.0015727338    62.239307    7745.0675 
 3160000   -203337.56    1.6801136 0.0038567892    62.183566     7758.321 
 3165000   -203075.92     1.673203 -0.0023099862    62.228006    7771.6257 
 3170000   -203364.54    1.7309292 0.0040196496    62.045578    7784.9044 
 3175000   -203068.61    1.6941097 0.0047025636    62.118957     7798.186 
 3180000   -203167.48    1.6580421 -0.0057893795    62.248517    7811.4738 
 3185000   -203108.05    1.7001519 0.0078611931    62.138904    7824.7542 
 3190000   -203059.52    1.6702996 0.0036999397    62.249823    7838.0212 
 3195000   -203344.85    1.6685971 0.0025032251    62.115816    7851.3376 
 3200000   -203370.42    1.7003668 -0.0020071063    62.247665     7864.648 
 3205000   -203395.49     1.712411 0.0078777635    62.016966    7877.9596 
 3210000   -203613.23    1.7396531 -0.0043339246    62.078303    7891.2861 
 3215000   -203596.87    1.7125063 -0.0028965323    62.094889    7904.6003 
 3220000   -203235.56     1.618493 0.0037135862    62.155847    7917.8873 
 3225000   -203388.71    1.7158569 -0.0029862693    62.186184    7931.1843 
 3230000   -203407.39    1.6854359 -0.0025616161    62.090316    7944.4883 
 3235000   -203633.33    1.6913408 0.00017941533    62.014396     7957.801 
 3240000   -203482.72    1.7337741 -0.0048459791     62.09672    7971.1066 
 3245000   -203525.98    1.6705574 -0.0018429209    62.079584    7984.4289 
 3250000   -203700.96    1.7233563 -0.0011074129    61.968465    7997.7359 
 3255000   -203925.23    1.7027777 -0.0018457275    61.944388    8011.0934 
 3260000   -203866.01    1.6818201 0.0013949268    61.961809    8024.4405 
 3265000    -203527.2    1.7272993 -0.0055396096    62.166098    8037.7338 
 3270000   -203515.58      1.69774 -0.0022584651    62.084146    8051.0493 
 3275000   -203702.96    1.7418975 -0.0037994136    62.009259    8064.3953 
 3280000   -203899.02    1.7727381 0.0011338625    61.896235    8077.7762 
 3285000   -204026.59    1.6958989 0.0041386258    61.778862    8091.1402 
 3290000   -203883.85    1.7157975 0.00037500518    61.953433    8104.4974 
 3295000    -203412.4    1.7188825 -0.0089851803    62.129933    8117.8539 
 3300000   -203703.23    1.6636011 -0.0034678335    62.023535    8131.2269 
 3305000   -203704.03    1.6811231 -0.0013167707    62.007841    8144.6084 
 3310000   -203602.42     1.696254 -0.0014230255    62.005979    8157.9263 
 3315000    -203510.3    1.6950981 -0.0033304116    62.011486    8171.2805 
 3320000   -203723.11    1.6816194 0.0015777106    61.940799    8184.6352 
 3325000   -203685.11    1.6516674 0.0062099746    61.857066    8197.9828 
 3330000   -203657.28    1.7078823 -0.0013060068    61.963086    8211.3375 
 3335000   -203591.73    1.7061154 -0.0011223432     62.01494    8224.7067 
 3340000   -203666.84     1.704584 0.0019844492    61.965314     8238.076 
 3345000   -203614.38    1.6866834 0.0029562783     61.96928    8251.4173 
 3350000   -203637.41    1.6834967 0.00017208027     61.96201    8264.7981 
 3355000   -203583.56    1.6995639 0.0081890198    61.820022     8278.183 
 3360000   -203698.47    1.7104344 -0.0015068738    61.955555    8291.5404 
 3365000   -203857.32    1.6383825 0.00093057873    61.887416    8304.8609 
 3370000   -203997.79    1.7100613 -0.0007575476    61.835014    8318.2223 
 3375000   -203999.84    1.7371132 -0.00063490732    61.831826    8331.5779 
 3380000   -203852.94    1.6793965 0.0032707819    61.906063    8344.9864 
 3385000   -203742.12    1.7178121 -0.0032369061    62.029596    8358.3029 
 3390000   -203741.63    1.6950424 0.0019735498    61.952831    8371.6831 
 3395000   -203493.07    1.6973044 -0.0015355597    62.020169    8385.0597 
 3400000   -203772.89    1.6869266 0.0028026085    61.881528     8398.454 
 3405000    -203982.2    1.7586858 0.0046019609    61.866832    8411.8322 
 3410000   -203880.58    1.6819098 0.0028980391     61.80085    8425.2259 
 3415000   -203968.57    1.6831942 -0.0079787452    62.004998    8438.5833 
 3420000   -203786.72    1.7024229 0.0032410915    61.915468    8451.9523 
 3425000   -203860.82    1.7373393 0.0030653439    61.918292    8465.2776 
 3430000   -203881.86    1.6660146 -0.0086610478    62.010946    8478.6797 
 3435000   -203636.51    1.7363982 0.0037479819    61.962015    8492.0384 
 3440000    -203678.7     1.704828 0.0064030492    61.950858    8505.4014 
 3445000   -203728.63    1.6881687 -0.0027563383    61.976628    8518.7497 
 3450000   -203848.87    1.6675502 0.0015243754    61.862489    8532.1564 
 3455000   -203849.33     1.667565 0.00081856293    61.890561    8545.5587 
 3460000   -203657.59    1.6543821 -0.0014947706    61.994077    8558.8996 
 3465000   -203870.52    1.7137839 0.0028416292    61.926146    8572.2465 
 3470000   -203843.81     1.746638 0.0016924483    61.915889    8585.6142 
 3475000   -203656.99    1.6889285 0.00037226259    61.955294    8598.9348 
 3480000   -203701.37    1.6935107 0.0028701418    61.966054    8612.2514 
 3485000   -203868.83    1.6741752  0.002835794    61.895003    8625.6288 
 3490000   -203598.21    1.7449707 -0.0028582987    62.030683    8638.9627 
 3495000   -203561.87    1.6817122 0.0057986359    61.919536    8652.2852 
 3500000   -203658.66    1.6778895 -0.0067913082    62.131424    8665.6212 
 3505000   -203513.59    1.7120424 -0.0066710276     62.11526    8679.0022 
 3510000   -203642.28    1.6371963 0.0048580664    61.941368    8692.3368 
 3515000   -203706.74    1.6798409  0.001293921    61.992099     8705.674 
 3520000   -203654.21    1.6630767 0.0016664243    61.934343     8718.998 
 3525000    -203666.8    1.7223297 -0.00099382626    62.004527     8732.314 
 3530000   -203756.04    1.6956976 0.0011287747    61.957049    8745.6335 
 3535000   -203813.05    1.6790273 0.0029612426    61.830448    8759.0077 
 3540000   -203706.09    1.7182676 0.0011587636    61.926233     8772.351 
 3545000   -203773.29    1.6932095 0.0069771854    61.809965    8785.7071 
 3550000   -203814.41    1.6939976 0.0063848965    61.848759    8799.0811 
 3555000   -203622.32    1.6910493 0.0016267082    61.946412     8812.414 
 3560000   -203701.19    1.6850721 -0.0083591179    62.028075    8825.7505 
 3565000   -203733.04    1.6883738 0.0020941236    61.903585    8839.1222 
 3570000   -203771.16    1.7234957 -0.0043592265    62.019886      8852.47 
 3575000    -203757.3    1.6707648 0.0067020574    61.866731     8865.824 
 3580000   -203622.46    1.7484525  0.000734291    61.895697    8879.1517 
 3585000   -203906.05    1.7147541 -0.0023288536    61.910056    8892.5355 
 3590000   -203870.32     1.702634 0.0015672562    61.880069     8905.895 
 3595000   -203724.88     1.714127 -0.00067252096    61.974382    8919.2568 
 3600000   -203845.63    1.6717447 -0.0015019224    61.957079    8932.5909 
 3605000   -203827.32    1.6711941 -0.0014214259    61.913726    8945.9271 
 3610000   -203705.96    1.6623743 0.0017533996    61.860381    8959.2944 
 3615000   -203858.44     1.713063 0.0027373457    61.864314    8972.6174 
 3620000   -203804.92    1.6992331 -0.00068133167    61.889237    8985.9484 
 3625000    -204008.7    1.7363649 0.00076093349     61.84983    8999.3025 
 3630000    -204003.4    1.7272568 0.0026090877    61.827649    9012.6792 
 3635000   -203760.53    1.7110638 -0.00070296653    61.921466    9026.0758 
 3640000   -203703.32    1.7234125 0.0032687611    61.914945    9039.4074 
 3645000   -203728.46    1.6997557 0.0039267473    61.912528     9052.759 
 3650000   -203828.88    1.6724378 0.0015012752    61.856007    9066.1275 
 3655000   -203874.97    1.6841502 0.0065563077    61.811066    9079.4939 
 3660000   -203852.01    1.6789411 -0.00045679967    61.926616    9092.8429 
 3665000   -204159.79    1.6863099 -0.00025998526    61.745874     9106.188 
 3670000   -203827.66    1.6529593 0.00057144788    61.880207    9119.5811 
 3675000   -203941.92    1.6846683 -0.0013228678     61.86089    9132.9405 
 3680000   -203613.61    1.6400086 -0.0037266959    62.028935    9146.2989 
 3685000   -203686.84     1.713859 -0.0039497348    62.042346    9159.6378 
 3690000   -203490.36    1.6685537 0.0054307766    61.948575     9172.985 
 3695000   -203873.01    1.6963706 0.0030531027    61.932844    9186.3182 
 3700000   -203423.28    1.6939694 -0.00051024775    62.085264    9199.6082 
 3705000   -203553.07    1.7272126 0.0016475068      62.0195    9212.9312 
 3710000   -203564.77      1.70322 0.0015236337     62.03325    9226.2492 
 3715000   -203596.42    1.6876532 -0.0019603499    62.039779    9239.5769 
 3720000   -203550.15    1.7740331 0.0012572978     62.10813    9252.8982 
 3725000    -203383.3    1.6813543 -0.00069262082    62.204122    9266.1584 
 3730000    -203476.2    1.7135682 0.0017101787    62.091814    9279.4485 
 3735000   -203603.49    1.7247139 -0.0048385672    62.215558    9292.7711 
 3740000   -203527.61    1.6926574  0.005326036     62.05442    9306.0752 
 3745000   -203533.03    1.7203368 -0.0013101496    62.109986    9319.4071 
 3750000    -203497.4    1.6772823 0.0051621201    62.062672    9332.7078 
 3755000   -203136.83    1.6627841 -0.0050976979    62.199077    9346.0448 
 3760000   -203330.93    1.7099231 -0.00095206439    62.201576    9359.3478 
 3765000   -203460.26    1.6713501 -0.00076877772    62.180066     9372.668 
 3770000   -203659.93    1.6955734 0.0028179725    62.045184    9385.9695 
 3775000   -203565.98    1.6774827 0.0071772966     61.97823    9399.3232 
 3780000   -203456.91    1.6816104 -0.0034218374     62.17387    9412.6679 
 3785000   -203284.06    1.7261915 -0.003892534    62.218194    9426.0021 
 3790000   -203320.11    1.6636022 -0.0030284931    62.163382    9439.3621 
 3795000   -203393.35    1.7102436 -0.0034692327    62.112006    9452.6514 
 3800000   -203620.52    1.6946795 -5.7971386e-05    62.023231     9466.014 
 3805000   -203555.32    1.7169253 0.0033951481    61.990301    9479.3383 
 3810000   -203462.94    1.6724954 0.0044427708     62.00298     9492.694 
 3815000   -203455.67    1.6807913 0.0044954361    61.969985    9506.0142 
 3820000   -203436.34    1.7067905 0.0045954926    61.935733    9519.4049 
 3825000    -203731.3    1.6960132 0.0043848517    61.904643    9532.7902 
 3830000   -203552.55    1.6704501 -0.0024094767    62.089293    9546.1511 
 3835000   -203495.59    1.7091755 -0.0028856397    62.063689    9559.5089 
 3840000   -203704.15    1.7345063 0.0014967298     61.96683    9572.7729 
 3845000   -203801.13    1.6885982 0.0080232822    61.860641    9586.1536 
 3850000   -203560.75    1.7012127 0.0036434166    61.966971    9599.5087 
 3855000   -203455.47     1.698545 -0.004154786    62.162804    9612.8542 
 3860000   -203560.09    1.7560697 0.0039511909    61.950275    9626.1886 
 3865000   -203561.33    1.7524498 -0.00072125678    62.095934    9639.5548 
 3870000    -203577.4    1.6826504 0.0036402815    61.992558    9652.8681 
 3875000   -203783.48    1.7098187 0.0010489954    61.901226    9666.2095 
 3880000   -203788.86    1.6775205  0.005045551    61.851514    9679.5837 
 3885000   -203692.45    1.6906522 0.0022929806    61.973253    9692.9201 
 3890000    -203688.5    1.6769777 0.00053059227    62.016488     9706.244 
 3895000   -203698.45     1.665165 -0.0008702727    62.017707    9719.5652 
 3900000    -203354.9    1.6717479 -0.00040032253     62.07428    9732.9033 
 3905000    -203441.9    1.6542916 -0.0005571182    62.119763    9746.2216 
 3910000   -203329.56    1.6971513 0.0028650872    62.090101    9759.5101 
 3915000    -203727.4    1.7181921 0.0045036204    61.840347     9772.876 
 3920000   -203725.38    1.6799536  0.005033553    61.850174    9786.2449 
 3925000   -203641.01    1.6977709 0.0044541832    61.877173    9799.6171 
 3930000   -203705.63    1.7211682 0.0038576659     61.85475    9812.9472 
 3935000   -203597.62    1.7227688 -0.0010940374    61.997902    9826.2987 
 3940000   -203699.21    1.6527032 -0.0023833178    62.019032    9839.6037 
 3945000   -203759.28    1.7195785 -0.0012509526    62.052946    9852.9292 
 3950000   -203711.88    1.6869114 -0.00033634929     62.01687    9866.2618 
 3955000   -203914.23    1.7128828 0.0039415109    61.904853    9879.6254 
 3960000   -203660.94    1.6918686 0.0038716933    61.942352    9893.0069 
 3965000    -203691.6    1.7370073 -0.00091974582    62.097754    9906.3324 
 3970000    -203586.5    1.7382318 -0.0015333762    62.106907    9919.6319 
 3975000   -203561.52    1.7087524 0.0011757407    62.039649    9932.9649 
 3980000   -203669.66    1.6327741 -0.0026276531    62.081643    9946.3265 
 3985000    -203665.6    1.7397129 0.0027960389    62.098624    9959.6506 
 3990000   -203475.98    1.6484206 -0.006136998    62.207819    9972.9573 
 3995000   -203659.98    1.7216168 -0.012204746    62.204087    9986.2935 
 4000000   -203681.76    1.6889927 -0.0041017006    62.094733     9999.612 
 4005000   -203561.75    1.6665173 0.0031657782    62.039052    10012.928 
 4010000   -203663.69    1.7110291 -0.00051142577    61.998222    10026.269 
 4015000   -203595.87     1.690779 -0.00065178536    62.025031    10039.575 
 4020000   -203665.25    1.6979012 0.00058592784    62.030302    10052.836 
 4025000   -203498.63    1.6926175 0.00049874462    62.129428    10066.172 
 4030000   -203363.02    1.6754077 -0.0032762135    62.209994    10079.481 
 4035000   -203440.47     1.685535 0.0062396387    62.037691    10092.801 
 4040000   -203514.95    1.6733585 0.0023269551    62.048792    10106.093 
 4045000   -203544.54    1.7701039 0.0021958734     62.07269    10119.433 
 4050000   -203645.53     1.713545 0.0047953631    61.955465    10132.766 
 4055000   -203437.05     1.627837 0.0036686335    61.999926    10146.094 
 4060000   -203567.84    1.6918765 -0.00018136692    62.072182    10159.397 
 4065000   -203460.44    1.6801277 -0.0046276787    62.096119    10172.733 
 4070000   -203669.37    1.7337146 0.0012366212    62.081225    10186.047 
 4075000   -203293.87    1.6819092 0.0013745932    62.118146    10199.383 
 4080000   -203628.64    1.7148421 -0.0033538223    62.093674    10212.728 
 4085000   -203409.11    1.6877293 -0.0051436926    62.151556    10226.021 
 4090000   -203568.37     1.737599 -0.0015879952    62.108168    10239.337 
 4095000   -203417.71    1.7153472 -0.00031190994    62.111649    10252.618 
 4100000   -203449.62     1.754991 -0.00036011953    62.052663    10265.896 
 4105000   -203473.48    1.7178179 0.00089219113      62.0463    10279.226 
 4110000   -203719.15    1.7092377 -0.0062251487    62.037396    10292.565 
 4115000   -203604.77    1.6553435  0.001181346    61.980381    10305.929 
 4120000   -203690.44    1.7192114 -0.0022163578     61.97019    10319.278 
 4125000    -203681.2    1.6977079 -0.00087514913    61.963371    10332.629 
 4130000   -203861.61    1.6979532 -0.00026456766    61.882847    10345.979 
 4135000      -204003    1.7148232 -0.0024647024    61.854352    10359.333 
 4140000    -203913.1    1.6331624 -0.00073384101    61.906926    10372.705 
 4145000    -203768.3     1.773928 0.00065152481    61.880587    10386.036 
 4150000   -203619.15    1.7109471 0.0049750082    61.817985    10399.419 
 4155000   -203624.48    1.7065487 0.00033970374    61.972247     10412.75 
 4160000   -203682.28    1.6386744 0.0015256851    61.983745    10426.069 
 4165000    -203546.7    1.7059391 -0.0048350476      62.0871    10439.375 
 4170000   -203587.09    1.6667471 -0.002490619    62.053719    10452.716 
 4175000   -203485.43    1.6416675 -0.0063063089    62.129786    10466.026 
 4180000    -203440.7     1.727721 0.0053868934    62.029985    10479.319 
 4185000   -203528.07    1.7062207 0.0029075222    62.037613     10492.64 
 4190000   -203767.73     1.703742 -0.0020164564    62.000475    10505.993 
 4195000   -203563.23    1.7220564 -0.0054934425    62.041183    10519.323 
 4200000   -203744.78    1.6438261 0.0043919903    61.873648    10532.643 
 4205000   -203438.07    1.7573426 0.0035406805    62.011397     10545.97 
 4210000   -203481.17    1.7475708 -0.0013521118    62.038674    10559.292 
 4215000    -203675.8    1.6765768 0.0050851003    61.907677    10572.571 
 4220000   -203521.41    1.7191815 -0.0016742114    62.013873    10585.833 
 4225000   -203725.97     1.726273  0.011589148    61.775833    10599.136 
 4230000      -203616    1.6813481 -0.0066235566    62.008231    10612.482 
 4235000   -203685.22    1.6731194 0.0024346817    61.955266    10625.795 
 4240000   -203623.88    1.7013286  0.002518044    62.064412    10639.088 
 4245000   -203708.65    1.7401717 0.0041112179     61.88522    10652.426 
 4250000   -203359.52    1.7425358 -0.00075502296    62.090349    10665.746 
 4255000   -203828.93    1.7072976  0.006933803    61.854922    10679.137 
 4260000   -203734.29    1.6601234 0.0064483838    61.889922    10692.461 
 4265000   -203793.03    1.6990416 0.0024637844    61.918737    10705.798 
 4270000   -203638.29    1.7264736  0.003208981    61.993832    10719.131 
 4275000   -203858.97    1.7158611 0.00092792949    61.944916    10732.464 
 4280000   -203653.42    1.6486242 0.0058445146    61.935211      10745.8 
 4285000   -203748.95     1.674266 0.0017317146    61.855427    10759.149 
 4290000      -203669    1.6938385  0.007250182    61.897703    10772.498 
 4295000   -203654.17    1.7256917 0.00020616596    61.970487    10785.804 
 4300000   -203727.77    1.7562444 0.0060179753    61.936302    10799.129 
 4305000   -203630.52    1.6863048 -0.0082942328    62.081567     10812.53 
 4310000    -203782.2    1.7185893 0.00088769193    61.895739    10825.852 
 4315000   -203732.91    1.6702858 0.0050108008     61.83274    10839.205 
 4320000   -203725.06    1.7118191 0.0019289829    61.920406    10852.554 
 4325000   -203795.92    1.7277072 -0.0046515164    61.997118    10865.904 
 4330000   -203685.62     1.712544 0.0031491368      61.8853    10879.271 
 4335000   -203651.06    1.7577522 0.0076552632     61.85492    10892.623 
 4340000   -203610.25    1.7283857 0.0089336371    61.849752    10905.994 
 4345000   -203363.92    1.7227134 -8.4777323e-05    62.042989    10919.369 
 4350000    -203692.7    1.6984911 -0.0035968902    61.999893    10932.673 
 4355000   -203645.34     1.669535 -0.0018272332     61.97703    10945.982 
 4360000   -203712.61    1.7323721 0.0028929239    61.884894    10959.358 
 4365000   -203859.29    1.6576283 0.0027557483    61.794135     10972.74 
 4370000   -203647.34     1.677778 -0.0026864174    61.881673      10986.1 
 4375000   -203986.15    1.6718259 0.00033634849     61.81397     10999.45 
 4380000   -203616.43    1.6964902 -0.0012029798    61.938112    11012.811 
 4385000   -203770.71    1.7162331 0.0013079218    61.900202    11026.192 
 4390000   -203706.15     1.697144 0.00014817281    61.945758    11039.548 
 4395000   -203558.68    1.6951856 -0.00025336363    61.916027    11052.913 
 4400000   -203635.88    1.7015412 -0.0032135546    62.022372    11066.232 
 4405000   -203402.09    1.7099221 -0.0053119812    62.075802    11079.565 
 4410000   -203567.64    1.6997251 -0.0067359371    62.020019    11092.943 
 4415000   -203680.46    1.7333786 -0.0027867463    61.942115     11106.32 
 4420000   -203554.12    1.7319497 -0.0038315181    61.946008    11119.671 
 4425000   -203652.73    1.6936775 -0.0030792108    61.934821    11133.042 
 4430000   -203722.57    1.6786147 -0.004164716     62.01507    11146.414 
 4435000   -203693.58    1.7331356 -0.0018415915    61.986257    11159.738 
 4440000   -203703.51    1.6460206 -0.0031134927    61.913364     11173.09 
 4445000   -203763.28    1.7365635 0.00031104294    61.778986    11186.478 
 4450000   -203745.56    1.7303845 -0.0020833433    61.852655    11199.844 
 4455000   -203608.81     1.746285 -0.0038692471    61.947779     11213.26 
 4460000   -203689.13    1.6920057 -0.0057215137    61.999556    11226.621 
 4465000   -203473.05    1.6871546 -0.0017575642    61.998611    11239.987 
 4470000   -203553.94    1.7251387 0.0034103451    62.031272      11253.3 
 4475000   -203343.68    1.6588594 -0.00059368964    62.136135    11266.569 
 4480000   -203480.91    1.7441359 -0.0052311245    62.131722    11279.892 
 4485000   -203487.75    1.6265382 0.0026989084    61.970313    11293.198 
 4490000    -203584.4    1.6450931  0.001328883    62.019925    11306.513 
 4495000   -203728.23    1.6631897 -9.3382226e-05    61.966493     11319.83 
 4500000   -203659.63    1.7081501 -0.0001619411    61.959528    11333.151 
 4505000    -203734.9    1.7107526 0.0020878182     61.89114    11346.467 
 4510000   -203605.67     1.680708 0.00054966707    61.972301    11359.789 
 4515000    -203566.3    1.7175744 0.0034036854    61.922789     11373.16 
 4520000   -203645.57    1.7031628 0.0084575079    61.793125    11386.509 
 4525000   -203581.61    1.6991549 0.0006287411    62.000357     11399.88 
 4530000   -203611.03    1.6561035 0.0016868225    61.963549    11413.255 
 4535000    -203645.1    1.6643745 -0.0014319227    62.059401    11426.574 
 4540000   -203489.32    1.6888911 -0.0070347865    62.139337    11439.942 
 4545000   -203522.05    1.7638932 -0.0015729648    62.096443     11453.27 
 4550000   -203405.54    1.6982454 3.9242169e-05    62.094127    11466.567 
 4555000   -203440.12    1.6468929 0.0074205524    62.016187      11479.9 
 4560000   -203341.93    1.6755022 0.0054727517    62.130741    11493.232 
 4565000   -203314.36    1.6554229 -0.0062171995    62.270346    11506.551 
 4570000   -203344.95    1.7279581 -0.00084080636    62.194526    11519.848 
 4575000   -203252.53    1.6854218 -0.0020328544     62.25835    11533.181 
 4580000   -203324.42    1.7128268 -0.0040666647    62.211639    11546.464 
 4585000   -203481.45    1.6881255 -0.002067876    62.116358    11559.755 
 4590000   -203532.72    1.7215846 0.0073503583    61.972282    11573.084 
 4595000   -203492.94     1.616342 -0.00013980266    62.115043    11586.406 
 4600000   -203590.41    1.7167778 0.0034900181    62.055311    11599.747 
 4605000    -203610.4    1.6568074 0.00056328576     62.09219    11613.058 
 4610000   -203677.97    1.6753738 -0.0022042242    62.031126    11626.382 
 4615000   -203627.77    1.7091011 0.00089516853    61.997523    11639.723 
 4620000   -203878.43    1.6675228 0.0016563419    61.874866    11653.093 
 4625000   -203677.18    1.7230697 0.00068315321    61.920691    11666.442 
 4630000    -203830.6    1.6725767 0.0055425416    61.846738    11679.785 
 4635000   -203773.51    1.6775793 -0.0087166279    62.003484     11693.15 
 4640000    -203730.9    1.7162225 0.0047509944    61.839183    11706.508 
 4645000    -203867.6    1.6852624  -0.00329655    61.911896    11719.909 
 4650000   -203717.51     1.692431 -0.00078676532    61.910067    11733.255 
 4655000    -203847.3    1.7259336 0.0032876352    61.837675    11746.682 
 4660000   -203997.22    1.6983361 0.0018547137    61.842079     11760.03 
 4665000   -203935.61    1.6928057 -0.0030323104    61.912641    11773.415 
 4670000   -203953.68    1.6890459 -0.00072417004    61.871439    11786.813 
 4675000   -203767.65    1.6870118 -0.0018526761    61.943847    11800.121 
 4680000   -203850.26    1.7072295 0.0010571599    61.904581    11813.476 
 4685000   -203766.11    1.6933081 0.0020316674    61.830009    11826.859 
 4690000   -203866.14    1.7497188 -0.0025885321    61.856412    11840.225 
 4695000   -203833.74    1.6587151 -0.0032477181    61.890913    11853.593 
 4700000   -203977.86    1.6752452 -0.00030462774    61.886882    11866.959 
 4705000   -203606.72    1.7332481  0.001686464    61.931119    11880.276 
 4710000   -203621.28    1.6608436 0.00066944682    62.007504    11893.575 
 4715000   -203730.42    1.6893703 -0.0022924212    62.049362     11906.95 
 4720000   -203715.59    1.6902999 -0.0019186669    62.044715     11920.28 
 4725000   -203804.78    1.7552308 0.0041147676    61.866678     11933.58 
 4730000   -203847.66    1.6864071 0.0034341561    61.894173    11946.887 
 4735000    -203721.3    1.7095578 0.0029042415    61.895995    11960.201 
 4740000   -203885.46    1.6707413 0.0032278168    61.882272    11973.554 
 4745000   -203867.24    1.6832041 0.0030891333     61.85573    11986.913 
 4750000   -203776.59    1.7272446 0.0037490859    61.836729    12000.265 
 4755000   -203701.47    1.7072232 0.0019333268     61.92843    12013.595 
 4760000   -203969.92    1.6911199 0.0011027164    61.858315    12026.926 
 4765000   -203772.31    1.7238584 0.0052781174    61.857272    12040.263 
 4770000   -203786.16    1.7146835 0.0074953753    61.840395    12053.616 
 4775000   -203684.82    1.6766591 0.0014320265    61.980975    12066.974 
 4780000   -203637.97    1.7081572 -0.012836833     62.09524    12080.313 
 4785000   -203831.16     1.717629 0.00090718172    61.872481    12093.681 
 4790000   -204052.91    1.7322382 -0.010355519    61.919913    12107.058 
 4795000   -203990.73    1.7407945 0.0062846282    61.706277    12120.467 
 4800000   -203921.56    1.7119846 0.0010757177    61.861365    12133.845 
 4805000   -203929.48    1.7417576 0.00076721858    61.830071    12147.248 
 4810000    -203968.2    1.6875268 0.0027917413    61.814002    12160.695 
 4815000   -203916.87    1.7346983 -0.0017294717    61.957802    12174.072 
 4820000   -203639.54    1.7353878 0.0020345417    61.950701    12187.389 
 4825000   -203909.06    1.6975108 0.0064821297    61.823713    12200.702 
 4830000   -203767.68    1.6864225 -0.0058009763    61.967306    12214.043 
 4835000   -203760.43    1.7348111 -0.0005197636    61.976625    12227.377 
 4840000    -203870.3    1.7426841 0.0049665549     61.86022    12240.753 
 4845000   -203920.24    1.6335567 -0.0050329404    61.945584    12254.082 
 4850000   -203898.19    1.7332483 0.0038018378    61.834501    12267.461 
 4855000   -203985.54    1.6794084 0.0036678795    61.782647    12280.834 
 4860000   -203824.45    1.6857005 0.0011296172     61.91156    12294.203 
 4865000   -204116.66    1.7275126 -0.00086768116    61.838073    12307.557 
 4870000   -204038.39    1.7227682 -0.0031181135    61.870237    12320.939 
 4875000   -203864.25    1.7302529 -0.0011722432    61.844704    12334.334 
 4880000   -204007.68    1.6729233 -0.00091313657    61.859184     12347.76 
 4885000   -203864.14     1.692436 0.00079356467    61.834407     12361.15 
 4890000   -204038.39    1.6822151 0.0042334382     61.70087    12374.544 
 4895000   -204189.03    1.7087345 0.0060758501    61.675569    12388.014 
 4900000   -203954.59    1.7212085 0.0062249476    61.748469    12401.416 
 4905000   -203983.91    1.6878673 -0.0013882422    61.864817    12414.814 
 4910000   -203995.88    1.7420631 -0.0055488133     61.94452    12428.212 
 4915000   -203778.46    1.7191444 -0.0017067585    61.948015    12441.581 
 4920000   -203652.75    1.7433144 0.0011217193    61.895336    12454.928 
 4925000    -203956.9    1.7394097 -0.00084095041      61.8838    12468.297 
 4930000   -203966.09    1.7174069 0.0012880613    61.872023    12481.685 
 4935000   -203805.53    1.7059098 -0.0041506189    61.919361    12495.031 
 4940000   -203819.07    1.6887374 -0.00055373398    61.969927    12508.396 
 4945000   -203829.13    1.6497828 -0.0060319144    62.016228    12521.756 
 4950000   -203814.65    1.7328662 -0.0036326211    62.023566     12535.09 
 4955000   -203472.08    1.7287037 0.00039320379    62.086048    12548.439 
 4960000   -203390.18    1.7100368 0.00067446616    62.060033    12561.784 
 4965000   -203384.66    1.7038298 -0.001232944     62.05511    12575.099 
 4970000   -203543.96    1.6462073 -0.00081058282     62.08917    12588.402 
 4975000   -203568.54    1.6779603 -0.0029681798    62.101809    12601.711 
 4980000   -203463.83    1.6786012 0.0014639741    62.104642     12615.07 
 4985000   -203456.91    1.6612432 0.0026752036    62.093625    12628.422 
 4990000    -203450.1    1.7468036 0.0015546119    62.145127    12641.708 
 4995000   -203494.07    1.6769927 0.00039153776    62.123816    12655.005 
 5000000   -203503.08     1.662687 0.0002048352    62.090681    12668.272 
 5005000   -203484.53    1.6656611 0.0025765908    62.012204    12681.613 
 5010000   -203380.81    1.7682544 -0.0031905954    62.095654    12694.919 
 5015000   -203445.35     1.707842 0.0013293827    62.065797    12708.254 
 5020000   -203387.32    1.6865419 -0.0030729472    62.191474    12721.622 
 5025000   -203408.87    1.7138064 -0.0060163209    62.210038    12734.987 
 5030000   -203535.21    1.7132098 0.0056712692    62.015017    12748.283 
 5035000   -203249.63    1.6813621 -0.0042077467    62.224645    12761.624 
 5040000   -203244.37    1.6839608 -0.00068321351    62.254413    12774.944 
 5045000   -203582.81    1.6903798 -0.0002123565    62.152156    12788.267 
 5050000   -203584.58    1.6853648  0.002495657    62.019108    12801.579 
 5055000   -203396.29    1.7248108  0.006999367    62.091298    12814.907 
 5060000   -203465.59    1.6864078 1.1072614e-05    62.208816    12828.215 
 5065000   -203363.43    1.6129701 -0.0072166291    62.205847    12841.524 
 5070000   -203466.68    1.6803164 -0.0018013508    62.159689    12854.823 
 5075000   -203438.53    1.6766146 -0.0069804924    62.239697    12868.153 
 5080000   -203455.74    1.6882049 -0.0081767533    62.217996     12881.45 
 5085000   -203482.12    1.6939145  0.001518439    62.141899    12894.752 
 5090000   -203249.02    1.6965389 -0.0053566806    62.318161    12908.036 
 5095000   -203463.38    1.7313441 -0.0007254112    62.169829     12921.34 
 5100000   -203402.34    1.7486819 -0.0017797541    62.171027    12934.636 
 5105000    -203448.3    1.6630908 -0.0013616846    62.130106    12947.949 
 5110000   -203285.37    1.7033879  0.007501423    62.111867    12961.266 
 5115000   -203073.62    1.7096174 -0.0004681585    62.256713    12974.556 
 5120000   -203060.83    1.6872614 -0.0059994366    62.385102    12987.808 
 5125000   -203270.17    1.6873762 0.0010029205    62.270358    13001.099 
 5130000   -203360.69    1.7233273 -0.00032017549    62.188388    13014.371 
 5135000   -203388.32    1.7120791 0.00024178983    62.123558    13027.644 
 5140000   -203497.73    1.7090499 0.0081247926    62.049148    13040.981 
 5145000    -202983.6    1.6869749 0.00048637629     62.30237    13054.312 
 5150000   -203049.68    1.6853277 0.0068204951    62.204513    13067.626 
 5155000   -203460.68    1.7014683 0.0012007566    62.124428    13080.954 
 5160000   -203472.28     1.669983 -0.0017236791    62.109913    13094.236 
 5165000   -203338.05    1.7102884 0.00066372731    62.227405    13107.516 
 5170000   -203398.24    1.7294785 0.0011087149    62.165515    13120.772 
 5175000   -203381.41    1.7300896 -0.00063645533    62.177477    13134.068 
 5180000   -203394.73    1.6460271 -0.0040185187    62.214811    13147.375 
 5185000   -203405.32    1.7042205 -0.00081492527    62.209512    13160.669 
 5190000   -203399.96    1.6978634 -0.0066586631    62.252941    13173.998 
 5195000   -203453.53    1.7288265 -0.0045119727     62.21731    13187.319 
 5200000   -203261.62    1.7430431 0.0046192228     62.16501    13200.638 
 5205000   -203193.01    1.7148445 -0.0016449118    62.243925    13213.911 
 5210000   -203341.27    1.6939948 -0.0019306695    62.215045    13227.215 
 5215000   -203269.99     1.693456 -0.0091139899    62.331523    13240.504 
 5220000   -203436.36    1.6737237 0.0013555777    62.137748    13253.816 
 5225000   -203496.27    1.7245931 -0.00078159001    62.155401    13267.119 
 5230000   -203681.95    1.6631629 0.00014807534    62.027136     13280.44 
 5235000   -203664.87    1.7115541 -0.0057082755    62.142589     13293.77 
 5240000   -203349.79    1.6898529 -0.0043343831    62.231906    13307.115 
 5245000    -203437.2    1.6687896 0.0036123945    62.018514    13320.409 
 5250000    -203554.8      1.75229 -0.0069722986    62.078915    13333.731 
 5255000   -203648.11    1.6836395 -0.0052954737    62.036846    13347.054 
 5260000   -203697.76     1.704364 -0.00081281334     62.01075    13360.391 
 5265000   -203603.14    1.7270244 0.0023633807    62.032958    13373.699 
 5270000   -203594.39    1.7145633 0.00080178827    62.053711    13387.021 
 5275000   -203471.58    1.6476696 0.00064984132     62.05061    13400.329 
 5280000   -203550.53    1.6929784 -0.00023997104    62.084352    13413.686 
 5285000   -203567.35    1.7162063 0.0019024468    62.088676    13427.021 
 5290000    -203471.3    1.6880052 0.0021325084     62.06377    13440.344 
 5295000   -203557.82    1.6923262 -0.0012886581     62.16016    13453.678 
 5300000   -203530.96     1.685198 -0.0047639154    62.178743    13466.973 
 5305000   -203392.58    1.7193051 0.00099703338    62.120721    13480.295 
 5310000   -203418.71     1.668106 -0.0013883588    62.190194    13493.586 
 5315000   -203616.91    1.6716654 -0.001622403    62.028041    13506.919 
 5320000   -203655.99    1.7115952 0.0031017519    62.017217    13520.269 
 5325000   -203506.82    1.6683186 -0.004886776    62.130681    13533.593 
 5330000   -203584.77    1.6885952 0.00053498024    62.017356    13546.934 
 5335000    -203426.1    1.6967115 -0.00028902552    62.074824    13560.247 
 5340000   -203571.69    1.6768568 0.00013226182    61.988294    13573.579 
 5345000   -203525.52    1.6765734 -0.0049479045    62.054796    13586.927 
 5350000    -203630.6    1.7012471 -0.00071951083     62.04598    13600.237 
 5355000   -203646.22    1.7299269 -0.0061279938    62.086225    13613.549 
 5360000   -203591.68    1.7045443 -0.0050854216    62.100909    13626.888 
 5365000   -203836.29    1.6996381 0.0092562718    61.828818    13640.239 
 5370000   -203835.84    1.6967561 -0.0056530994    61.991765    13653.579 
 5375000   -203706.85     1.763973  -0.00136283    61.907864    13666.911 
 5380000   -203633.37    1.6937045 -0.0031447975    61.991986    13680.274 
 5385000    -203483.1    1.7183713 0.0033177928    61.978496    13693.618 
 5390000   -203743.35    1.7200554 0.00013638046    61.900989    13706.967 
 5395000   -203560.37    1.7222449 0.0026765692    61.992242    13720.357 
 5400000   -203373.65    1.6788608 -0.0010764657    62.071828    13733.705 
 5405000   -203539.71     1.725259 -0.0009934888    61.985765    13747.067 
 5410000   -203579.22    1.7208266 0.0049538796    61.966044    13760.429 
 5415000   -203501.48    1.7358704 0.0013040081     62.05541    13773.758 
 5420000   -203477.77    1.6602335 0.0049096243    62.025431    13787.093 
 5425000    -203526.6    1.6861469 -0.004777319    62.057567    13800.409 
 5430000   -203632.58     1.663222 -0.0036170731    62.003193    13813.744 
 5435000   -203509.26    1.7417324 -0.0070639583     62.10511    13827.049 
 5440000   -203528.64    1.6924345 0.00079191072    62.052479    13840.402 
 5445000   -203846.99    1.6537295 -0.0025663497    61.937109    13853.681 
 5450000    -203823.2    1.7310007 0.0029695929    61.866408    13867.036 
 5455000   -203840.46    1.7061292 0.0036239466    61.857699    13880.379 
 5460000   -203746.45     1.700094 -0.0030701859    61.925143    13893.724 
 5465000   -203644.55    1.7374471 -0.0037757738    62.022069     13907.07 
 5470000    -203483.5    1.6985393 -0.0036511507    61.988054    13920.423 
 5475000   -203631.08    1.7389951 -0.0011793643    61.961287    13933.773 
 5480000   -203619.67    1.6804308 0.0012564463    61.935889     13947.11 
 5485000    -203745.5    1.6918666 0.0071941409     61.88947    13960.463 
 5490000   -203704.43    1.6925259 0.0019375269    61.906603    13973.796 
 5495000   -203649.71    1.7195153 -0.0046882349    61.961578    13987.156 
 5500000   -203666.59    1.6647876 0.0071932761    61.809889    14000.528 
 5505000   -203664.05    1.7047454 -0.0023480962    62.007263    14013.851 
 5510000   -203809.98    1.7022269 -0.0064034718    61.994073     14027.21 
 5515000   -203683.27    1.6696459 -0.002363026    61.980235     14040.55 
 5520000   -203517.41    1.6512781 0.00025056676    61.997051     14053.89 
 5525000   -203380.88     1.683538 0.0021067397    62.011055    14067.252 
 5530000   -203693.53    1.6220298 -0.0022926138    62.075128    14080.552 
 5535000   -203618.45     1.703376 -0.0070391783    62.147994    14093.861 
 5540000   -203670.19     1.735129 -0.0042694236    62.056625    14107.179 
 5545000    -203636.4    1.6586891 0.0023613536    61.964591    14120.471 
 5550000      -203408    1.6456103 -0.0063472634    62.144172      14133.8 
 5555000   -203630.41    1.7187682  0.002464717    62.026063     14147.11 
 5560000   -203609.98     1.728867 -0.0039564522    62.079405    14160.412 
 5565000   -203815.16    1.6983273 -0.0077282993    62.059723    14173.754 
 5570000   -203607.73    1.7081213 0.0068043861    61.840652    14187.129 
 5575000   -203528.46    1.6727929 0.0005191437    61.969694    14200.495 
 5580000   -203641.72     1.754888 0.00053001412    61.933694    14213.842 
 5585000   -203470.84    1.6742518 0.0021317829    62.001409    14227.149 
 5590000   -203630.58    1.7040605 0.00047518787    61.986842    14240.517 
 5595000   -203672.43    1.7080506 -0.0020442274    62.038419    14253.904 
 5600000   -203607.91    1.6999104 -0.0010226086    61.989099    14267.217 
 5605000   -203844.85    1.6790939 -0.0034104565    61.941756      14280.6 
 5610000   -203856.21    1.6844403 -0.0028335855      61.9185    14293.957 
 5615000   -203657.99    1.6833692 0.0010028238    61.937101    14307.302 
 5620000   -203776.98    1.6967946 0.0010167306    61.965848    14320.594 
 5625000   -203742.06    1.6989249 -0.001640183    62.001244    14333.911 
 5630000   -203791.04    1.7331593 0.00016055044     61.97316    14347.261 
 5635000   -203680.12    1.7066028 0.0064156716    61.924379    14360.625 
 5640000   -203992.79    1.7132667 0.0037727025    61.865689    14373.974 
 5645000   -203945.87    1.6854171 0.0028309087    61.943434    14387.328 
 5650000   -203760.88    1.6842845 -0.00011957117    61.947467    14400.677 
 5655000   -203874.19    1.7241798 0.00092884857    61.909446    14414.043 
 5660000   -203682.47    1.6875156 -0.00023213093    61.984099    14427.398 
 5665000   -203878.03    1.6863344 0.0011276028    61.865719    14440.744 
 5670000   -203900.99    1.6464032 -0.0020553486    61.910548    14454.088 
 5675000   -203699.97    1.6878893 -0.0073439143    62.056006    14467.424 
 5680000    -204074.1    1.7046388 0.00020317171    61.897533    14480.762 
 5685000   -203871.73    1.7334837 0.0040555413    61.917555    14494.091 
 5690000      -203813    1.6511051 0.0039397908    61.907406    14507.475 
 5695000   -203885.74    1.7382034 0.0020244817    61.875284    14520.849 
 5700000   -203954.19    1.6407143 0.0035784659    61.832443    14534.203 
 5705000   -203790.75    1.7115076  0.005945402    61.833553     14547.56 
 5710000   -203891.25    1.6657371 -0.005425575    61.855292    14560.947 
 5715000   -203837.24      1.67126 -0.011886968     61.94984    14574.377 
 5720000   -204036.61    1.6855783 0.0031298705    61.809653    14587.756 
 5725000   -203859.83    1.7154645 0.0038909066      61.8183    14601.105 
 5730000    -203973.5    1.7201113 -0.0034848758    61.903029      14614.5 
 5735000   -203815.31    1.6980316 -0.0037901045    61.944331    14627.844 
 5740000   -203671.06    1.7172447 -0.0023085429    62.025081    14641.235 
 5745000   -203710.56     1.709557 0.0053296264    61.951479    14654.581 
 5750000   -203925.48    1.7208164 0.00055766587    61.909941    14667.981 
 5755000    -203731.1    1.6806247 0.0012375401    61.922886    14681.369 
 5760000   -203915.48    1.7097565 0.0095695142    61.758826    14694.749 
 5765000    -203768.5    1.7149342 0.0013192318    61.935046    14708.116 
 5770000   -203908.16    1.6843488 -0.0047763158    61.964021    14721.465 
 5775000   -203935.06    1.7139857 0.0011485245    61.930111     14734.86 
 5780000   -203888.65      1.66451 -0.0017749953     61.89148     14748.23 
 5785000   -203766.71    1.7180752 -0.0032944479    61.949929    14761.583 
 5790000   -203930.19     1.672058 0.0048641757    61.834889    14774.952 
 5795000   -203842.69    1.6775648 0.0012025587     61.88736    14788.287 
 5800000   -203756.53    1.6649521  -0.00689864    62.051275    14801.655 
 5805000   -203853.85    1.7018642 -0.0012034074    61.910833    14814.965 
 5810000   -203600.44    1.6877349 -0.0011426242    61.971264    14828.357 
 5815000   -203594.86    1.7144795   0.00121575     61.99964    14841.751 
 5820000   -203645.75    1.6912161 -0.0024117167    62.059663    14855.085 
 5825000   -203613.56    1.7509577 0.0027510516     61.98305    14868.378 
 5830000   -203591.27    1.6493857 0.00012346724    61.996215    14881.689 
 5835000   -203460.11    1.7217031 -0.0059014634    62.135924        14895 
 5840000   -203643.58    1.6684537 0.0014363798    62.046921    14908.264 
 5845000   -203587.31    1.6648557 0.0033379255    62.009879    14921.601 
 5850000   -203795.31    1.7198194 -0.0036319062    62.043638    14934.995 
 5855000   -203649.92    1.7132959 -0.0012157538    62.107311    14948.376 
 5860000      -203530    1.6903567 -0.0051403439    62.055261    14961.738 
 5865000   -203738.09    1.7202258 -0.00023743955    62.018195    14975.071 
 5870000      -203729    1.7261415 0.00013334094    61.995793    14988.429 
 5875000   -203654.58    1.7180359 -0.0019575029    61.997307    15001.753 
 5880000   -203519.75    1.7135742 -3.2538361e-05    62.071163    15015.107 
 5885000   -203265.11    1.7226581 -0.0018025018    62.114616    15028.425 
 5890000   -203631.09    1.7110099 -0.00041500672    62.010677    15041.763 
 5895000   -203685.47    1.6789884 -0.0054060133    62.037317    15055.126 
 5900000   -203857.37    1.7301179 -0.0021543925     61.91959     15068.48 
 5905000   -203466.61    1.6971393 0.0018556934    61.958761    15081.849 
 5910000   -203545.18     1.693283 -0.00067343686    62.037653    15095.195 
 5915000   -203583.57    1.6640865 -0.0045224978     62.04143    15108.515 
 5920000    -203779.7    1.7015319 -0.00088113502    61.985049    15121.861 
 5925000   -203695.35    1.6345187 -0.00066933801    61.961915    15135.225 
 5930000   -203791.03    1.6791456 0.0011416093    61.874134     15148.56 
 5935000   -203930.27    1.7166793 0.0030442328    61.872835    15161.918 
 5940000   -203834.37    1.6538624 -0.0018570865    61.936718    15175.311 
 5945000   -203726.94    1.6865287 0.00027484393    61.921117    15188.628 
 5950000      -203755    1.6660617 0.0051948174     61.90064    15201.942 
 5955000   -204114.91    1.7306839 0.0014663882     61.85828    15215.279 
 5960000   -203739.87    1.7024979 -0.0014229752    61.969762    15228.634 
 5965000   -203739.85    1.6644546 0.0044193801    61.928478    15241.952 
 5970000   -203604.77    1.7050762 0.0029041243    61.952331    15255.283 
 5975000   -203678.23     1.713742 -0.0037876548    61.998719     15268.63 
 5980000   -203767.35    1.7203904 8.6970935e-05    61.935751    15282.007 
 5985000   -203791.06    1.7310784 0.0014695234    61.909615    15295.313 
 5990000   -203753.46    1.6852513 0.0024910645    61.867825    15308.636 
 5995000    -204058.2    1.6877136 0.00065744917     61.78406    15321.993 
 6000000    -203735.3    1.6399462 -0.0099188465    62.062107    15335.347 
 6005000    -203827.2    1.6794602 -0.0041770367    61.918946    15348.701 
 6010000   -204045.67    1.6907758 -0.0039869648    61.892479     15362.08 
 6015000   -203854.93    1.6672978 -0.00063206352    61.886993    15375.476 
 6020000   -203776.67    1.7181454 -0.0061817287    62.043523    15388.873 
 6025000   -203901.02    1.7190756 -0.0049428409    61.955174    15402.222 
 6030000   -203790.97    1.7180967 -0.00054560531    61.954392    15415.595 
 6035000   -203928.82    1.7785098 0.0036779758    61.751504    15429.046 
 6040000   -204008.64    1.6752408 0.0011212563    61.762651    15442.472 
 6045000   -204018.46    1.6427187 0.0018683728    61.814491    15455.866 
 6050000   -204048.55    1.6463863 0.0052025431    61.746571    15469.269 
 6055000   -203969.48     1.732969 -0.0075360055    61.967882    15482.692 
 6060000   -204029.22    1.7176187 0.0020893691    61.818668     15496.12 
 6065000   -204008.06    1.6532613 -0.0017566952    61.856132    15509.492 
 6070000   -204025.21    1.6784638 -0.010091458    61.966317    15522.866 
 6075000   -204109.56    1.6990171 -0.0036339491    61.850184    15536.274 
 6080000   -203790.43    1.7050218 0.0012016729    61.883214    15549.631 
 6085000   -203794.44    1.6907525 0.00030660256    61.897756    15563.016 
 6090000   -203826.64     1.702753 0.0029827328    61.870944    15576.427 
 6095000   -203676.27    1.7098265 -0.00053221773    61.960782      15589.8 
 6100000    -203797.1     1.686104 0.0048119171    61.846795    15603.137 
 6105000   -203832.91    1.6648018 0.0019963569    61.905106    15616.497 
 6110000    -203767.9    1.6982575 -0.0027347321    61.911415    15629.861 
 6115000   -203896.24    1.6853355 0.00024939867    61.838561    15643.194 
 6120000    -204010.7    1.6759441 -0.004953348    61.885137    15656.549 
 6125000   -204089.59    1.6945364 -0.0028521048    61.855301    15669.984 
 6130000   -204227.52    1.6961037 -0.00052328699    61.741569    15683.414 
 6135000   -204184.68    1.6808444 6.6241433e-05    61.794782    15696.792 
 6140000   -204076.44    1.7065793 0.0018297312    61.764839    15710.181 
 6145000   -204353.26    1.6936856 0.0016757694    61.782264    15723.561 
 6150000   -203962.94    1.6801878 0.0035222097    61.790033    15736.934 
 6155000   -204160.36    1.7163594 0.0020848005    61.811105    15750.308 
 6160000    -204113.8    1.7062889 -0.00044583693    61.845023    15763.716 
 6165000   -204186.02     1.685091 0.0010464951    61.833093     15777.09 
 6170000   -203999.41    1.6480953  0.005092657    61.747687     15790.47 
 6175000   -204098.22    1.7539105 0.0033953013     61.78026    15803.842 
 6180000   -203718.32    1.7070638 -0.0037096034    61.973025    15817.232 
 6185000   -204081.48    1.6955351 0.0040780017    61.781015    15830.591 
 6190000   -204133.97    1.6737634 0.00013181542     61.85414    15843.979 
 6195000   -203932.95    1.6751934 -0.0011157427    61.892866    15857.371 
 6200000   -203791.49     1.714969 0.0012656713    61.989791    15870.719 
 6205000    -203825.9    1.6597551 0.00019942238     61.93947      15884.1 
 6210000   -203958.14    1.7025552 -0.0036775058    61.917324    15897.414 
 6215000   -203697.15    1.7347376  0.000308641     61.97315    15910.756 
 6220000   -203706.58    1.6782676 -0.0027512587    61.975035    15924.105 
 6225000   -203732.54    1.6734809 -0.0024758532    61.976597    15937.436 
 6230000   -203687.53    1.7278535 0.0032630734    61.968586     15950.75 
 6235000   -203787.29    1.6764805 -0.0071420197    62.002752    15964.074 
 6240000   -203719.74     1.667488 0.0049031516    61.820577    15977.455 
 6245000   -203742.03    1.6866058 -0.0033742628     61.96483    15990.814 
 6250000   -203370.47    1.7173915 -0.0028893283    62.121824    16004.163 
 6255000   -203448.51    1.7192293 -0.0017755783    62.120389    16017.488 
 6260000   -203525.29     1.708153 -0.0020221839    62.117619    16030.835 
 6265000   -203503.37    1.7246021 -0.0071565853    62.154499    16044.149 
 6270000   -203530.23    1.6960831 -0.0015016558    62.081826    16057.473 
 6275000    -203647.9    1.6850521 0.0019406006    61.944079    16070.799 
 6280000   -203600.71    1.7125273 0.0018175414    61.971549     16084.16 
 6285000   -203521.07    1.6609966 -0.0017796469     62.07949    16097.458 
 6290000   -203715.93    1.7077788 0.00040302975    61.963474    16110.796 
 6295000    -203515.1    1.6834667 0.0018522163    61.967691    16124.124 
 6300000   -203496.64    1.6672117 -0.0042116593    62.015684    16137.434 
 6305000   -203477.47    1.7101849 -6.6635897e-05    62.041409    16150.818 
 6310000   -203514.04    1.6576001 -0.00039221531    61.959328     16164.17 
 6315000   -203688.65    1.6637656 0.0016315353    61.883989    16177.516 
 6320000   -203707.01    1.7108999 -0.0010958754    61.926438    16190.838 
 6325000   -203600.71    1.6551041 -4.3091218e-05    62.061758    16204.163 
 6330000   -203392.76    1.7142782 -0.0036383842    62.140574    16217.469 
 6335000      -203413    1.6873332 -0.0056568867    62.168596    16230.762 
 6340000   -203395.59    1.6762874 0.0016383281    62.099477    16244.086 
 6345000   -203385.17    1.7164232 -0.002218331    62.096499    16257.398 
 6350000   -203421.01    1.7476357 -0.00056020672    62.060098    16270.713 
 6355000   -203676.08    1.7176762 0.0072754304    61.828344    16284.043 
 6360000   -203810.47    1.6885387 -0.0010972217    61.918297    16297.398 
 6365000   -203700.98    1.7104739 0.0018712671    61.909307    16310.727 
 6370000   -203516.99    1.6763167 0.0019205178    62.031465    16324.075 
 6375000   -203587.23    1.7210035 0.0024483213    61.990881    16337.426 
 6380000    -203781.4    1.6802206 -0.0011587333    61.897733    16350.774 
 6385000   -203696.75    1.6702705  0.001560175    61.898859     16364.12 
 6390000   -203781.98    1.6588402 0.00086233383    61.875754    16377.436 
 6395000   -203722.65    1.7061972 -0.001137657    61.960062     16390.75 
 6400000   -203638.62    1.7132894 0.0028386251    61.873182     16404.07 
 6405000   -203818.06    1.7345577  0.007276143    61.816454    16417.444 
 6410000   -203890.51    1.7223522 -0.004327615    61.932941    16430.756 
 6415000   -203707.96    1.6885458 0.0089031219    61.840172    16444.129 
 6420000   -203489.68    1.6949504 0.0024648709    61.953867      16457.5 
 6425000   -203448.07    1.6716806 -0.0053674916    62.087334    16470.826 
 6430000   -203604.82    1.6565031 0.00016617116    62.026959    16484.155 
 6435000   -203573.39    1.7068787 0.00080177942    62.026205    16497.457 
 6440000   -203507.94    1.6980904 0.00083229482    62.041928    16510.809 
 6445000      -203462    1.7086874 0.00093125242    62.081497    16524.087 
 6450000   -203464.79    1.7291317 -0.00077821403    62.045555    16537.436 
 6455000   -203400.22    1.7482406 -0.0055663669    62.145733    16550.733 
 6460000   -203414.75    1.7196302 -0.0014253854    62.153716    16564.018 
 6465000   -203458.71    1.6706817 -0.002110612    62.166379    16577.308 
 6470000   -203410.96    1.6990943  0.005134458    62.037669    16590.629 
 6475000   -203553.06     1.706149 0.0030489152    62.030414    16603.946 
 6480000   -203327.17    1.6499015 0.00026042817    62.121786    16617.253 
 6485000   -203366.07    1.6467712 -0.0013343053     62.16649    16630.585 
 6490000   -203466.21    1.6642875 -0.0030278589    62.087111    16643.934 
 6495000   -203638.17     1.621847 0.0055771598    61.927119    16657.285 
 6500000    -203627.4    1.6904758 -0.0018070825    62.028956    16670.606 
 6505000   -203546.94    1.7007608 -0.0066269733    62.089016    16683.933 
 6510000   -203561.99     1.700008 -0.002695904    62.035118    16697.278 
 6515000   -203490.86    1.6705918 0.0061066154    61.964569    16710.597 
 6520000   -203461.37    1.6754946 -0.0022974043    62.047927    16723.924 
 6525000   -203600.95    1.7050437 -0.0050355581    62.073086    16737.245 
 6530000   -203827.92    1.6509647 0.0027404029    61.987053     16750.55 
 6535000   -203555.68    1.6796359 -0.0018568069    62.088309    16763.849 
 6540000   -203727.43    1.7168581 -0.0032547029    62.024972    16777.152 
 6545000   -203911.71    1.7002146 0.0016608025    61.897382    16790.496 
 6550000   -203734.08    1.7220555 -0.0029847742     61.95984    16803.841 
 6555000   -203526.57    1.7112622 -0.00025191666    61.989061    16817.188 
 6560000    -203843.2    1.6951896 -0.0022077831    61.923731    16830.504 
 6565000   -203903.53    1.7348089 -0.004370905    61.947526     16843.88 
 6570000   -203699.04    1.6724736 -0.0011245646    61.952054    16857.211 
 6575000   -203862.84    1.6790356 0.0027802614    61.878798    16870.553 
 6580000   -203728.72    1.6527169 -0.0045558689    62.006582    16883.912 
 6585000    -203720.5    1.6880142 -0.005238695    62.086976    16897.345 
 6590000   -203813.96    1.6754061  0.004973501    61.898029    16910.673 
 6595000   -203722.26    1.7344131 0.0025503797     61.93105    16924.041 
 6600000   -203655.78    1.6647248 -0.0027603914    61.943507    16937.403 
 6605000   -203806.69    1.7272032  0.001228657    61.905895    16950.745 
 6610000    -203783.2    1.6777857 0.0063847614    61.860604    16964.105 
 6615000   -203469.72    1.7216357 0.0033429521    61.988057    16977.466 
 6620000      -203847    1.6974143 -0.0019287846    61.945222    16990.781 
 6625000   -203716.88    1.7521021 -0.00042871959    61.935431    17004.143 
 6630000   -203712.92    1.6657125 0.0026090716     61.86157    17017.458 
 6635000   -203750.73    1.6761884 -0.0047759811      61.9591    17030.834 
 6640000   -203767.66    1.7078219 -0.0025140239    61.896053    17044.194 
 6645000   -203662.94    1.6417326 -0.0089691068    62.073174    17057.561 
 6650000   -203823.29    1.7028893 0.0016545792    61.864699    17070.938 
 6655000   -203894.79    1.7103065 0.00046600034    61.846766    17084.329 
 6660000   -203736.89    1.6825247 -0.00027083895     61.94159     17097.69 
 6665000   -203701.01    1.6787988  0.003607427    61.882707     17111.01 
 6670000   -203922.65    1.7155856 -0.0049054232     61.90509    17124.371 
 6675000   -204024.54    1.7175939 -0.0010170178    61.851518    17137.767 
 6680000   -203942.13     1.688752 -0.001657298    61.885915    17151.138 
 6685000   -203838.81    1.7006363 0.00010231598    61.986933    17164.496 
 6690000   -203729.63    1.7644166 -0.0012722264    62.009105    17177.833 
 6695000   -203801.51     1.673456 -0.0043801454    62.008291    17191.211 
 6700000   -203633.09    1.6831096 0.00020249595    61.993997    17204.569 
 6705000   -203709.49    1.6674861 0.0039075403    61.942437    17217.873 
 6710000   -203773.66    1.6787152 -0.0016097508    61.989956    17231.225 
 6715000   -203768.16    1.7143932 3.6938454e-05    61.963279    17244.572 
 6720000   -203756.82    1.6934342 -0.00080936099    61.989663    17257.906 
 6725000   -203573.47    1.7046265 -0.0034436396    62.037015    17271.195 
 6730000   -203599.34     1.729911 -0.001756176    62.087654    17284.547 
 6735000   -203572.45    1.6899615 -0.0036130076    62.101071    17297.828 
 6740000   -203585.02    1.6692706 -0.0030347164    62.111162     17311.14 
 6745000   -203671.42     1.705374 0.0053023997    61.906227    17324.472 
 6750000   -203792.87    1.7714272 0.0089408757    61.844237    17337.837 
 6755000   -203694.93    1.6761555 0.0035525955    61.931943    17351.203 
 6760000   -203674.89    1.7201816 0.0012556726    61.973614    17364.562 
 6765000   -203463.48    1.6900075 -0.0022438673     62.14693    17377.885 
 6770000   -203523.27    1.7014774 -0.0032924236    62.193578    17391.183 
 6775000   -203396.69    1.6826899 0.0017906775    62.117075    17404.509 
 6780000   -203531.02    1.7151428 0.0013213563    62.020973    17417.817 
 6785000   -203422.27    1.6783039 -0.00022334216    62.117516     17431.13 
 6790000   -203535.53    1.6949298 0.0032475185    62.067837    17444.441 
 6795000   -203398.68    1.7006159 0.0019494651    62.026984    17457.755 
 6800000   -203351.62    1.7294864  0.001923843     62.06819    17471.088 
 6805000   -203275.79    1.7123727 -0.0019640648    62.171929    17484.375 
 6810000   -203380.99    1.7176115 0.0036885936    62.075451    17497.677 
 6815000    -203508.5    1.7141522 -0.0040337668    62.153791    17511.009 
 6820000   -203303.86    1.6511633 -0.00024231946    62.140137    17524.276 
 6825000      -203328    1.7255034 -0.00069150223    62.162047    17537.585 
 6830000   -203282.36     1.632243 -0.00074205998    62.183034    17550.891 
 6835000    -203527.1    1.6532372 -0.0028576222    62.199356    17564.189 
 6840000   -203560.07    1.6616634 -0.0023711984    62.134461    17577.455 
 6845000   -203345.38    1.7076059 0.0010315557    62.208683    17590.775 
 6850000   -203352.59    1.7963817 0.0010731317    62.169601    17604.061 
 6855000      -203280    1.7591676 -0.0003621784    62.167626    17617.345 
 6860000   -203263.32    1.6864638 -0.00084411151    62.264409    17630.633 
 6865000   -203265.53    1.6954408 0.0012565225    62.179877    17643.929 
 6870000   -203314.33    1.7009728 0.0043815556    62.208527    17657.203 
 6875000   -203296.06    1.6941518 -0.00053911624    62.277463    17670.482 
 6880000   -203349.93    1.7113816  0.004209588    62.121428     17683.76 
 6885000   -203429.14     1.667718 -0.00016253724    62.084483    17697.064 
 6890000   -203621.34    1.6771369 0.0042936157    61.965279    17710.345 
 6895000   -203487.71    1.7409423 -0.0035838127    62.122403    17723.688 
 6900000   -203567.34    1.6794392 0.0048528012     61.99852     17737.03 
 6905000   -203668.85    1.7232057 0.00043593792    62.032676    17750.342 
 6910000   -203401.73    1.6643927 -0.0013250991    62.119785    17763.649 
 6915000   -203608.27    1.6629728 -0.0055907183    62.092658    17776.948 
 6920000   -203476.48    1.6659333 -0.0022985308    62.045669     17790.27 
 6925000   -203636.24    1.7427454 -0.0024991727    62.043083    17803.625 
 6930000   -203861.36    1.7242411 -0.0051606172    62.002827    17816.989 
 6935000   -203665.73    1.6958387 0.00017093253    61.965949    17830.323 
 6940000   -203818.39    1.6693863 0.0044440108    61.854934    17843.672 
 6945000    -203691.6    1.7098187 -0.0010217551    61.948265    17857.037 
 6950000   -203750.69    1.7398095 0.0025015118    61.915306    17870.402 
 6955000   -203869.93    1.7507388 -0.0025265903    61.906914    17883.772 
 6960000   -203856.83     1.682461 -0.0050333036     61.98085    17897.162 
 6965000   -203866.11    1.6779084 0.00023586289    61.845514    17910.574 
 6970000   -204077.92    1.6935356 0.0014562259    61.847169    17923.964 
 6975000   -203844.27    1.7036674 0.0063977275    61.816289     17937.34 
 6980000   -203992.21    1.7226298 0.00027472924    61.887991    17950.719 
 6985000   -203811.65    1.7089022 -0.0020938268    61.944868    17964.108 
 6990000    -204007.1    1.7021663 0.0022727718    61.809336    17977.459 
 6995000   -203875.79      1.67305 0.0023163015    61.872266    17990.824 
 7000000   -203669.45    1.6719433 -0.0020027112     61.96399    18004.203 
 7005000      -203778    1.7094986 0.00015673687    61.968978    18017.564 
 7010000   -203530.39    1.7353314 0.0029575428    61.982217    18030.886 
 7015000    -203656.3    1.6985843 0.0012899751    62.008692    18044.205 
 7020000   -203655.49    1.6627001 -0.0037747216    62.043038    18057.583 
 7025000   -203841.86    1.7143497 0.0017629868    61.952658    18070.856 
 7030000   -203725.54    1.6899594 0.0049072405    61.937081    18084.195 
 7035000   -203713.38    1.7464347 0.0023424745    61.968335    18097.528 
 7040000   -203938.65    1.7415584 9.4477689e-05    61.901608    18110.869 
 7045000   -203654.67      1.72721 0.0060609467    61.969358    18124.208 
 7050000    -203587.3    1.7296583  0.002083183    62.079759    18137.529 
 7055000   -203439.64    1.7661468  0.002311056    62.074495    18150.858 
 7060000   -203714.37    1.6703059 -0.0017213174    62.068324    18164.138 
 7065000   -203656.17    1.7201218 -0.00019674379     62.09447    18177.424 
 7070000   -203375.03    1.6910763 -0.0057234378    62.244124    18190.726 
 7075000   -203452.13    1.6877398 0.0018294818     62.13247        18204 
 7080000   -203419.14    1.7139648 -0.0014996331    62.152002     18217.32 
 7085000   -203514.02    1.7066382 -0.003578898    62.026515    18230.612 
 7090000    -203784.9    1.7692847 0.0033334225     61.87336    18243.957 
 7095000   -203687.29    1.6711239 -0.0043822336    61.994672    18257.315 
 7100000   -203507.82    1.6933019 0.0054046875    61.976913    18270.658 
 7105000   -203795.98    1.7177973 0.0011562501    62.014889    18284.013 
 7110000   -203513.66    1.6818497 -0.0086502897    62.113564     18297.34 
 7115000   -203817.23     1.684385 -0.0017982524     61.97203    18310.731 
 7120000   -203599.66    1.6968154 0.0014690189    61.975773    18324.063 
 7125000   -203725.83    1.7166343 -0.00093213806    61.977992    18337.446 
 7130000   -203857.39    1.6915347 0.0016578872    61.944996    18350.778 
 7135000   -203718.31    1.7113466 -0.0010480812    61.996679    18364.103 
 7140000   -203785.91    1.7243355 0.00062652273    61.924251     18377.48 
 7145000   -203842.95    1.6752246 -0.00036778573    61.927032    18390.823 
 7150000   -203657.42    1.6917111 -0.0021514475    61.976253    18404.182 
 7155000    -203706.6    1.7140835 -4.8749005e-05    61.904557    18417.493 
 7160000   -203557.41    1.6527595 -0.001418789    62.005777    18430.873 
 7165000   -203778.91    1.6612692    0.0013863    61.916059    18444.235 
 7170000    -203829.4    1.7244691 -0.0031415694    62.012477    18457.582 
 7175000    -203633.9    1.6442603 -0.0037449983    62.004222    18470.901 
 7180000   -203816.31    1.6951458 -0.0071478888    62.052031    18484.228 
 7185000   -203850.09     1.685343 -0.0011441861     61.89519    18497.601 
 7190000   -203723.62    1.6836381 0.0020219543     61.88927    18510.985 
 7195000   -203809.98    1.7098281 0.0015805164    61.965472    18524.318 
 7200000   -203668.92    1.7533542 0.0018506464    62.019839    18537.673 
 7205000   -203235.99    1.7416711 0.0037339401    62.043756    18550.963 
 7210000   -203709.97    1.7339336 0.0021264312    62.022663    18564.254 
 7215000   -203681.74    1.6618586 -0.0067997949    62.102267     18577.57 
 7220000    -203698.7    1.7549216 -0.0022838188     61.97601    18590.971 
 7225000   -203620.73    1.6999626  0.003967493    61.999341    18604.336 
 7230000   -203908.41    1.6558966 0.0034890267    61.859725     18617.65 
 7235000   -203848.41    1.7138867 0.0019634718    61.904446    18631.004 
 7240000   -203714.94    1.7108195 1.6043602e-05    62.005375    18644.339 
 7245000   -203611.66    1.7373404 0.0018437247    61.979737    18657.708 
 7250000   -203839.75    1.7304454 0.0020475074    61.945654    18671.082 
 7255000   -203609.54    1.6714262 -0.0016076922    62.086984    18684.459 
 7260000   -203525.55    1.7130147 0.0066388056    61.980614    18697.797 
 7265000   -203624.52    1.7369311 0.0020057163    62.018939    18711.151 
 7270000    -203861.5    1.6901228 0.0013700225    61.980673    18724.497 
 7275000   -203816.45    1.6949576 -0.0032306844    61.964284    18737.821 
 7280000    -203791.9    1.6921515 0.00074000918    61.952844    18751.156 
 7285000   -203967.34    1.6975221 0.0053641519    61.859575    18764.512 
 7290000   -203730.34    1.6651423 -0.0041729912    61.995426    18777.856 
 7295000   -203902.76    1.6988188 0.0016280094    61.848029    18791.223 
 7300000   -203967.33    1.6744305 -0.00034060925     61.89381    18804.588 
 7305000   -203849.02    1.7064266 -0.0028196141    61.932232    18817.955 
 7310000   -203753.14    1.6969926 0.0026931404     61.87428    18831.351 
 7315000   -203816.29    1.6985987 -0.00057782014    61.910569    18844.714 
 7320000   -203761.86    1.7511255 -0.0072375761    62.067666    18858.091 
 7325000   -203986.07    1.6582405 -0.0032893933    61.886268    18871.471 
 7330000   -203731.89    1.6640582 0.0036993804    61.931261    18884.863 
 7335000   -203788.39    1.7396832 -0.0012740158    62.024298    18898.172 
 7340000   -203824.78    1.6717681  0.002508056    61.938273    18911.537 
 7345000   -203719.79    1.6944987 0.0046782199    61.868862    18924.887 
 7350000   -203725.66    1.7219195 -0.0044376292    62.015898    18938.207 
 7355000   -203734.79    1.6916179 0.0068518239    61.834998    18951.525 
 7360000      -203791    1.7407345 0.0040705339    61.903904    18964.877 
 7365000   -203752.38     1.691866 7.0146693e-05    61.928129    18978.228 
 7370000   -203881.26    1.6822835 -0.00097446671    61.871938    18991.599 
 7375000   -203800.23    1.6787278 0.0026827365    61.938432    19005.029 
 7380000   -203659.95    1.6847938 -0.005088938    62.009495    19018.382 
 7385000    -203668.4    1.7077092 0.00077039221    61.983221    19031.735 
 7390000   -203852.57    1.6844405 -0.0010434187    61.916463    19045.065 
 7395000   -203674.55    1.6621903 0.00028415158    61.992547    19058.409 
 7400000   -203743.22    1.7137013 -0.0039842614    61.993381    19071.742 
 7405000   -203499.83    1.6738181 -0.004151957    62.089074    19085.109 
 7410000   -203571.59    1.7183535 -8.2159584e-05    62.027966    19098.414 
 7415000   -203623.47    1.7046474 0.0045280241    61.890081    19111.724 
 7420000    -203754.2    1.6899324 0.00011867698    61.931378    19125.132 
 7425000   -203734.01    1.7457968 -0.00091738081    61.982038    19138.473 
 7430000   -203635.66    1.7030655 -0.0015427074    61.949807     19151.84 
 7435000   -203773.46    1.7158889  0.001790624    61.880271    19165.233 
 7440000   -203725.72    1.6838042 -0.003011548     61.96765    19178.539 
 7445000   -203804.41    1.6767057 -0.0034254663    61.943048    19191.905 
 7450000   -203895.39    1.6839121 0.00093572902    61.916611    19205.262 
 7455000   -203658.14    1.7195922 0.0032182263    61.916515    19218.634 
 7460000   -203689.84    1.7272652 -0.0055858748     62.08538    19232.008 
 7465000   -203608.33    1.7063484 0.0010893903    61.937076    19245.377 
 7470000   -203648.03    1.6932473 -0.0060086868    62.058922    19258.739 
 7475000   -203589.28    1.7332716 -0.0020368583    62.042352    19272.102 
 7480000   -203482.29    1.7449078 0.00064249066    62.008629    19285.453 
 7485000   -203493.64    1.7111895 -0.00058750173    61.988745    19298.794 
 7490000   -203474.61    1.6671776 -0.00082576388    62.038315    19312.141 
 7495000   -203492.57    1.6844581 -0.0028192566    62.115562    19325.439 
 7500000   -203508.19    1.7064187 -0.0016979613    62.072782    19338.776 
 7505000   -203444.62    1.7315222  0.002492639    62.070825    19352.135 
 7510000   -203332.61    1.6726319 0.0029847682    62.050158    19365.444 
 7515000   -203558.12     1.688936 -0.00055982873    62.033971    19378.758 
 7520000   -203527.87    1.6217822 -0.0029769152    62.039144    19392.091 
 7525000   -203680.63    1.6973376 0.0001768581    61.961205    19405.411 
 7530000   -203575.09    1.6759275 0.0011227209    62.015682    19418.748 
 7535000   -203611.03    1.6999506 0.0027013055    61.996982    19432.081 
 7540000    -203735.5     1.663096 -0.0038787658    62.037642    19445.466 
 7545000   -203502.35    1.7015869 0.0060536947    62.022361    19458.838 
 7550000   -203551.87    1.7018047 0.0074961672     62.04662    19472.157 
 7555000   -203604.13    1.6719887 0.0015638649    62.077204    19485.478 
 7560000   -203613.32    1.6907689 -0.0039386926    62.069725    19498.833 
 7565000   -203512.59    1.7002609 0.0052492849    61.995512    19512.176 
 7570000   -203431.28     1.674565 0.0025688276     62.01133    19525.501 
 7575000   -203555.09     1.682762 0.0018197323    61.927266    19538.844 
 7580000   -203640.57    1.6780563 -0.0014768013    62.059066    19552.155 
 7585000   -203291.98     1.669706 0.00089738403    62.094424    19565.486 
 7590000   -203418.75    1.7500886  0.004130278    62.036885    19578.828 
 7595000    -203297.2    1.7252161 -0.0022793927    62.172315    19592.136 
 7600000   -203297.07    1.7232197 -0.0018079197    62.167051    19605.476 
 7605000   -203334.65    1.6702522  0.003627123    62.054744    19618.776 
 7610000   -203269.55    1.7146243 -0.0031399308    62.206982    19632.086 
 7615000   -203405.68    1.7351838 0.0054246485    62.038618    19645.419 
 7620000    -203211.3    1.7681147 -0.0037221736    62.307368    19658.728 
 7625000   -203389.49    1.7310881 -0.00079065837    62.222541    19672.067 
 7630000    -203402.2    1.7258749 -1.7765304e-05    62.243214    19685.351 
 7635000   -203114.09    1.6570936 -0.005778026    62.367063    19698.632 
 7640000   -203050.41    1.6977299 0.0012656386     62.25492    19711.901 
 7645000    -203071.8    1.6828857  0.001904231    62.270474    19725.157 
 7650000   -203196.23    1.6918292 -0.001465184    62.335917    19738.437 
 7655000   -203100.48    1.6685674 0.0016355872    62.331518    19751.723 
 7660000   -203119.89    1.7031186 0.0022830752     62.25646    19764.999 
 7665000   -203108.24     1.729454 -0.0059450497    62.396652     19778.24 
 7670000   -203146.38    1.6704699 0.0062308403    62.228001    19791.532 
 7675000   -203021.25    1.7157858 0.00041252411    62.396166    19804.819 
 7680000   -203222.81    1.6592955 -0.0019370048     62.36827    19818.073 
 7685000   -202828.18    1.6950707 -0.0019611626    62.452405    19831.344 
 7690000   -203113.27    1.7189047 0.00040594866    62.348826    19844.626 
 7695000   -202824.02    1.6959849 -0.0023095354    62.524234    19857.836 
 7700000   -202942.77    1.6824636 0.0026708841    62.418971    19871.071 
 7705000   -202908.57    1.6809073 -0.0027591188     62.42619     19884.34 
 7710000   -202772.77    1.6782197 -0.0026703594    62.458336    19897.571 
 7715000   -202941.15    1.6939261 0.0029021172    62.419211    19910.808 
 7720000   -202960.48    1.6303049 -0.0086182436    62.495548    19924.012 
 7725000   -202987.07    1.7266975 -0.0010850012    62.392255    19937.272 
 7730000   -202815.77    1.7264341 0.0043749231    62.429625    19950.504 
 7735000   -202898.71    1.7374947 -0.0016096746    62.471925    19963.743 
 7740000   -202812.01    1.6493334 -0.0020937045    62.467557    19976.961 
 7745000    -202937.1    1.7681124 0.0002783508    62.471344    19990.195 
 7750000   -202763.47    1.6346453 -0.0096778005    62.546379    20003.471 
 7755000   -202865.76    1.6988024 -1.1249322e-05    62.390629     20016.72 
 7760000   -203064.51    1.7213769 0.0053634026    62.197281     20029.99 
 7765000   -202964.19    1.6676459 -0.00033451961    62.299509    20043.209 
 7770000   -202934.35    1.7032161 0.0043133854    62.227483    20056.463 
 7775000   -203255.43    1.6804705 0.0020290729    62.131246    20069.742 
 7780000   -203115.07    1.6645756 0.0035272701    62.098288    20083.029 
 7785000   -202873.23    1.7071054  0.002737404    62.197815    20096.303 
 7790000   -203202.57    1.6835507 0.00077845453     62.18195    20109.592 
 7795000   -203365.06    1.7223984 0.0018780059    62.074544    20122.879 
 7800000   -203024.49    1.6940321 -0.007269183    62.342515    20136.147 
 7805000   -203082.24    1.6793272 0.0018842369    62.209436    20149.511 
 7810000   -203173.61    1.6846925 0.0012810501    62.167897    20162.811 
 7815000   -203244.57    1.6854618 0.00099752282    62.193091    20176.152 
 7820000      -203320    1.7391607 -0.0018859236    62.186619    20189.402 
 7825000   -203332.77    1.6019817 -0.0021456636    62.213608    20202.689 
 7830000   -203326.48     1.673789 0.0039476419    62.127745    20215.937 
 7835000   -203099.46    1.7008897 -0.0018131283     62.22616    20229.215 
 7840000   -203207.75    1.6626335 -0.00038071292    62.245559    20242.516 
 7845000   -203044.36    1.6566757 0.0012117057    62.259578    20255.804 
 7850000   -203112.18    1.7417071 -0.00053801189    62.307486    20269.076 
 7855000   -203039.21    1.7098351 0.0028880185    62.346988    20282.325 
 7860000   -202992.58    1.6825331 -0.0081421078    62.495181    20295.589 
 7865000   -203054.09    1.7460645 -0.0045234815     62.43956    20308.834 
 7870000   -203255.84    1.6729375 -0.0007567933    62.229925    20322.103 
 7875000   -203180.75     1.693665 0.0032120666    62.188543    20335.433 
 7880000   -203138.91    1.6854316 -0.0014609724    62.254603    20348.715 
 7885000   -203233.59    1.6644414 0.0030547764     62.16834    20362.035 
 7890000   -203291.68    1.6866164 -0.0018834449    62.262556    20375.353 
 7895000   -203185.53    1.6803677 -2.8655468e-05    62.215806    20388.647 
 7900000   -202967.33    1.7511241 0.0048767066    62.288477    20401.939 
 7905000    -203033.3    1.7446833 0.0031423389     62.32142    20415.204 
 7910000   -203332.35    1.6854989 -0.00096123954     62.23487    20428.443 
 7915000   -203104.49    1.7508072 -0.0038240336    62.256742    20441.711 
 7920000   -203285.87    1.6915406 -0.00064074615    62.208469    20454.973 
 7925000   -203278.48    1.7232241 0.0050075656    62.137171    20468.251 
 7930000   -203233.96    1.6731511 -0.0061302463    62.250482    20481.524 
 7935000   -202997.95    1.7291739 -0.0011279393    62.262501    20494.786 
 7940000   -203113.68    1.6972637 -0.00048238346    62.263861    20508.032 
 7945000   -203057.64    1.6652288 -0.0021726332    62.307663    20521.266 
 7950000    -203264.1    1.6907549 -0.0027081357     62.27073    20534.548 
 7955000   -203222.15    1.7140076 0.00078296959    62.236143    20547.835 
 7960000   -203142.67    1.6486044 -0.0035522804    62.320059    20561.164 
 7965000   -203228.68    1.7110329 -0.00029090975    62.176339     20574.48 
 7970000   -203080.61    1.6735347 -0.0035185547    62.344476    20587.726 
 7975000    -203207.7    1.6925705 -0.001230625    62.324023    20601.006 
 7980000   -203272.51    1.7231326 -0.00094365215    62.349264    20614.251 
 7985000   -202980.52    1.6828968 0.0016493429    62.375728     20627.49 
 7990000   -202922.85    1.6823392 0.00068632901    62.423572    20640.743 
 7995000   -202994.54    1.6822643 0.0010915517    62.342345    20654.011 
 8000000   -202943.17      1.67959 -0.0031317672     62.45832    20667.264 
 8005000   -203023.41    1.7132134 0.0014090745    62.393665     20680.55 
 8010000   -203155.28    1.6442938 -0.0056875024    62.442568    20693.863 
 8015000   -203118.68    1.7070859 -0.0038504953    62.369407    20707.145 
 8020000   -202964.72    1.6421732 -0.0010249488    62.359774    20720.452 
 8025000   -203016.51    1.7015951 0.0051865399    62.303292    20733.754 
 8030000   -203283.29    1.6609101 -0.0078080125    62.400676     20747.03 
 8035000   -203019.35    1.7168455 0.0025856638     62.27276     20760.31 
 8040000   -202932.68    1.7394586 0.0074174538    62.269025    20773.586 
 8045000   -203137.98    1.6950605 -0.0055966968      62.3456    20786.852 
 8050000   -203043.04    1.7081552 0.00050425011    62.315393    20800.168 
 8055000   -203111.65     1.664136 -0.0067793299    62.335658    20813.476 
 8060000   -203150.69    1.6893488 -0.00050959593     62.26899    20826.775 
 8065000      -203022    1.7029137 0.0010896415      62.2959    20840.047 
 8070000   -203142.86    1.7211624  -0.00259233    62.366104    20853.334 
 8075000   -202860.78    1.7193454 -0.0031335538    62.491648    20866.562 
 8080000   -202881.63    1.7118093 0.0043553783    62.407482     20879.83 
 8085000   -203019.35    1.7141562 0.0010184859    62.361216    20893.084 
 8090000   -203209.71    1.7164473 0.00057436012    62.368542    20906.297 
 8095000   -202955.67    1.6559923 -0.00055044676     62.44223    20919.522 
 8100000   -203143.06    1.6854093 -0.0017114303    62.365934    20932.755 
 8105000   -203138.59    1.6962348 -0.00083577899    62.291092    20946.044 
 8110000   -203131.76    1.7001245 -0.0028506182    62.274369    20959.343 
 8115000   -203086.87    1.6897461 0.0034419613    62.205129    20972.634 
 8120000   -203271.66    1.6984303 0.0026314176     62.20176    20985.883 
 8125000   -203480.73    1.6949641 0.0083179105    62.099172    20999.231 
 8130000   -203277.48    1.7528952 0.0033386852    62.190887    21012.534 
 8135000   -203538.11    1.7016046 0.0019453125    62.108099    21025.813 
 8140000   -203396.96    1.6905233 -0.0029827318    62.149344    21039.136 
 8145000   -203413.14    1.7142199 -0.0030335315    62.108835    21052.451 
 8150000   -203528.28     1.680572 -0.0057360063     62.11359    21065.794 
 8155000   -203348.21    1.7144414 -0.0017983511    62.139085    21079.115 
 8160000   -203308.47    1.7177554 -0.0052888382    62.183227    21092.439 
 8165000   -203244.43    1.6841728 0.0024235379    62.168274    21105.733 
 8170000   -203461.26    1.6987409 0.0046796217    62.076939    21119.056 
 8175000   -203556.04     1.737361 -0.0046875514    62.160908    21132.334 
 8180000   -203551.37    1.7565339 0.0061681653    62.016487    21145.621 
 8185000   -203452.29    1.7087602 -0.0054873991    62.200441    21158.917 
 8190000   -203694.48     1.671831 0.0043625432    61.965283    21172.266 
 8195000   -203465.88    1.6741633 0.0038509085    62.015102    21185.564 
 8200000   -203377.51    1.7080308 0.0011371033    62.107174    21198.856 
 8205000   -203599.03     1.674602 -0.0023278249    61.979792    21212.176 
 8210000   -203673.35     1.741972 -0.00099055747    62.017639    21225.476 
 8215000   -203703.36    1.7247934 0.0068194802    61.828474    21238.853 
 8220000   -203543.02     1.696161 -0.0015873587    62.020548    21252.209 
 8225000   -203933.94    1.6922394 -0.0038814483    61.973589    21265.551 
 8230000      -203873    1.6748881 0.0064361439    61.786733    21278.903 
 8235000   -203913.29    1.6791143 0.00031600259    61.884344    21292.308 
 8240000   -203775.61    1.6734862 0.0027314002    61.898582      21305.7 
 8245000   -203795.79    1.7133255 -0.0078412643    61.990015    21319.061 
 8250000   -203801.25    1.6499387  0.005840721    61.831858    21332.411 
 8255000   -203758.66    1.7129321 0.0037291784    61.890561     21345.76 
 8260000   -203641.81    1.7151855 -0.0045262607    62.000999    21359.097 
 8265000    -203800.3    1.6996824 -0.0054190976     61.99845    21372.425 
 8270000   -203875.55    1.6864085 -0.0034082646    61.936913    21385.774 
 8275000   -203894.83    1.6767174 -0.0049280421     61.93103    21399.143 
 8280000   -203970.77    1.6792036 0.0014787319    61.827402    21412.554 
 8285000   -203984.02    1.6810309 0.0027757773    61.772345    21425.912 
 8290000   -204036.15    1.7335236 -0.00086948571    61.831248    21439.302 
 8295000   -204102.94    1.7119972 -0.0034356579    61.821533    21452.659 
 8300000   -204081.14    1.6984524 -0.0025188624     61.81252    21466.036 
 8305000   -204061.61    1.6856739 0.0010770409    61.776799    21479.452 
 8310000   -203955.49    1.7379406 -0.00070899091    61.857994    21492.854 
 8315000   -203810.64    1.6556926 -0.0028532289    61.872269    21506.265 
 8320000   -203986.35    1.7079468 0.0036940082    61.763666    21519.645 
 8325000   -203798.76    1.6753308 -0.0029895756    61.916915    21533.008 
 8330000   -203973.58    1.6522495 -0.0027233199    61.868442    21546.402 
 8335000    -203859.6    1.6744981 -0.0017444403    61.919344    21559.765 
 8340000   -204084.56    1.6627359 -0.0017583851    61.858468     21573.15 
 8345000   -204016.12    1.7226206 -0.0045744729    61.937245    21586.503 
 8350000   -203688.24    1.6843115 0.00094863009     61.92961    21599.862 
 8355000   -203665.52    1.6962393 0.0019268739    61.998881    21613.223 
 8360000   -203433.52    1.6789522 -0.0068245445    62.179631    21626.562 
 8365000   -203332.17    1.6949001 0.00051285925    62.141262    21639.867 
 8370000   -203646.19    1.6957941 0.00011654385    62.032539    21653.125 
 8375000   -203432.32     1.680558 -0.0041416025    62.142773    21666.432 
 8380000   -203279.37    1.7259526 0.00089271812    62.045759    21679.769 
 8385000   -203277.37    1.7342197 -0.0024706848    62.169561    21693.078 
 8390000    -203336.3    1.7064878 0.0048337794    62.022576    21706.426 
 8395000   -203460.54    1.6910273 -0.0019587296    62.080732    21719.719 
 8400000   -203467.67    1.6615651 0.00050602505     62.03668    21733.047 
 8405000   -203336.16    1.7072073 -0.0028643805    62.078941     21746.41 
 8410000   -203679.03    1.7150553 0.00033577493    61.967296    21759.771 
 8415000    -203746.6    1.6675885 0.0012925803    61.922894     21773.11 
 8420000   -203618.54    1.6830984 3.9375468e-05    61.999348    21786.468 
 8425000    -203435.1    1.6605464 -0.0013360156    62.097806    21799.796 
 8430000   -203268.21     1.679269 0.0028652218    62.066985    21813.124 
 8435000   -203468.32    1.7034684 -0.00076158456    62.131327    21826.473 
 8440000    -203608.6    1.6771838 -0.0025328529    62.090185    21839.804 
 8445000   -203728.29    1.7342237 0.0035554068    61.997176    21853.139 
 8450000   -203704.14     1.715526 0.00081332126    61.923393    21866.522 
 8455000   -203722.62    1.7159605 0.0046461141    61.872601    21879.882 
 8460000   -203820.65    1.7051821 -0.00080846388    61.912115    21893.224 
 8465000    -203660.9    1.6831119 -0.001873839    61.988823    21906.569 
 8470000   -203613.57    1.7253866 -0.0030296602    62.051067    21919.909 
 8475000   -203534.53    1.6856599 0.0022545713    61.946926    21933.219 
 8480000   -203605.69    1.6844713 0.0023870201    61.931314    21946.545 
 8485000   -203671.43    1.7141452  0.003437331    61.884626    21959.867 
 8490000   -203700.06    1.7494705 -0.0022715404    61.991449    21973.202 
 8495000   -203716.41     1.664205 -0.0024387623    62.043566    21986.538 
 8500000   -203668.52    1.7370611 0.0025405762     61.98448    21999.843 
 8505000    -203640.2    1.7399972 0.0047575684    61.917345    22013.173 
 8510000   -203569.14    1.6774645 -0.0010429355    62.081671    22026.516 
 8515000   -203562.84    1.7140558 -0.0018942717    62.077919    22039.866 
 8520000   -203376.57    1.6870523 -0.0025148096     62.10644    22053.189 
 8525000   -203402.33    1.7063441 0.0018424071    62.181696    22066.473 
 8530000   -203476.77    1.7460854 0.0051200327    62.048415    22079.784 
 8535000   -203644.58    1.7421666 -0.0041972839    62.112459    22093.116 
 8540000   -203718.45    1.7156884 -0.0049060696    62.095612    22106.462 
 8545000    -203511.5    1.6948185 -0.0055267382    62.185175    22119.758 
 8550000   -203702.45     1.718523  0.000583615    62.093253    22133.066 
 8555000   -203890.56    1.6780296 -0.004451788    61.986031    22146.383 
 8560000   -203936.71    1.7057052 -0.0010685294     61.97835    22159.729 
 8565000   -203637.62    1.6909104 -0.004080796    62.105298    22173.091 
 8570000    -203772.3    1.6922006 -0.0051851374    62.043442    22186.423 
 8575000   -203748.08    1.7236731 0.00055663784    62.008134    22199.752 
 8580000   -203742.89    1.6702797 0.0016520233    61.941532    22213.047 
 8585000   -203925.59    1.6952085 -0.0033276767    61.940287    22226.392 
 8590000   -203997.84    1.7155681 -0.00082935558    61.894804    22239.804 
 8595000    -204094.8    1.7018277 0.0028588709    61.822531    22253.177 
 8600000   -204015.15    1.6750957 0.0036602931    61.806161     22266.54 
 8605000   -203944.12    1.7376321 -0.0032635667    61.879677    22279.951 
 8610000   -203987.17     1.702568 -0.0041730824    61.885515     22293.35 
 8615000   -203876.65    1.7155845  0.002404844    61.851301    22306.722 
 8620000   -203908.35    1.6872596 -0.0024910747    61.933388    22320.107 
 8625000    -204073.8    1.7151149 0.0060157514    61.753007    22333.489 
 8630000   -203997.53    1.6921895 -0.0020737856    61.805858    22346.855 
 8635000   -204031.07    1.6939165 -0.0045130323    61.875914    22360.242 
 8640000   -204151.92    1.7007627 0.0025385295    61.762065    22373.621 
 8645000   -204046.37    1.6780887 -0.002540801    61.896657    22386.958 
 8650000   -204106.76    1.7065612 0.0012531486    61.783336    22400.332 
 8655000   -203855.93    1.6751495 -0.0017380251    61.947631    22413.723 
 8660000   -203827.37    1.7219998 0.0011112468    61.902368    22427.104 
 8665000   -203805.44    1.6891503 -0.0036933667    61.958707    22440.477 
 8670000   -204067.15     1.680573 0.00085698869    61.808919    22453.857 
 8675000   -203900.15    1.7078698 -0.0010968607    61.908187    22467.259 
 8680000   -203972.37     1.663449  0.001104458     61.83803    22480.664 
 8685000   -203892.51    1.6512671  0.001470136     61.86466    22494.061 
 8690000   -203747.26    1.6976077 0.0033659805    61.944411     22507.42 
 8695000   -203971.66    1.6916876  0.004953928    61.838748    22520.743 
 8700000   -203979.75    1.6965447 -0.0039478265    61.872487    22534.103 
 8705000   -203944.01     1.687293 0.00036058274    61.868259    22547.472 
 8710000   -203811.45    1.6967184 -0.00024379751    61.956335    22560.802 
 8715000   -203712.06     1.689689 -0.0022522092     62.00907    22574.155 
 8720000   -203773.13    1.7082069 -0.0041614346     61.97764    22587.494 
 8725000   -203897.76    1.7355968 -0.00015290608    61.918185    22600.826 
 8730000   -203760.64    1.6475315 0.00025205591    61.940578    22614.173 
 8735000    -203705.1    1.6499038 -0.0019946002    61.981252    22627.521 
 8740000   -203673.75    1.6925794 0.0013596652    62.019899    22640.894 
 8745000   -203667.56    1.6961808 0.0040797217    61.917348    22654.217 
 8750000   -203633.05    1.7195198  0.006838642    62.013574     22667.59 
 8755000   -203531.23    1.6469532 -0.0060483099    62.189897    22680.905 
 8760000   -203634.36    1.6644681 -0.0025294308    62.076069    22694.187 
 8765000   -203592.54    1.6345436 0.0056310321    61.921412     22707.51 
 8770000   -203416.51    1.6931826  0.002210372    62.108438    22720.838 
 8775000    -203412.3    1.6893239 0.0033336027    62.107494    22734.152 
 8780000   -203471.55    1.6824314 -0.001559344    62.155855    22747.498 
 8785000   -203469.54    1.6794715 0.0088983592    62.049201    22760.808 
 8790000   -203383.04    1.6550936 -0.0067270207    62.225116    22774.103 
 8795000   -203243.74    1.6941071 -0.00012687572    62.255706    22787.349 
 8800000   -203384.06    1.7121903 0.0023299029    62.117924    22800.625 
 8805000   -203490.07    1.6646458 -0.006391399    62.185891    22813.919 
 8810000   -203587.24    1.7372517 0.0040937397    62.013408    22827.261 
 8815000   -203494.24     1.720945 -0.00081548009    62.046034    22840.596 
 8820000   -203386.85    1.6992654 0.00025771686    62.125261    22853.918 
 8825000   -203464.72     1.691971 -0.0022043699    62.139173    22867.233 
 8830000   -203678.84    1.7610604 -0.0017998451    62.130665    22880.502 
 8835000   -203709.77    1.7044289 -0.0035759971    62.035367    22893.869 
 8840000   -203509.62    1.7065929 -0.0015519396    62.121486    22907.198 
 8845000   -203759.51    1.7486064 0.00028627218    62.039691    22920.557 
 8850000   -203659.87    1.7282997 0.0059908327    61.949157    22933.878 
 8855000   -203831.47    1.7125095 -0.0041540267    61.971268    22947.218 
 8860000   -203695.63    1.6695619 -0.0036049431    61.967128    22960.563 
 8865000   -204078.14    1.6605801 0.00085757257    61.810766    22973.907 
 8870000   -204069.54    1.7205433 -0.0014614409    61.838595    22987.308 
 8875000      -204090    1.7065156 0.0028845139    61.719194    23000.703 
 8880000    -204129.3    1.7326171 -0.003474591    61.798322    23014.099 
 8885000   -203963.03    1.7433225 -0.0023983172    61.871399    23027.477 
 8890000    -204013.2    1.7279788 -0.0026578586    61.868999    23040.826 
 8895000   -204176.46     1.705973 0.0019163334     61.76306    23054.231 
 8900000   -203959.34    1.7407908 -0.00040847361    61.801869    23067.603 
 8905000   -203829.54    1.7051235 0.00061062479    61.782893    23080.999 
 8910000   -203961.06    1.6541535 -0.0033459355    61.882537    23094.374 
 8915000   -204221.19      1.69185 0.0056016533    61.734944     23107.78 
 8920000    -203983.5    1.6658869 0.0029112714    61.848773    23121.182 
 8925000   -203973.96    1.7152896 0.0032209196    61.835868     23134.51 
 8930000   -204030.16    1.7246273 -0.00012464912    61.839993    23147.874 
 8935000   -204087.81    1.7182515 0.0024342994    61.831762    23161.273 
 8940000   -204095.75    1.6455533 4.8612021e-07    61.833867    23174.698 
 8945000   -204158.24    1.6728896 0.0061479783    61.727755    23188.066 
 8950000    -204165.3     1.741653 -0.001226481    61.812298    23201.422 
 8955000   -203991.15    1.6509338 0.0027945245    61.837053    23214.826 
 8960000   -204140.54     1.699808 0.0061527447    61.751826    23228.183 
 8965000   -204009.49    1.6850485 -0.001445097    61.858893    23241.564 
 8970000   -204005.09    1.6818257 -0.0023256944    61.913335    23254.957 
 8975000   -203939.01    1.6885519 0.0036041704    61.917936    23268.281 
 8980000   -204012.16    1.7389624 0.0021857988    61.875015    23281.638 
 8985000   -204076.11    1.6586188 -0.0017788757    61.773247    23295.035 
 8990000   -204120.48    1.6837756 0.00032971662    61.725394    23308.412 
 8995000   -204097.64    1.6883974  0.003158853    61.790123    23321.799 
 9000000   -203851.39    1.7284085 -0.0037965696    61.926844    23335.189 
 9005000   -204053.12    1.7110803 0.0073683592    61.743244    23348.595 
 9010000    -204009.4    1.7096642 -0.0043195147    61.885472    23362.012 
 9015000   -204003.54    1.6822505 -0.0016483342    61.845798     23375.39 
 9020000   -204040.47     1.706455 0.00034321307    61.880937    23388.769 
 9025000   -204061.93    1.7051321 0.0031402174    61.805812    23402.131 
 9030000   -204103.87    1.7345151 0.0023749707    61.699781    23415.543 
 9035000    -203984.3    1.7560034 -0.0022644895    61.820893    23428.941 
 9040000   -204047.08    1.6973103 0.00020385758    61.811667    23442.344 
 9045000   -203965.69    1.6965231 0.0060017301    61.771914    23455.728 
 9050000   -204039.17    1.7017884 -0.0030335979    61.917462      23469.1 
 9055000   -204076.72     1.732588 -0.0019510968    61.882322    23482.496 
 9060000   -204135.32    1.7161289 -0.0040633674    61.880833    23495.884 
 9065000   -204086.86    1.6904913 -0.002079587    61.830026    23509.325 
 9070000   -204268.56    1.7484839 -0.0041972462    61.813692    23522.709 
 9075000   -204168.78    1.7108469 0.0015299561    61.799335    23536.087 
 9080000   -204169.57    1.6903703 -0.00065777879     61.79465    23549.463 
 9085000   -204124.02    1.7216134 0.0077037941    61.757349    23562.833 
 9090000   -204053.57    1.7566157 -0.00031917058    61.871974    23576.228 
 9095000   -204206.71    1.6999919 -0.00099292401    61.752482    23589.577 
 9100000   -203943.43    1.6709408 0.00024440149    61.876725     23602.99 
 9105000   -203982.89    1.7277723 -0.0029677056    61.890617    23616.354 
 9110000   -204034.81    1.6734884 -0.0042896655    61.907187    23629.722 
 9115000   -203773.42    1.7390831 0.0046370176    61.922295    23643.091 
 9120000   -203893.44    1.7012819 0.0038891062    61.946072    23656.422 
 9125000    -203774.1    1.6776201 0.0032576734    61.893678    23669.752 
 9130000   -203850.25     1.740851 -0.0052141304    61.974645    23683.055 
 9135000    -203813.3    1.6654706 -0.0017489017      61.9252    23696.425 
 9140000   -203822.35      1.67937 -0.0015235184    61.933359    23709.789 
 9145000   -203831.37    1.7405637 0.00029482906    61.879152    23723.134 
 9150000   -203775.77    1.6959351 -0.00059100286    61.991866    23736.531 
 9155000   -203669.84    1.7283335 0.00096357886    61.953633    23749.889 
 9160000   -203912.78    1.7226267 -0.0055282044    61.966263    23763.275 
 9165000      -203732    1.7590303 0.0057602093    61.876429     23776.58 
 9170000   -204003.05    1.6895548 -0.0031967359    61.836285    23789.924 
 9175000   -203925.41    1.6315631 0.0022830207    61.785812    23803.308 
 9180000   -203980.28    1.7176955 0.0015742501    61.864684    23816.687 
 9185000   -204077.41    1.7090244 -0.0010466278    61.794326    23830.054 
 9190000   -203992.38    1.7334228 0.0031281762    61.772674    23843.449 
 9195000   -203848.19    1.7443071 -0.00052814991    61.898909    23856.814 
 9200000   -203907.92    1.7011267 -0.0043675785    61.956873    23870.221 
 9205000   -203837.33    1.6851541 0.0003386397    61.921544    23883.588 
 9210000   -203960.33    1.7027772 -0.005581448    61.920356    23896.908 
 9215000   -203881.11    1.6763927 0.00081694873    61.872234     23910.29 
 9220000   -203953.87    1.7208592 -0.00071628916    61.921951    23923.701 
 9225000   -204015.89    1.7550531 0.0029134922    61.839622      23937.1 
 9230000   -203875.33    1.7094753 0.0056907315    61.846724    23950.504 
 9235000   -203987.71    1.6925891 0.00062875179    61.875069    23963.863 
 9240000    -204077.5    1.6616788 4.9429898e-05    61.832486    23977.256 
 9245000   -204244.67    1.7248252 0.00089520225    61.756587    23990.635 
 9250000   -204213.21    1.7326107 0.0039823832    61.724119    24004.069 
 9255000   -203804.89    1.6879798 -0.0017229653    61.898656     24017.41 
 9260000   -203813.67     1.695553 -0.010434073    61.981999    24030.806 
 9265000   -203802.79    1.7166698 -0.0019636013    61.915515    24044.216 
 9270000   -203701.61    1.6722732 -0.0048025348    61.988598    24057.598 
 9275000   -203692.34    1.7121791 -0.0013917489    61.932165    24071.001 
 9280000   -203680.21     1.693258 -0.0060418936    62.016149    24084.386 
 9285000   -203742.14    1.7374386 -0.0010307401    61.982408    24097.723 
 9290000    -203804.4    1.7026396   0.00243639    61.846351    24111.091 
 9295000   -204070.08    1.7115103 -0.0024672249    61.804451    24124.518 
 9300000   -204019.63    1.7178146 -0.0002270769    61.726312    24137.958 
 9305000   -203743.02    1.6989111 0.0036120441    61.798336    24151.354 
 9310000   -203845.46     1.698817 -0.0022830299     61.85356    24164.759 
 9315000   -203859.72    1.7177423 -0.0041096203    61.957138    24178.161 
 9320000   -203780.81    1.6946253 0.0047007053    61.947707    24191.505 
 9325000   -203653.68    1.6965303 -0.0016293381    62.003814    24204.829 
 9330000   -203630.26    1.7245995  0.002584612    61.934836    24218.161 
 9335000   -203865.39    1.6671704 -0.0044626221     61.86768    24231.519 
 9340000   -203862.63    1.6776448 0.0039016718    61.758448    24244.922 
 9345000    -203978.7    1.6760277 0.00087842287    61.755184    24258.318 
 9350000   -203723.39    1.6697316 -0.0012212794    61.845099    24271.657 
 9355000   -204061.08    1.6922353 0.00071223924    61.753995    24285.055 
 9360000   -203782.63    1.6332381 -0.0045286477    61.895575     24298.39 
 9365000   -203645.72    1.7064276 -0.00093452187     61.94224    24311.759 
 9370000   -203684.04    1.6931591 -0.0011247135    61.919547    24325.118 
 9375000   -203706.21    1.7110708 0.0036446895    61.856216    24338.423 
 9380000   -203680.86    1.6440973 0.0041365148      61.9273    24351.768 
 9385000   -203607.58    1.7151747 -0.0059114165    62.057214    24365.099 
 9390000    -203779.6    1.7070848 0.0011002272    61.836509    24378.475 
 9395000   -203481.54    1.6833554 -0.0024752596    62.057858    24391.797 
 9400000   -203514.26    1.6911717 -0.00040076903    62.019115    24405.128 
 9405000   -203400.16    1.6860341 -0.0063105521    62.132868    24418.447 
 9410000   -203529.75    1.7141515 0.0034126223    61.991768    24431.769 
 9415000   -203532.97    1.6900407 0.0063467323    61.892553    24445.098 
 9420000    -203345.7    1.6982635 -0.0065216351    62.206025    24458.389 
 9425000   -203544.25    1.7128214 0.00096515456    62.013754    24471.743 
 9430000   -203649.25    1.6467107 -0.010704173    62.092686    24485.065 
 9435000   -203739.12    1.7401303 0.0018599951    61.989644    24498.416 
 9440000   -203567.94    1.6876618 0.0071841443     61.93282    24511.793 
 9445000   -203508.99    1.7283831 0.0023832094    61.999483    24525.176 
 9450000   -203468.36    1.6597157 0.00089569794    62.023929    24538.497 
 9455000   -203673.42    1.6560384 -0.0018854894    62.011283    24551.852 
 9460000   -203615.62    1.7229518 0.0028680786    61.976105    24565.158 
 9465000   -203550.27    1.6674053 -0.00072633597    61.981863     24578.51 
 9470000   -203593.96    1.6722785 0.0027945589    61.873997    24591.851 
 9475000    -203629.3    1.6406534 -0.0016021196    61.990221    24605.199 
 9480000   -203504.75     1.717737 0.0048699722    61.969559    24618.526 
 9485000   -203502.99    1.7231805 -0.001497983    62.000774    24631.838 
 9490000   -203453.27    1.7147977 -0.0016331124    61.945144    24645.157 
 9495000   -203546.86    1.7104391 0.0030869858    62.011036     24658.48 
 9500000    -203422.2    1.6785004 0.0048859948    62.020269     24671.79 
 9505000   -203386.11    1.6723498  -0.01039453    62.236604    24685.143 
 9510000   -203333.37    1.7298825 -0.0037787706    62.232144    24698.466 
 9515000   -203593.91    1.6938368 0.0019817934    62.042774    24711.808 
 9520000   -203610.84    1.7327661 0.00040929335    62.145345    24725.159 
 9525000   -203490.38    1.7276628 0.0052447043    62.094046    24738.469 
 9530000   -203252.28    1.7271064 -0.0022771752    62.233351    24751.754 
 9535000   -203341.25    1.6593433 0.0022055708    62.085174    24765.075 
 9540000   -203342.97    1.6907751 0.00075769789    62.203573    24778.377 
 9545000   -203316.99    1.6821832 0.0037006147     62.20348    24791.626 
 9550000   -203316.05    1.7199529 -5.1079581e-05    62.250776    24804.913 
 9555000    -203259.9    1.7361344 0.00068469261    62.264291    24818.183 
 9560000   -203240.54     1.698843 -0.0015564408    62.304205    24831.478 
 9565000   -202957.55    1.6571373 -0.0036581714    62.373315     24844.72 
 9570000   -203343.25    1.7071104 0.0039635966    62.164157    24857.981 
 9575000   -203290.87    1.7082411 0.0019207614    62.177022    24871.235 
 9580000   -203490.34    1.6307057 -0.0048315109     62.14191    24884.515 
 9585000   -203525.93    1.6880686 -0.00027683415    62.101756    24897.789 
 9590000   -203494.17    1.7042751 -0.00041806053    62.118005    24911.134 
 9595000   -203422.24    1.7003087 0.0033037196     62.09907    24924.438 
 9600000   -203401.83    1.7043188 -0.0077888539    62.264104    24937.734 
 9605000    -203341.3    1.6787014 0.0062756084    62.085236    24951.014 
 9610000   -203534.93    1.7039576 0.0015907655    62.021986    24964.339 
 9615000   -203622.09    1.6820199 0.0049151496    61.938732    24977.657 
 9620000   -203598.75    1.6830751 -0.0071064384    62.099785    24991.009 
 9625000   -203917.14    1.6632145 0.00061807251    61.953959     25004.33 
 9630000   -203485.55    1.6924057 -0.0077901526    62.124495     25017.67 
 9635000   -204007.96    1.7224551 0.0069466372    61.768278    25031.004 
 9640000   -203798.42     1.699568 -0.002681965     61.88894    25044.349 
 9645000   -204031.36    1.7196606 -0.0011514372    61.817877     25057.71 
 9650000   -204034.85    1.7136667 -0.0020466235      61.8642    25071.079 
 9655000   -203904.93    1.6909409 -0.0044025521    61.930603    25084.458 
 9660000   -203906.94    1.7105333 -0.0011980847    61.817613    25097.825 
 9665000   -203812.09    1.7203814 -0.0032902626    61.846144    25111.232 
 9670000   -203751.93     1.708128 -0.0039772871     61.87097    25124.577 
 9675000   -203982.52    1.6861244 0.0041588906    61.727809    25137.957 
 9680000   -203807.03    1.6782634 -0.003226465     61.94881    25151.369 
 9685000   -203833.72     1.664241 -0.0041458501    61.946534    25164.729 
 9690000   -203996.01    1.6948029 -0.0014212213    61.813584    25178.148 
 9695000   -203938.12    1.7383209 0.0014937913    61.848867    25191.568 
 9700000   -203788.25    1.7064709 0.00021672828    61.876827    25204.958 
 9705000   -204069.82    1.6884811 -0.002408921    61.881123     25218.33 
 9710000   -203983.12    1.6728849 -0.0045498427    61.901361    25231.737 
 9715000   -203817.96    1.7023095 0.0031715062    61.840122    25245.112 
 9720000    -203589.3    1.7009418 -0.0023831542    62.045357    25258.442 
 9725000   -204001.14    1.6996986 -0.0024335401    61.937495    25271.801 
 9730000   -203755.02    1.6993082 0.0015360402     61.91419    25285.139 
 9735000   -203757.22    1.7181931 0.0035746991    61.957311    25298.535 
 9740000   -203511.42    1.6703068 -0.0018462424     62.07946     25311.87 
 9745000   -203822.96    1.6862617 -0.0015200637    61.986065    25325.218 
 9750000   -203830.58    1.6831931 -0.0059637135    62.009056    25338.578 
 9755000   -203613.68    1.7309152 0.0022450147    62.015327    25351.867 
 9760000   -203553.73    1.6966331 0.00089926484    62.072395    25365.168 
 9765000   -203488.02    1.6850468 -0.0050896024    62.144498    25378.494 
 9770000   -203584.36     1.772432 -0.0046003605    62.085044     25391.84 
 9775000   -203568.17    1.7402595 -0.00016262654    62.072047    25405.173 
 9780000   -203679.24    1.7227971 -0.0041147764    62.088161    25418.489 
 9785000   -203571.31    1.7197305 0.0082424424    61.916408    25431.816 
 9790000   -203429.32    1.6737517 0.0058678695     61.98273    25445.166 
 9795000   -203419.02    1.7195646 0.0023154791    62.135115    25458.485 
 9800000   -203592.88    1.7417173 -0.0018863768     62.14962    25471.794 
 9805000   -203506.98    1.7175949 -0.0028090559    62.104488     25485.13 
 9810000   -203432.23    1.6816752 -0.0052082916    62.154973    25498.456 
 9815000   -203522.65    1.6897704 -0.0024243748    62.129429    25511.775 
 9820000    -203270.8    1.6957433 -0.0031420501    62.178783    25525.075 
 9825000   -203373.97    1.7278338 -0.0010966066    62.188063     25538.34 
 9830000    -203260.7    1.6736785 0.0010414388    62.210636    25551.627 
 9835000   -203134.16    1.7174543 0.0006505337     62.18891    25564.902 
 9840000    -203426.7    1.6929065 0.0002569831    62.122418    25578.201 
 9845000   -203562.06    1.7414891 -0.00021836097     62.13152    25591.516 
 9850000   -203521.92    1.7423704 -0.0067975126    62.180472    25604.828 
 9855000   -203378.63    1.7438481 0.0024278957    62.116364    25618.177 
 9860000   -203167.35    1.7104832 -0.00076675612    62.243808    25631.437 
 9865000   -203394.92    1.6879456 -0.00045640219    62.245897    25644.722 
 9870000   -203259.26    1.7206226 0.0035231758    62.127886     25658.02 
 9875000   -203213.04    1.6965543 0.0037285624    62.178694    25671.323 
 9880000   -203666.62    1.7193912 0.00095855833    62.041625    25684.644 
 9885000   -203443.45    1.7123884 0.0019310973    62.087855    25697.931 
 9890000    -203629.2    1.6792498 -0.0011294051     62.02748    25711.243 
 9895000   -203296.39    1.6898619 -0.0053113295    62.241563    25724.604 
 9900000   -203432.27    1.6754679 0.0023105649    62.092079    25737.895 
 9905000   -203404.49    1.6522994 0.0039196779    62.070369    25751.201 
 9910000   -203607.59    1.7321807 -0.0043212918    62.110984    25764.558 
 9915000   -203577.39    1.6768631 -0.00050855824    62.053672     25777.89 
 9920000    -203559.1    1.6837546 -0.003312122    62.104101    25791.228 
 9925000   -203351.48    1.6792842 -0.00023777159    62.146271    25804.531 
 9930000    -203466.3    1.6839339 -0.00053174806    62.094628    25817.827 
 9935000   -203517.85    1.7332106 -0.00060085634    62.084212    25831.142 
 9940000   -203742.05     1.710637 0.0017933214    62.029093    25844.462 
 9945000   -203721.36    1.6421767 -0.0020062111     62.04022    25857.753 
 9950000   -203513.95    1.7219297  0.005805308    62.002668    25871.068 
 9955000   -203651.93    1.7101747 0.0021664184    62.005922    25884.416 
 9960000    -203530.8    1.7047836 0.0042205209    62.111649     25897.73 
 9965000   -203404.98    1.7169947 -0.00016739607    62.134956    25911.017 
 9970000   -203742.72    1.7262838 -0.00030653379    61.965848    25924.358 
 9975000   -203718.18    1.6759575 0.0035916283    61.941444    25937.696 
 9980000   -203800.99    1.6752369 -0.0012046851    61.991459    25951.014 
 9985000   -203704.56    1.7678448 -0.0034051085    62.008009    25964.332 
 9990000    -203698.7    1.7404746 -0.001956458    61.983815    25977.706 
 9995000   -203846.27    1.7173059  -0.00101328    61.951015    25991.048 
10000000   -203869.93    1.7157515 -0.0010337031    61.885801    26004.394 
10005000   -203870.72     1.662581 0.0009517302    61.842059    26017.801 
10010000   -203810.65    1.7208031 -0.0060499317    61.872926    26031.199 
10015000   -203820.75    1.7235428  0.010652178    61.745413    26044.606 
10020000   -204062.77    1.6921426 0.0013262367    61.809014     26058.02 
10025000   -203791.78    1.7236364 -0.0054543958    61.932943    26071.426 
10030000   -203943.77    1.6926923 -0.0025542881    61.956552    26084.785 
10035000    -203816.9    1.6728554 -0.0014872155    61.926024    26098.115 
10040000   -203975.52    1.7162092 -0.003114348    61.957218    26111.464 
10045000   -204049.17    1.6650643 0.00085626734    61.802383    26124.844 
10050000   -204108.42    1.7221033 0.0011851207    61.748525     26138.23 
10055000   -203740.11    1.7320622 -0.0022338623    61.975049    26151.638 
10060000   -203969.44    1.6694202 -0.0020442964    61.944059    26165.017 
10065000   -204142.34     1.693115  0.003420558    61.782197     26178.44 
10070000   -203935.52    1.7074982 0.0080291375    61.767132    26191.851 
10075000   -203933.51    1.6889502 0.00060624098    61.846155    26205.222 
10080000   -204012.87    1.6902577 0.0044898953    61.778953    26218.667 
10085000   -204149.01    1.7112963 0.0038042353    61.733947    26232.074 
10090000   -204066.49    1.7181078 -0.0034447261    61.869403    26245.452 
10095000    -203737.5    1.7142189 0.0011754347    61.926878    26258.826 
10100000   -204206.38     1.663117 -4.4741849e-05     61.79744    26272.187 
10105000   -204147.25    1.6539354  0.006185692    61.710056    26285.614 
10110000   -203954.89    1.7476223 -0.0015402671    61.907437    26299.008 
10115000   -203996.79    1.7056936 -0.0012753605    61.882061    26312.432 
10120000   -203756.91    1.6724548 -0.0030129209    61.951238    26325.803 
10125000   -203944.46    1.7163485 -0.0015852699    61.870578    26339.153 
10130000   -203896.47    1.6483644 -0.002011545    61.885326    26352.502 
10135000   -203861.83     1.716682 0.00041305037    61.892547    26365.868 
10140000   -204060.63    1.6499802 -0.0023232752    61.902827    26379.251 
10145000      -204064    1.6805342 -0.0075083385    61.962876    26392.608 
10150000   -203707.09    1.7187047 -0.0042881006     62.01423    26405.933 
10155000   -203886.52    1.7131744 -0.001923337    61.896009    26419.312 
10160000   -203823.43    1.7260995 0.0010343964     61.91778    26432.688 
10165000   -203905.14    1.6986578 0.0036064386    61.867333    26446.064 
10170000   -203885.33    1.7007659 -0.0015255801    61.909282    26459.475 
10175000   -203678.59    1.7037387 -0.00088631834    61.974555    26472.819 
10180000   -203822.44    1.7166239 0.0021510791    61.917673    26486.123 
10185000   -203764.42      1.65204 -0.0025761473    62.028925     26499.46 
10190000    -203496.2    1.6880824 0.0062939506    61.972683    26512.745 
10195000   -203803.13      1.68409 -0.0046798818    61.998875    26526.026 
10200000   -203773.89    1.6608431 -0.0024665433    61.944683    26539.348 
10205000   -203638.81    1.7758346 -0.0049657194    62.053687    26552.701 
10210000   -203621.91    1.6517455  0.006597953    61.900676    26566.056 
10215000   -203511.44    1.7189864 0.0014747929    61.970831    26579.423 
10220000   -203639.18    1.6988978 0.0020948054    61.970501    26592.755 
10225000    -203766.4    1.7197735 -0.0017660603    62.028012    26606.064 
10230000   -203765.37    1.7269645 -0.0039140287    62.003051    26619.453 
10235000   -203787.52    1.6914168 -0.0036170322    61.971425    26632.785 
10240000   -203762.21    1.6907709 0.00045139584    61.950353     26646.11 
10245000    -203885.2     1.702549 0.0020316781    61.881449    26659.493 
10250000   -203684.82    1.6815194 -0.0014107301    61.939864    26672.822 
Loop time of 26672.8 on 8 procs for 10000000 steps with 2304 atoms

Performance: 32392.523 tau/day, 374.913 timesteps/s
94.6% CPU use with 8 MPI tasks x 1 OpenMP threads

MPI task timing breakdown:
Section |  min time  |  avg time  |  max time  |%varavg| %total
---------------------------------------------------------------
Pair    | 4823       | 5352.8     | 5811.2     | 398.8 | 20.07
Bond    | 1.0838     | 1.1989     | 1.5631     |  13.3 |  0.00
Kspace  | 10824      | 10922      | 11030      |  86.5 | 40.95
Neigh   | 673.15     | 677.01     | 691.77     |  22.1 |  2.54
Comm    | 1133       | 1150.4     | 1170.3     |  34.9 |  4.31
Output  | 0.87537    | 0.90437    | 1.1037     |   7.9 |  0.00
Modify  | 6470.8     | 7838.1     | 8683.1     | 877.4 | 29.39
Other   |            | 730.4      |            |       |  2.74

Nlocal:        288.000 ave         294 max         281 min
Histogram: 1 0 0 2 0 1 2 1 0 1
Nghost:        6847.62 ave        6865 max        6830 min
Histogram: 1 2 0 0 1 1 0 0 2 1
Neighs:         0.00000 ave           0 max           0 min
Histogram: 8 0 0 0 0 0 0 0 0 0
FullNghs:      285704.0 ave      292107 max      278029 min
Histogram: 1 0 0 2 0 1 1 2 0 1

Total # of neighbors = 2285632
Ave neighs/atom = 992.02778
Ave special neighs/atom = 0.0000000
Neighbor list builds = 77639
Dangerous builds = 0

## ----- deletion for small NPs and salt ----- ##
#    reset_timestep 0

#    label checking

#    compute     peatom    all   pe/atom
#    variable    exppe    atom    exp(2*c_peatom/${ttemp})
#    compute     aveS    small   reduce ave v_exppe
#    compute     aveCl   anion   reduce ave v_exppe
#    compute     aveNa   cation  reduce ave v_exppe

#    fix AVE all ave/time 5 ${repeat} ${freq} c_aveS c_aveCl file average.dat
#    thermo 10000
#    thermo_style custom step pe c_press lx cpu
#    thermo_modify norm no flush yes
#    fix AVE all ave/time 1 ${repeat} ${freq} c_aveS c_aveCl c_aveNa
#    variable    chempNP equal ${ttemp}*(ln(v_numS/vol)+ln(v_numCl/vol)*25+ln(f_AVE[1])+ln(f_AVE[2])*25)
#    variable    chempS  equal ${ttemp}*(ln(v_numNa/vol)+ln(v_numCl/vol)+ln(f_AVE[2])+ln(f_AVE[3]))
#    timestep 0.0005
#    run ${freq}

#    print "done! ChempNP= ${chempNP}" append potential.dat
Total wall time: 7:45:22
