LAMMPS (27 Oct 2021)
OMP_NUM_THREADS environment is not set. Defaulting to 1 thread. (src/comm.cpp:98)
  using 1 OpenMP thread(s) per MPI task
package gpu 0
package gpu 2 neigh no pair/only on
#Lammps gcmc code for electrolytes

## ----- Simulation times ----- ##
    variable t_nve      equal 50000             #nve/limit
    variable t_deform 	equal 50000            #nvt
    variable t_pressed 	equal 50000            #nvt
    variable t_relaxed 	equal 100000            #nvt
    variable t_eq 	equal 10000000           #nvt

    variable smallc	equal 10
    variable bigc	equal -80
    variable numB	equal 256
    variable numS	equal ${numB}*8
    variable numS	equal 256*8
#    variable numCl	equal ${numS}*${smallc}+${bigc}*${numB}

## ----- Environment setting ----- ##
    boundary p p p
    atom_style full

## ----- System Variables  ----- ##
    variable    ttemp       equal   $b          	#reduced temperature
    variable    ttemp       equal   1.72          	
    variable    ppress      equal   0			#osmetic pressure
    variable    cutoff_pppm equal   27.8	        #cutoff for the real part of pppm
    variable	ipress      equal   0.1

    variable    bigd        equal   10                      #LJ sigmas
    variable    smalld      equal   2
#    variable    Cl_d        equal   0.4
    variable    d_bs        equal   0.5*(${bigd}+${smalld})
    variable    d_bs        equal   0.5*(10+${smalld})
    variable    d_bs        equal   0.5*(10+2)
#    variable    d_sNa       equal   0.5*(v_smalld+v_Na_d)
#    variable    d_sCl       equal   0.5*(v_smalld+v_Cl_d)
#    variable    d_bNa       equal   0.5*(v_bigd+v_Na_d)
#    variable    d_bCl       equal   0.5*(v_bigd+v_Cl_d)
#    variable    d_NaCl      equal   0.5*(v_Na_d+v_Cl_d)

    variable    cut_small   equal   ${smalld}*1.122462	    #cutoffs for LJ
    variable    cut_small   equal   2*1.122462	    
    variable    cut_big     equal   ${bigd}*1.122462
    variable    cut_big     equal   10*1.122462
#    variable    cut_Na_d    equal   ${Na_d}*1.122462
#    variable    cut_Cl_d    equal   ${Cl_d}*1.122462
    variable    cut_bs      equal   ${d_bs}*1.122462
    variable    cut_bs      equal   6*1.122462
#    variable    cut_bNa     equal   ${d_bNa}*1.122462
#    variable    cut_bCl     equal   ${d_bCl}*1.122462
#    variable    cut_sNa     equal   ${d_sNa}*1.122462
#    variable    cut_sCl     equal   ${d_sCl}*1.122462
#    variable    cut_NaCl    equal   ${d_NaCl}*1.122462

## ----- Initialization and grouping ----- ##
    read_data config_fcc8.dat
Reading data file ...
  orthogonal box = (-80.000000 -80.000000 -80.000000) to (80.000000 80.000000 80.000000)
  2 by 2 by 2 MPI processor grid
  reading atoms ...
  2304 atoms
Finding 1-2 1-3 1-4 neighbors ...
  special bond factors lj:    0        0        0       
  special bond factors coul:  0        0        0       
     0 = max # of 1-2 neighbors
     0 = max # of 1-3 neighbors
     0 = max # of 1-4 neighbors
     1 = max # of special neighbors
  special bonds CPU = 0.022 seconds
  read_data CPU = 0.029 seconds

    set type 1 charge   ${bigc}    	#large NPs
    set type 1 charge   -80    	
Setting atom values ...
  256 settings made for charge
    set type 2 charge   ${smallc}       #small NPs
    set type 2 charge   10       
Setting atom values ...
  2048 settings made for charge
#    set type 3 charge   1       #Na+
#    set type 3 charge   -1      #Cl-

    mass    *   0.2
    mass    1   25.0

    group big       type 1
256 atoms in group big
    group small     type 2
2048 atoms in group small
#    group cation    type 3
#    group anion     type 3

## ----- Interaction setting ----- ##
    pair_style lj/cut/coul/long ${cut_big} ${cutoff_pppm} #lj/cut/coul/long/soft 2.0 0.5 5.0 ${cut_small} ${cutoff_pppm}
    pair_style lj/cut/coul/long 11.22462 ${cutoff_pppm} 
    pair_style lj/cut/coul/long 11.22462 27.8 
    #Between regular particles (4*5/2=10)
    pair_coeff  1   1   2.0     ${bigd}     ${cut_big}	        # big-big
    pair_coeff  1   1   2.0     10     ${cut_big}	        
    pair_coeff  1   1   2.0     10     11.22462	        
    pair_coeff  2   2   2.0     ${smalld}   ${cut_small}	    # small-small
    pair_coeff  2   2   2.0     2   ${cut_small}	    
    pair_coeff  2   2   2.0     2   2.244924	    
#    pair_coeff  3   3   2.0     ${Na_d}     ${cut_Na_d}		    # Na-Na
#    pair_coeff  3   3   2.0     ${Cl_d}     ${cut_Cl_d}       	# Cl-Cl
    pair_coeff  1   2   2.0     ${d_bs}     ${cut_bs}	        # big-small
    pair_coeff  1   2   2.0     6     ${cut_bs}	        
    pair_coeff  1   2   2.0     6     6.734772	        
#    pair_coeff  1   3   2.0     ${d_bNa}    ${cut_bNa}	        # big-Na
#    pair_coeff  1   3   2.0     ${d_bCl}    ${cut_bCl}	        # big-Cl
#    pair_coeff  2   3   2.0     ${d_sNa}    ${cut_sNa}       	# small-Na
#    pair_coeff  2   3   2.0     ${d_sCl}    ${cut_sCl}       	# small-Cl
#    pair_coeff  3   4   2.0     ${d_NaCl}   ${cut_NaCl}       	# Na-Cl
#    pair_modify pair lj/cut/coul/long shift yes
    pair_modify shift yes
    kspace_style	pppm	5.0e-4

## ----- Simulation setup ----- ##
    neighbor 1.2 bin
    neigh_modify delay 0 every 1 check yes #one 2000

    compute temp all temp
    compute press all pressure temp

    thermo 5000
    thermo_style custom step pe temp c_press lx cpu
    thermo_modify norm no flush yes

   # dump moldump all custom 50000 ${xyzname} id type q x y z

## ----- Thermalization of system ----- ##
    timestep 0.0002

    fix 1 all nve/limit 0.05
    fix 2 big langevin ${ttemp} ${ttemp} 0.2 1234567
    fix 2 big langevin 1.72 ${ttemp} 0.2 1234567
    fix 2 big langevin 1.72 1.72 0.2 1234567
    fix 3 small langevin ${ttemp} ${ttemp} 0.008 123456
    fix 3 small langevin 1.72 ${ttemp} 0.008 123456
    fix 3 small langevin 1.72 1.72 0.008 123456

    fix freeze big setforce 0.0 0.0 0.0
    fix zeromom all momentum 1 linear 1 1 1 angular
    run ${t_nve}
    run 50000

CITE-CITE-CITE-CITE-CITE-CITE-CITE-CITE-CITE-CITE-CITE-CITE-CITE

Your simulation uses code contributions which should be cited:

- GPU package (short-range, long-range and three-body potentials):

@Article{Brown11,
 author = {W. M. Brown, P. Wang, S. J. Plimpton, A. N. Tharrington},
 title = {Implementing Molecular Dynamics on Hybrid High Performance Computers - Short Range Forces},
 journal = {Comp.~Phys.~Comm.},
 year =    2011,
 volume =  182,
 pages =   {898--911}
}

@Article{Brown12,
 author = {W. M. Brown, A. Kohlmeyer, S. J. Plimpton, A. N. Tharrington},
 title = {Implementing Molecular Dynamics on Hybrid High Performance Computers - Particle-Particle Particle-Mesh},
 journal = {Comp.~Phys.~Comm.},
 year =    2012,
 volume =  183,
 pages =   {449--459}
}

@Article{Brown13,
 author = {W. M. Brown, Y. Masako},
 title = {Implementing Molecular Dynamics on Hybrid High Performance Computers â€“ Three-Body Potentials},
 journal = {Comp.~Phys.~Comm.},
 year =    2013,
 volume =  184,
 pages =   {2785--2793}
}

@Article{Trung15,
 author = {T. D. Nguyen, S. J. Plimpton},
 title = {Accelerating dissipative particle dynamics simulations for soft matter systems},
 journal = {Comput.~Mater.~Sci.},
 year =    2015,
 volume =  100,
 pages =   {173--180}
}

@Article{Trung17,
 author = {T. D. Nguyen},
 title = {GPU-accelerated Tersoff potentials for massively parallel Molecular Dynamics simulations},
 journal = {Comp.~Phys.~Comm.},
 year =    2017,
 volume =  212,
 pages =   {113--122}
}

@Article{Nikolskiy19,
 author = {V. Nikolskiy, V. Stegailov},
 title = {GPU acceleration of four-site water models in LAMMPS},
 journal = {Proceeding of the International Conference on Parallel Computing (ParCo 2019), Prague, Czech Republic},
 year =    2019
}

CITE-CITE-CITE-CITE-CITE-CITE-CITE-CITE-CITE-CITE-CITE-CITE-CITE

PPPM initialization ...
  using 12-bit tables for long-range coulomb (src/kspace.cpp:340)
  G vector (1/distance) = 0.11438956
  grid = 60 60 60
  stencil order = 5
  estimated absolute RMS force accuracy = 0.00041211524
  estimated relative force accuracy = 0.00041211524
  using double precision KISS FFT
  3d grid and FFT values/proc = 42875 28800
  generated 0 of 1 mixed pair_coeff terms from geometric mixing rule
Neighbor list info ...
  update every 1 steps, delay 0 steps, check yes
  max neighbors/atom: 2000, page size: 100000
  master list distance cutoff = 29
  ghost atom cutoff = 29
  binsize = 14.5, bins = 12 12 12
  1 neighbor lists, perpetual/occasional/extra = 1 0 0
  (1) pair lj/cut/coul/long/gpu, perpetual
      attributes: full, newton off
      pair build: full/bin
      stencil: full/bin/3d
      bin: standard
Per MPI rank memory allocation (min/avg/max) = 11.45 | 11.54 | 11.62 Mbytes
Step PotEng Temp c_press Lx CPU 
       0 1.7992005e+08            0    175.78446          160            0 
    5000   -68472.825    1.5332472 -0.0043165513          160    39.053362 
   10000   -74011.163    1.6063667 -0.0043325176          160    77.997015 
   15000   -78500.881    1.5027646 -0.0044385969          160     116.9404 
   20000   -82838.697    1.5746151 -0.0044217045          160    155.77953 
   25000   -86631.222    1.5566823 -0.0044545115          160    194.68447 
   30000   -90379.916    1.5352824 -0.0045814369          160    233.64539 
   35000   -93635.927    1.5475846 -0.004333328          160    272.53334 
   40000   -96566.778    1.5564084 -0.0042268734          160    311.44003 
   45000   -99289.851    1.5757144 -0.0042688758          160    350.24551 
   50000   -101807.89    1.5075525 -0.0039859412          160     389.0917 
Loop time of 389.092 on 8 procs for 50000 steps with 2304 atoms

Performance: 2220.555 tau/day, 128.504 timesteps/s
99.7% CPU use with 8 MPI tasks x 1 OpenMP threads

MPI task timing breakdown:
Section |  min time  |  avg time  |  max time  |%varavg| %total
---------------------------------------------------------------
Pair    | 8.907      | 9.3077     | 9.6795     |  10.7 |  2.39
Bond    | 0.0069988  | 0.0084404  | 0.0094798  |   1.0 |  0.00
Kspace  | 372.88     | 373.68     | 374.39     |   2.7 | 96.04
Neigh   | 0.058584   | 0.066947   | 0.074999   |   2.1 |  0.02
Comm    | 2.327      | 2.7529     | 3.2272     |  16.9 |  0.71
Output  | 0.00035468 | 0.00059497 | 0.0022606  |   0.0 |  0.00
Modify  | 2.7102     | 2.7839     | 2.8529     |   2.5 |  0.72
Other   |            | 0.4939     |            |       |  0.13

Nlocal:        288.000 ave         313 max         260 min
Histogram: 2 0 0 0 1 2 1 0 0 2
Nghost:        1332.38 ave        1356 max        1300 min
Histogram: 1 1 0 0 1 0 2 0 2 1
Neighs:         0.00000 ave           0 max           0 min
Histogram: 8 0 0 0 0 0 0 0 0 0
FullNghs:      16554.5 ave       18909 max       14091 min
Histogram: 2 0 0 1 0 3 0 0 0 2

Total # of neighbors = 132436
Ave neighs/atom = 57.480903
Ave special neighs/atom = 0.0000000
Neighbor list builds = 72
Dangerous builds = 0

#    compute     peatom      all     pe/atom
#    variable    exppe       atom    exp(2*c_peatom/${ttemp})
#    compute     aveS        small   reduce ave v_exppe
#    compute     aveCl       anion   reduce ave v_exppe
#    compute     aveNa       cation  reduce ave v_exppe
#    thermo ${every}
#    thermo_style custom step pe temp lx vol c_aveS c_aveCl c_aveNa cpu
#    thermo_modify norm no flush yes
#    variable    chempNP     equal   temp*(ln(2304/vol)+ln(18300/vol)*10+ln(c_aveS)+ln(c_aveCl)*10)
#    variable    chempS      equal   temp*(ln(5500/vol)+ln(18300/vol)+ln(c_aveNa)+ln(c_aveCl))
#    label checking
#    run ${every}
#    if "${chempNP}>${mu_np}" then 'print "ChempNP=${chempNP}; expel"' "jump gcmc.in checking" else 'print "done!"'

    fix deforming all deform 10 x final -33 33 y final -33 33 z final -33 33 remap x
    run ${t_deform}
    run 50000
PPPM initialization ...
  using 12-bit tables for long-range coulomb (src/kspace.cpp:340)
  G vector (1/distance) = 0.11438956
  grid = 60 60 60
  stencil order = 5
  estimated absolute RMS force accuracy = 0.00041211524
  estimated relative force accuracy = 0.00041211524
  using double precision KISS FFT
  3d grid and FFT values/proc = 42875 28800
  generated 0 of 1 mixed pair_coeff terms from geometric mixing rule
Per MPI rank memory allocation (min/avg/max) = 11.45 | 11.54 | 11.62 Mbytes
Step PotEng Temp c_press Lx CPU 
   50000   -101807.89    1.5075525 -0.0039859412          160            0 
   55000   -107950.21    1.5946934 -0.0032802031        150.6    41.751307 
   60000   -114746.57    1.5413047 -0.0037074881        141.2    83.611524 
   65000   -122053.53    1.5308942 -0.0033920471        131.8    125.51548 
   70000   -129617.46    1.5299511 -0.0026563675        122.4    167.43287 
   75000   -137572.97    1.5429944 -0.0015888931          113    209.41515 
   80000    -146408.3    1.5431898  0.001087317        103.6    251.44769 
   85000   -155304.12    1.5067738  0.010617912         94.2    293.56652 
   90000   -163902.34    1.5772186   0.03351712         84.8    335.81406 
   95000   -172438.46    1.5929014  0.075020323         75.4    378.34011 
  100000   -181911.62    1.5553436   0.17797423           66    421.31422 
Loop time of 421.314 on 8 procs for 50000 steps with 2304 atoms

Performance: 2050.725 tau/day, 118.676 timesteps/s
99.6% CPU use with 8 MPI tasks x 1 OpenMP threads

MPI task timing breakdown:
Section |  min time  |  avg time  |  max time  |%varavg| %total
---------------------------------------------------------------
Pair    | 9.5791     | 10.01      | 10.412     |  10.8 |  2.38
Bond    | 0.0074268  | 0.0087903  | 0.0098169  |   0.7 |  0.00
Kspace  | 375.1      | 375.69     | 376.2      |   2.0 | 89.17
Neigh   | 0.7774     | 0.85224    | 0.93738    |   5.6 |  0.20
Comm    | 3.7551     | 4.1148     | 4.4628     |  12.1 |  0.98
Output  | 0.00039087 | 0.0045165  | 0.0115     |   5.3 |  0.00
Modify  | 25.235     | 28.027     | 30.004     |  30.5 |  6.65
Other   |            | 2.611      |            |       |  0.62

Nlocal:        288.000 ave         305 max         273 min
Histogram: 2 0 0 2 0 2 0 0 0 2
Nghost:        5844.62 ave        5874 max        5813 min
Histogram: 2 0 0 0 1 3 0 0 1 1
Neighs:         0.00000 ave           0 max           0 min
Histogram: 8 0 0 0 0 0 0 0 0 0
FullNghs:      234001.0 ave      249813 max      220992 min
Histogram: 2 0 0 2 1 1 0 0 0 2

Total # of neighbors = 1872008
Ave neighs/atom = 812.50347
Ave special neighs/atom = 0.0000000
Neighbor list builds = 334
Dangerous builds = 0

    unfix 1
#    unfix 2
    unfix freeze
    unfix deforming

    timestep 0.002

    fix 1 all   nph	            iso ${ipress} ${ipress} 1.0
    fix 1 all   nph	            iso 0.1 ${ipress} 1.0
    fix 1 all   nph	            iso 0.1 0.1 1.0
    run ${t_pressed}
    run 50000
PPPM initialization ...
  using 12-bit tables for long-range coulomb (src/kspace.cpp:340)
  G vector (1/distance) = 0.1206864
  grid = 32 32 32
  stencil order = 5
  estimated absolute RMS force accuracy = 0.00049681107
  estimated relative force accuracy = 0.00049681107
  using double precision KISS FFT
  3d grid and FFT values/proc = 9261 4096
  generated 0 of 1 mixed pair_coeff terms from geometric mixing rule
Per MPI rank memory allocation (min/avg/max) = 9.328 | 9.341 | 9.380 Mbytes
Step PotEng Temp c_press Lx CPU 
  100000   -181871.12    1.5553436   0.17961608           66            0 
  105000   -200462.92    1.7439532  0.095764292    61.961124    14.302428 
  110000   -202175.03    1.6874603  0.096308003    60.855616    28.828697 
  115000   -203445.84    1.6904811  0.098059766    60.326942    43.490003 
  120000   -203993.15    1.6975249   0.10656468    60.083687    58.249475 
  125000   -204643.58    1.7537177  0.093512368    60.059092    72.977591 
  130000   -204536.69    1.6721481   0.10014698    60.048374    87.740263 
  135000   -205001.32    1.7018285  0.095945358    60.041948    102.50958 
  140000    -204894.4    1.7028283  0.095483094    60.066249    117.25969 
  145000   -205111.44    1.7165727   0.10637255    59.899681    132.04918 
  150000   -205332.37    1.7236864   0.10121829    59.978064     146.8596 
Loop time of 146.86 on 8 procs for 50000 steps with 2304 atoms

Performance: 58831.631 tau/day, 340.461 timesteps/s
97.3% CPU use with 8 MPI tasks x 1 OpenMP threads

MPI task timing breakdown:
Section |  min time  |  avg time  |  max time  |%varavg| %total
---------------------------------------------------------------
Pair    | 14.748     | 17.992     | 20.817     |  43.8 | 12.25
Bond    | 0.0043799  | 0.0049636  | 0.0064017  |   1.0 |  0.00
Kspace  | 66.416     | 67.023     | 67.742     |   6.1 | 45.64
Neigh   | 6.4902     | 6.7099     | 7.0111     |   5.9 |  4.57
Comm    | 6.0301     | 6.1322     | 6.2456     |   2.7 |  4.18
Output  | 0.00031012 | 0.0004812  | 0.001659   |   0.0 |  0.00
Modify  | 44.14      | 45.63      | 47.69      |  14.6 | 31.07
Other   |            | 3.366      |            |       |  2.29

Nlocal:        288.000 ave         293 max         284 min
Histogram: 1 1 2 0 0 0 3 0 0 1
Nghost:        7264.62 ave        7281 max        7249 min
Histogram: 1 1 0 0 1 3 1 0 0 1
Neighs:         0.00000 ave           0 max           0 min
Histogram: 8 0 0 0 0 0 0 0 0 0
FullNghs:      314041.0 ave      319813 max      308689 min
Histogram: 1 1 1 1 0 0 2 1 0 1

Total # of neighbors = 2512328
Ave neighs/atom = 1090.4201
Ave special neighs/atom = 0.0000000
Neighbor list builds = 740
Dangerous builds = 0
    unfix 1
    fix 1 all   nph	            iso ${ipress} ${ppress} 1.0
    fix 1 all   nph	            iso 0.1 ${ppress} 1.0
    fix 1 all   nph	            iso 0.1 0 1.0
    run ${t_relaxed}
    run 100000
PPPM initialization ...
  using 12-bit tables for long-range coulomb (src/kspace.cpp:340)
  G vector (1/distance) = 0.12142227
  grid = 30 30 30
  stencil order = 5
  estimated absolute RMS force accuracy = 0.00049990786
  estimated relative force accuracy = 0.00049990786
  using double precision KISS FFT
  3d grid and FFT values/proc = 8000 3600
  generated 0 of 1 mixed pair_coeff terms from geometric mixing rule
Per MPI rank memory allocation (min/avg/max) = 9.769 | 9.797 | 9.808 Mbytes
Step PotEng Temp c_press Lx CPU 
  150000   -205332.24    1.7236864   0.10122355    59.978064            0 
  155000   -205359.08    1.7059431   0.08797679    60.116312    14.126888 
  160000   -205496.87    1.7317377   0.08955413    60.086687    28.266157 
  165000    -205390.5    1.7217519  0.075750559    60.256887    42.412533 
  170000   -205579.18    1.7681691  0.076319908    60.218853    56.618264 
  175000   -205557.48    1.7401467  0.071123745    60.324593    70.750095 
  180000   -205347.48    1.7123146  0.073296535    60.344621    84.841023 
  185000   -205215.69    1.6962468  0.061099742    60.533779     98.91333 
  190000   -205518.87    1.7124108  0.063728457    60.440263     113.0405 
  195000   -205513.96    1.7160976  0.058198614    60.456766    127.16638 
  200000      -205211    1.6619484  0.049791547    60.625572    141.28058 
  205000   -205259.39    1.7133246  0.046294323    60.673871    155.37367 
  210000   -205122.76    1.6383395  0.042771062     60.80406    169.45806 
  215000   -205275.74     1.762203   0.03274554    60.902026    183.44411 
  220000   -205089.17    1.7230802  0.032147714    60.992697    197.47036 
  225000   -204802.86    1.7703233   0.02890324     61.05867    211.49316 
  230000   -204818.67    1.7023706  0.024016016    61.143588    225.49339 
  235000   -204886.72    1.7113504  0.006485526    61.358354    239.51009 
  240000   -204687.12    1.6718784 0.0089847701    61.395504    253.45157 
  245000   -204488.52    1.7327583 0.0058767403    61.559324    267.39109 
  250000   -204047.54    1.7087083 -0.0049682277    61.865841    281.25556 
Loop time of 281.256 on 8 procs for 100000 steps with 2304 atoms

Performance: 61438.756 tau/day, 355.548 timesteps/s
94.1% CPU use with 8 MPI tasks x 1 OpenMP threads

MPI task timing breakdown:
Section |  min time  |  avg time  |  max time  |%varavg| %total
---------------------------------------------------------------
Pair    | 55.52      | 59.754     | 67.394     |  50.2 | 21.25
Bond    | 0.0084     | 0.010103   | 0.012943   |   1.6 |  0.00
Kspace  | 108.03     | 109.2      | 110.35     |   8.3 | 38.82
Neigh   | 13.366     | 13.58      | 13.89      |   4.3 |  4.83
Comm    | 12.08      | 12.31      | 12.504     |   3.8 |  4.38
Output  | 0.00062609 | 0.00098528 | 0.0034494  |   0.0 |  0.00
Modify  | 63.839     | 78.768     | 87.443     |  99.9 | 28.01
Other   |            | 7.637      |            |       |  2.72

Nlocal:        288.000 ave         291 max         284 min
Histogram: 1 0 2 0 0 2 0 0 1 2
Nghost:        6881.75 ave        6916 max        6855 min
Histogram: 2 1 0 1 1 1 0 0 1 1
Neighs:         0.00000 ave           0 max           0 min
Histogram: 8 0 0 0 0 0 0 0 0 0
FullNghs:      287179.0 ave      290419 max      282966 min
Histogram: 1 0 2 0 0 1 1 0 1 2

Total # of neighbors = 2297432
Ave neighs/atom = 997.14931
Ave special neighs/atom = 0.0000000
Neighbor list builds = 1498
Dangerous builds = 0
    unfix 1

    timestep 0.001
    dump moldump all custom 10000 ${xyzname} id type q x y z
    dump moldump all custom 10000 r8f0_coulombic_1.72.lammpstrj id type q x y z
    fix 1 all   nph                 iso ${ppress} ${ppress} 1.0
    fix 1 all   nph                 iso 0 ${ppress} 1.0
    fix 1 all   nph                 iso 0 0 1.0
    run ${t_eq}
    run 10000000
PPPM initialization ...
  using 12-bit tables for long-range coulomb (src/kspace.cpp:340)
  G vector (1/distance) = 0.12069244
  grid = 30 30 30
  stencil order = 5
  estimated absolute RMS force accuracy = 0.00054698155
  estimated relative force accuracy = 0.00054698155
  using double precision KISS FFT
  3d grid and FFT values/proc = 8000 3600
  generated 0 of 1 mixed pair_coeff terms from geometric mixing rule
Per MPI rank memory allocation (min/avg/max) = 11.03 | 11.06 | 11.07 Mbytes
Step PotEng Temp c_press Lx CPU 
  250000   -204047.59    1.7087083 -0.0049699949    61.865841            0 
  255000   -204111.75    1.7330609 0.0040147459     61.72898    13.429971 
  260000   -203945.24    1.7554362 0.0005605715    61.830372    26.888569 
  265000   -204018.65    1.7451682 0.00087852183    61.880889    40.338188 
  270000   -203953.97    1.6710564 0.00055517985    61.846795    53.760266 
  275000   -204078.15    1.7152158 -0.00052516739    61.747196    67.238275 
  280000    -203988.3    1.7238891 -0.0019017743    61.833709    80.709489 
  285000   -203855.88    1.7401513 0.00077338662    61.873936    94.163014 
  290000    -204113.3    1.7501386 -0.0049269051    61.834461    107.60837 
  295000    -203909.2    1.7324054 0.00079918141    61.835947    121.05299 
  300000   -204131.53    1.7448459 -0.0013272177    61.798651    134.49429 
  305000   -204012.24    1.6852497 -0.0025242433    61.849847     147.9314 
  310000   -203935.62    1.7061694 -2.209907e-05    61.805463    161.34749 
  315000    -203965.9     1.734577 -0.0048843531    61.892172    174.76631 
  320000   -204101.75    1.7302051 -0.001943171    61.789279    188.22915 
  325000   -203909.37    1.7032313 -0.0076286489    61.908613    201.66895 
  330000   -203875.53    1.6875997 -0.005848258     61.94636     215.1283 
  335000   -203965.82    1.7212595 0.0057473207    61.779092    228.61302 
  340000   -203795.66    1.7562873 0.0024033238    61.809714    242.05986 
  345000   -204092.03    1.7261217 0.0060445928    61.845104    255.49752 
  350000   -203502.86    1.7369046 0.0027077929    62.022217    268.91835 
  355000   -203792.24    1.7314442 0.0023851944    61.927152     282.3224 
  360000   -203442.12    1.7226599 0.0014787595    62.095495    295.71278 
  365000   -203705.54    1.7061873 0.0029696984    61.959237    309.09406 
  370000   -203125.77    1.7059852 -0.0040995982    62.180668    322.48748 
  375000   -203385.01    1.7731754 0.0017745548    62.066465    335.82279 
  380000   -203411.62    1.7323393 0.0076629769    62.045553     349.1496 
  385000   -203245.51    1.6952149 -0.004403341    62.214603    362.52477 
  390000   -203410.12    1.6954756 -0.0083956861    62.144495    375.87586 
  395000   -203329.39     1.741156 0.0033516146    62.035002      389.259 
  400000   -203787.52    1.6817765 0.0066331377    61.904277     402.6673 
  405000   -203477.76     1.660382 0.0050598207    62.031906    416.05093 
  410000    -203196.7    1.7575588 -3.0912942e-05    62.110637    429.41428 
  415000   -203369.97    1.6853517  0.001301656    62.124282    442.77234 
  420000   -203327.08    1.7316681 0.0021152065    62.094665    456.13926 
  425000   -203462.93    1.6697546 -0.0040771435    62.121864    469.49085 
  430000   -203429.46    1.7406951 0.00093670675    62.101817    482.84086 
  435000   -203284.69    1.7067481 -0.0037529954    62.252017    496.21133 
  440000   -203254.16    1.6804966 0.0001556297    62.205162    509.52706 
  445000   -203188.27    1.6886578 0.0024782001    62.177769    522.87827 
  450000   -203429.01    1.6745088 0.00072557193    62.128415    536.25476 
  455000   -203535.52    1.7500437 -0.0022158429    62.124704    549.64279 
  460000   -203437.77    1.6995136 -0.00013866094    62.152312    563.00462 
  465000    -203351.3     1.761408 0.0038891005    62.156576    576.35076 
  470000   -203304.01    1.7390559 0.0031155003    62.214705     589.6783 
  475000   -203132.92    1.7542721 0.00042171706    62.310403    603.00044 
  480000   -203216.92    1.6980335 -2.9903502e-05    62.188754    616.36826 
  485000   -203323.94    1.7105116  -0.00141155    62.154277    629.70387 
  490000   -203158.47    1.7212062 0.00077737254    62.115266    643.05536 
  495000   -203458.54    1.6849216 0.0023373244    62.099776    656.44513 
  500000   -203192.64    1.7219528  -0.00034363    62.183562    669.82368 
  505000   -203418.21    1.6823056 -0.0019111497    62.126578    683.17907 
  510000   -203297.38    1.7080249  0.010376174    62.069151     696.5572 
  515000   -203250.59    1.7272859 -0.0060823346    62.281619    709.91261 
  520000   -203099.66    1.7688258 -0.002364787    62.339039    723.28964 
  525000   -203154.61    1.7521862 0.0024264988     62.28405    736.62091 
  530000   -203175.32    1.6863267 0.0035977897    62.190419    749.95995 
  535000   -203169.37    1.7654949 -0.00065132122    62.226743    763.30398 
  540000   -203198.33     1.690935 -0.0031452647    62.288532    776.68049 
  545000   -203279.82    1.7085841  0.006061376    62.210341    790.02976 
  550000   -202913.09    1.7066186 -0.0026888864    62.314708      803.317 
  555000   -202913.14    1.7206767 0.0024706731    62.307954    816.63633 
  560000   -202959.75    1.7192169 -0.0034218786    62.429338      829.948 
  565000    -203100.9    1.7306662 -0.0007206204    62.299968    843.24619 
  570000   -203201.44    1.7153901  0.003001151    62.162836    856.61475 
  575000   -203372.31    1.6987766 -0.0029819122    62.172515     869.9837 
  580000   -203264.03    1.6782265 0.0027407717    62.163755    883.34526 
  585000   -203176.63    1.7161208 0.0011037039    62.241204    896.69558 
  590000   -203300.24    1.7182078 -0.0014689092    62.219243    910.05448 
  595000   -203443.45    1.7278567 0.0037906972    62.056779    923.44144 
  600000   -203581.13     1.678027 -0.0021556739    62.104768    936.82932 
  605000   -203726.55    1.6944724  0.005450645    61.992651    950.22574 
  610000   -203691.07    1.6801719 0.0053924497    61.992413    963.60108 
  615000   -203822.97    1.7374102 -0.0034995789    62.036805    977.01731 
  620000   -203527.22    1.7356952 -0.00098707775    62.066529    990.40118 
  625000   -203701.83     1.699778 0.00031968901    61.951463    1003.8059 
  630000   -203628.96    1.7376103 -9.3952148e-05    61.937327    1017.2228 
  635000   -203348.72    1.6439399 -0.001799675    62.007377    1030.6093 
  640000   -203426.36    1.6986212 -0.0060823684    62.170116    1044.0288 
  645000   -203348.18    1.7537992 0.00041288293    62.109715     1057.356 
  650000    -203324.5    1.7071777 -0.0015644572    62.234772    1070.7552 
  655000   -203184.87    1.7096712 -0.0021840658    62.231863    1084.0769 
  660000   -202854.89    1.7357646 0.00050941838    62.407057    1097.3983 
  665000   -203178.43    1.7090727 0.0012967733    62.221146    1110.6902 
  670000   -203205.57     1.734541 -0.0016961587    62.260359    1124.0406 
  675000   -203164.26    1.7070476 0.0032170928    62.225639     1137.368 
  680000   -203134.78    1.7024135 -0.0024527546    62.305304    1150.7182 
  685000   -203240.82    1.7043136 0.00022201133    62.272704    1164.0485 
  690000   -203141.74    1.7773324  0.003587804     62.27875     1177.395 
  695000   -203225.13    1.7052468 -0.0056021438    62.298359    1190.7496 
  700000   -203246.88    1.7408132 -0.0042822984    62.269556    1204.1146 
  705000   -202989.05    1.6757358 -0.0017994883    62.420618    1217.4151 
  710000   -202946.96    1.7329315 0.0021657112    62.379035    1230.7262 
  715000   -202962.62    1.7414604 -0.0050968261    62.434363    1244.0266 
  720000   -203051.24    1.7114135 -0.0013953618    62.397596    1257.3318 
  725000   -202965.85    1.7460474 0.00022731164    62.383623    1270.6298 
  730000   -202796.65    1.7214827 -0.00095687333    62.444383    1283.9631 
  735000   -202569.23    1.6986185 -0.00063061662    62.620459    1297.2183 
  740000   -202653.07    1.6875001 -0.00064639092    62.632434    1310.5074 
  745000   -202566.59    1.7504463 0.00058098694    62.681728     1323.742 
  750000   -202643.09    1.7033388 0.0044730625     62.55421    1336.9943 
  755000   -202715.98     1.750811 -0.00060389785    62.575448    1350.2242 
  760000   -202642.02     1.678929 0.0051644863    62.561817    1363.4595 
  765000   -202670.35    1.6999204 -0.0036195375     62.54143    1376.7258 
  770000   -202803.47    1.6967835 -0.0017362501    62.441657    1390.0308 
  775000   -202456.64    1.7150238 -0.0014822335    62.613473    1403.3112 
  780000   -202713.28       1.7309 -0.0044453039    62.670313    1416.5712 
  785000   -202462.66    1.6973945 -0.0043880751    62.763293      1429.82 
  790000   -202568.72    1.6975724 -0.0021431096    62.741058     1443.035 
  795000   -202496.93    1.6700109 -0.0026434071    62.830833    1456.2574 
  800000   -202277.38    1.6893295 6.1229656e-05    62.809144    1469.4242 
  805000    -202314.2    1.6774865 -0.0041749727     62.84774    1482.6616 
  810000    -202344.3     1.724955 -0.0052707619    62.918994    1495.9013 
  815000   -202481.72    1.6843698 -0.00024297743    62.740739    1509.1189 
  820000   -202296.22    1.7509149 -0.0013298612    62.870456    1522.3754 
  825000   -202517.98    1.7083618 -0.0055452961    62.786485    1535.6083 
  830000   -202491.22    1.7203277 0.00019572805    62.724888    1548.8224 
  835000   -202476.56     1.755828 -0.00060851937    62.710581    1562.0577 
  840000   -202513.08    1.7476415 -0.0017726026     62.75552     1575.291 
  845000   -202447.98    1.7414281 0.0034095877    62.633666    1588.5365 
  850000   -202378.03    1.7089184  0.005093305    62.627019    1601.7744 
  855000   -202504.77    1.6938808 0.00011533523    62.607841    1615.0441 
  860000   -202447.08    1.6493433 -0.00043475932    62.655076    1628.3084 
  865000   -202434.23     1.730045  0.002570662    62.609146    1641.5693 
  870000   -202446.59    1.7135846 -0.0059585114    62.733425    1654.8161 
  875000   -202402.21    1.7308339 -0.0043341349    62.741117    1668.0336 
  880000   -202464.63    1.7178847 -0.0051885126    62.760623    1681.3024 
  885000   -202598.56    1.6937628 0.0011186854    62.676237    1694.5279 
  890000   -202458.07    1.7669834 0.0050017435    62.710914    1707.7879 
  895000   -202412.72    1.7080862 -0.0038837604    62.814669    1721.0216 
  900000   -202453.47    1.7522968 0.00096773301    62.728908    1734.2692 
  905000   -202435.69    1.7523902 0.0016352056    62.746922    1747.4999 
  910000   -202480.93    1.6850253 -0.0011255883    62.704761    1760.7039 
  915000    -202298.7     1.678912 -0.0022510138    62.743832    1773.9587 
  920000   -202503.92    1.6823676 0.0013092673    62.619404    1787.1897 
  925000   -202666.07    1.7249521 0.0021305393    62.573491    1800.4325 
  930000   -202401.51    1.7217055 0.0040989835    62.623899     1813.664 
  935000   -202498.68    1.7123622 0.00080182221     62.73094     1826.918 
  940000   -202412.43    1.7774114 -0.0048017664     62.80293    1840.1554 
  945000   -202302.41    1.7061737 -0.0017170161    62.875102    1853.3918 
  950000    -202178.8    1.7307087 0.0025719676    62.776818    1866.6511 
  955000    -202371.7    1.7111438 0.0016463817    62.699135    1879.8904 
  960000   -202460.07    1.7075679 -0.0016598682    62.792518    1893.0924 
  965000   -202353.78    1.7658326 -0.0049435467    62.916088     1906.343 
  970000   -202284.53    1.7000618 0.0011956651    62.883021     1919.574 
  975000    -202172.7    1.7133544 0.0021638712    62.901844    1932.7882 
  980000   -202278.93    1.7401147 -0.0026726405    63.017738    1945.9854 
  985000   -202239.94     1.734951 0.00069154916    62.955443     1959.172 
  990000   -202047.88    1.6970766 -0.00076620802     63.08589    1972.3564 
  995000   -201974.51     1.754725 0.0009088415    63.164652    1985.5178 
 1000000   -201869.89    1.7242423 -0.00028897045    63.191506    1998.6671 
 1005000    -201911.1    1.7218988 0.0010971814    63.164982    2011.7878 
 1010000   -202000.33    1.6789189 -0.0020525317     63.18429    2024.9601 
 1015000   -202172.94    1.7495914 -0.0045370094    63.207448      2038.11 
 1020000   -201868.51    1.7364951 -0.0036174703    63.278692    2051.2394 
 1025000    -201875.8    1.7478753 -0.0024871265    63.339919    2064.4301 
 1030000   -201705.32    1.6989985 -0.0012272474    63.450626    2077.5684 
 1035000   -201820.12    1.6728813 0.0029366737    63.459661     2090.664 
 1040000   -201775.55    1.7458433 0.0015223463    63.460975    2103.7565 
 1045000   -201635.98     1.687281 -0.0062785276    63.704242    2116.8571 
 1050000   -201851.83    1.7091693 -0.0037271481    63.491227    2129.9583 
 1055000   -201831.27    1.7365368  0.004060909    63.400739    2143.0357 
 1060000   -201785.99    1.7144888 0.0033549629    63.454683    2156.1375 
 1065000   -201669.49    1.6487398 -0.0052328104    63.617865    2169.2482 
 1070000   -201793.64    1.6732368 0.0087232877    63.397332    2182.3582 
 1075000   -201723.46    1.7022318 0.0013528605     63.55965    2195.4634 
 1080000   -201414.73    1.7494842 -0.0018519412    63.669521    2208.5611 
 1085000   -201635.21    1.7256695 0.0027766082    63.475392    2221.6674 
 1090000   -201601.81    1.7527962 -0.0011849076    63.503256    2234.7918 
 1095000   -201761.47    1.6952896 0.00055630592    63.464408    2247.8576 
 1100000   -201672.56    1.6892586 0.0020574897    63.574855    2260.9808 
 1105000   -201665.42    1.7280192 -0.0020439892    63.634885    2274.0635 
 1110000   -201732.53    1.7381145 -0.00034418053    63.649606    2287.1388 
 1115000   -201533.11    1.7252744 0.0050267287    63.539359    2300.2118 
 1120000   -201601.15    1.7472277 -0.00045759225    63.739003    2313.3168 
 1125000   -201457.81    1.7250058 -0.0098262923    63.825932    2326.3594 
 1130000   -201475.81    1.6845214 -0.007074059    63.794118    2339.4183 
 1135000   -201596.28    1.7043342 -0.0050858543    63.671088    2352.5045 
 1140000   -201464.18    1.7029591 -0.0046217144    63.750295    2365.5984 
 1145000   -201529.06     1.725588 0.0054127483    63.647218    2378.6879 
 1150000   -201471.81    1.7228096 0.0043911128    63.706812     2391.742 
 1155000   -201318.72     1.740596 0.0038375547    63.823284    2404.7597 
 1160000    -201575.7    1.6826818 0.00065364538    63.860461     2417.778 
 1165000   -201382.33    1.7121977 -0.00028170071    63.960483    2430.8315 
 1170000    -201419.4    1.6992939 -0.0025231429    63.941041     2443.851 
 1175000   -201376.43    1.7480111 -0.0018653983     64.07206    2456.8761 
 1180000   -201501.74    1.7430671 0.0024210752    64.058274    2469.8585 
 1185000   -201349.44    1.6952601 0.0030719759    63.971545    2482.8767 
 1190000   -201324.49    1.7193508 0.0011326197    64.047379    2495.8658 
 1195000   -201379.33    1.7558569 -0.0025511745    64.197652    2508.8573 
 1200000   -201256.31    1.6808484 0.0012209028    64.142551    2521.8443 
 1205000   -201065.37    1.6874722 -0.0011985471    64.250068    2534.8274 
 1210000   -201184.53    1.7331016 -0.0011809495    64.278763    2547.8372 
 1215000   -201261.24    1.7378403 -0.00053782257    64.278321    2560.8223 
 1220000   -201164.23    1.7125207 -0.00070924537    64.310351    2573.7763 
 1225000   -201262.08    1.6945959 0.0035629503    64.284904    2586.7531 
 1230000   -201018.83    1.7026743 -0.00064129287    64.453565    2599.7543 
 1235000   -201128.77    1.6844987 -0.002050517    64.399304     2612.719 
 1240000   -200878.34    1.7100165 -0.0013589464    64.481735    2625.6736 
 1245000   -200911.29    1.7321765 0.0022749536    64.423974    2638.6259 
 1250000   -200960.06    1.7106515 0.00093348145    64.488728    2651.5352 
 1255000   -200880.27    1.7065559 -0.00070180362    64.591161    2664.4567 
 1260000   -200885.75     1.742548 0.0024924963    64.599237    2677.4016 
 1265000   -200965.11    1.7726024 0.0066736062    64.551368    2690.3165 
 1270000   -200876.81    1.7221484 0.0025743084    64.580563    2703.2664 
 1275000   -200977.08    1.7525417 4.6112708e-05    64.593279    2716.1643 
 1280000   -201164.81    1.7286698  0.004161601    64.478176    2729.0849 
 1285000    -201096.5    1.7414369 0.0014755347    64.595506    2741.9812 
 1290000   -200961.38    1.7238936 0.0021074554    64.687024    2754.8811 
 1295000   -201104.43    1.7164358 -0.0013255366    64.700458    2767.8088 
 1300000   -201184.64     1.736265 0.0017239188    64.698895    2780.7171 
 1305000   -201108.33    1.7264538 0.00077387981    64.687623    2793.5922 
 1310000   -201092.47     1.740309   0.00133603    64.773594     2806.534 
 1315000   -201088.15    1.7478393 0.00036581157     64.81337    2819.4203 
 1320000   -201124.24    1.7008653 -0.0019228392    64.817805     2832.308 
 1325000   -201057.39    1.7042046 0.0011208187    64.735202     2845.229 
 1330000   -201157.95    1.7706351   0.00166667    64.712636    2858.1112 
 1335000   -200995.79    1.7090866 -0.001737631     64.84333    2870.9995 
 1340000   -200860.11    1.7030325 0.0023215832     64.86498    2883.8752 
 1345000   -200986.43    1.7115445 -0.0056230806    65.073188    2896.7466 
 1350000   -200927.15    1.7722031 -0.0016802877     65.00451     2909.587 
 1355000   -200890.88    1.7476306 0.0017886724    64.946675    2922.4517 
 1360000   -201058.05    1.7195046 -6.9375993e-05    65.010146    2935.2763 
 1365000   -200870.94    1.7683528 0.00044680223    65.077137    2948.1458 
 1370000   -200739.75    1.6910098 -0.0034763288    65.112698    2960.9713 
 1375000   -200850.33     1.712493  -0.00373666    65.233583    2973.7921 
 1380000   -200891.93    1.6823525 -0.00027713753    65.131844    2986.6452 
 1385000   -200953.91    1.7372557 0.00060197831    65.152018    2999.4712 
 1390000   -200996.14    1.7266186 -0.002429604    65.207383    3012.2926 
 1395000    -200938.3    1.7114885 0.0021058298    65.078181     3025.119 
 1400000   -200748.39    1.7267491 0.0003396276     65.14576    3037.9761 
 1405000   -200826.45    1.6828969 -0.0013861119    65.218223    3050.7985 
 1410000   -200738.07    1.7254109 -0.00013465471    65.246742    3063.6423 
 1415000   -201054.68    1.7240049 -0.00013894881    65.145244    3076.4937 
 1420000   -200943.23    1.7119619 -0.006011815    65.315932    3089.3751 
 1425000   -200918.07    1.6562737 0.0032023413    65.150334    3102.2165 
 1430000    -200860.7    1.7308133 0.0036103559    65.162454    3115.0399 
 1435000   -201005.52    1.7027695 0.0035457505    65.165228    3127.8663 
 1440000   -200913.07    1.6918558 1.8987258e-05    65.192034    3140.7282 
 1445000    -201079.5      1.68427 -0.00033885582    65.199599    3153.5601 
 1450000   -200800.64    1.7038769 0.0013949254    65.167923    3166.3783 
 1455000   -200942.53    1.6868203 -0.0012921874    65.132764    3179.2556 
 1460000   -200942.58    1.7992005 0.0011228477    65.093518    3192.1293 
 1465000   -200865.02    1.7486057 -0.0029555771    65.243303    3204.9827 
 1470000   -200684.78     1.733886 -9.8145406e-06    65.296972    3217.8381 
 1475000   -200665.11    1.7232844 -0.0028502396    65.393983    3230.6569 
 1480000   -200737.93    1.6740895 0.00075696741    65.264384    3243.4727 
 1485000   -201014.55    1.6902531 -0.00083266654    65.139762    3256.3251 
 1490000   -201030.78    1.7097845 0.0018643804    65.012292    3269.1863 
 1495000   -200991.98    1.7721509 -0.0015550716    65.064062    3282.0098 
 1500000   -201000.59    1.7134045 0.0046196563    65.059772    3294.8687 
 1505000   -201082.13    1.6911538 0.0018412688    65.055718    3307.7301 
 1510000   -200823.38    1.7014146 -0.0019390911    65.103843    3320.6069 
 1515000   -200823.53    1.6672398 -0.0013176921    65.044823    3333.4311 
 1520000   -200888.44    1.7404518 0.0038307665     64.98391    3346.2922 
 1525000   -201110.53    1.7447537 0.0027497492    64.913061    3359.1193 
 1530000   -201037.29    1.7607989  0.008864501    64.898877    3372.0454 
 1535000   -200901.23    1.7273206 0.0024473992    65.017009    3384.8823 
 1540000   -201001.78    1.7662467 -0.0071320318    65.186675    3397.7536 
 1545000   -200978.37    1.7476102 0.0027921814    65.042391    3410.5964 
 1550000   -200983.91    1.7043271 -0.0088153625    65.300193    3423.4544 
 1555000   -200872.75    1.7484153 -0.0023756179    65.187229    3436.2941 
 1560000   -201033.71    1.6830576 -0.00023656425    65.081065    3449.1154 
 1565000   -200916.98    1.7432662 -0.0030656503    65.157856    3461.9655 
 1570000    -200837.8    1.7490173 0.0012922194    65.014797    3474.8117 
 1575000   -200943.04    1.7409016 0.0037765275    65.015398    3487.6449 
 1580000   -200841.81    1.7419201 -0.002332104    65.087485     3500.478 
 1585000    -200989.9    1.7804917 0.0039724906    65.013942    3513.3567 
 1590000   -200947.25    1.7227021 -0.0022275511    65.092228      3526.22 
 1595000   -200647.04     1.673785 -0.00033932363    65.185476    3539.0719 
 1600000   -200780.72    1.7497806 -0.00042793261    65.248735    3551.9088 
 1605000   -200730.11    1.7331855 0.0022739293    65.207397    3564.7245 
 1610000   -200878.61    1.7542465  -0.00516483    65.363849    3577.5869 
 1615000    -200972.6     1.691419 -0.0011809457    65.181571    3590.3891 
 1620000   -200894.56    1.6945845 -3.351783e-05    65.083292    3603.2714 
 1625000   -201016.87    1.7281582 0.0017554019    65.082816    3616.1129 
 1630000   -201000.65    1.7289917 0.0022617176    64.959967     3628.971 
 1635000   -200861.69    1.7015441 0.0010787194    65.008616    3641.8404 
 1640000   -200869.91    1.7840715 -0.0075560206    65.253425    3654.6656 
 1645000    -201159.3    1.6951736 0.0049271054    64.928038    3667.5274 
 1650000   -200777.93    1.6969775 -0.00012276335    65.063947    3680.3812 
 1655000   -200821.06    1.7206998 -0.0020778902    65.161122    3693.2018 
 1660000   -201045.69     1.744159 0.0020356721    65.074068    3706.0381 
 1665000   -200844.15    1.6822867 0.0010664755    65.247151    3718.8187 
 1670000   -200803.38    1.7034492 0.0015784215    65.084974    3731.6478 
 1675000   -200643.75    1.6903294 -0.0036060349    65.231438    3744.4469 
 1680000   -201101.37    1.7065507  0.003623369    65.053455    3757.2466 
 1685000   -200977.18    1.6872195 0.0017221109    65.122552    3770.0934 
 1690000    -201131.5    1.7394675 0.0012839293    65.043402    3782.9022 
 1695000   -200969.93    1.7188973 0.0011387396    65.071164    3795.7243 
 1700000   -200937.97    1.6883226 0.00041973574    64.997101    3808.5302 
 1705000   -201066.28    1.6534271 0.0025570758    64.963287    3821.3985 
 1710000   -200982.96    1.6656184 -0.00021775922    64.943016    3834.2356 
 1715000   -201013.79    1.7537538 0.00098167472    64.969543     3847.102 
 1720000   -201070.86    1.7477065 0.0016487401    64.891433    3859.9562 
 1725000   -201075.58    1.7001291 8.375868e-05     65.03237    3872.8178 
 1730000   -201024.72    1.6927689 0.0065875953    64.917271    3885.6686 
 1735000   -201015.19    1.7200827 0.0031744927    64.938964    3898.5522 
 1740000   -200910.46    1.7282031 -0.00082768085     64.98077    3911.4345 
 1745000   -200801.86    1.6544107  0.001084256    64.898559    3924.2571 
 1750000   -200872.16    1.7472585 -0.0050995984    65.041803    3937.1372 
 1755000   -200940.57    1.7075001 0.0017626709    64.964626    3949.9882 
 1760000   -201080.31    1.7464576 -0.0015329001    64.855641    3962.8668 
 1765000   -200934.57     1.706193 -0.00020649344    64.926435    3975.7729 
 1770000   -200963.83    1.6604137 3.9608092e-07    64.992062    3988.6174 
 1775000   -201079.41    1.7277256 0.0037530182    64.913185    4001.5013 
 1780000   -200900.54    1.6946321 0.0017077515     64.84838    4014.3742 
 1785000   -201193.53    1.7110189 0.0016423772    64.899602     4027.237 
 1790000   -200866.38    1.7367756 -0.0037554646      64.9762    4040.1089 
 1795000   -200930.33    1.7423001 0.00017883159     64.94912    4052.9474 
 1800000   -200957.74    1.7353031 0.0012634044    64.967138    4065.8372 
 1805000   -201023.38    1.6357843 -0.0015848799    64.979237    4078.7006 
 1810000   -200804.68    1.6942596 0.0019818308    65.046111    4091.5768 
 1815000   -200871.48    1.6639905 -0.0028727298    65.097291    4104.4088 
 1820000    -200843.7    1.7281368 -0.0013091277    65.106608    4117.2521 
 1825000   -200763.06    1.7151644 -0.0010329403    65.080722    4130.1085 
 1830000   -200954.75    1.7122922 -0.0013815793    64.950126    4142.9674 
 1835000   -200950.63    1.7385469 0.00037045163    64.976041    4155.8435 
 1840000   -200959.73    1.7279271 0.0029984047    64.944408    4168.7169 
 1845000   -201047.36    1.6959052 -0.0029363315    64.996411    4181.6054 
 1850000   -200941.88    1.6834639 0.0015620903    65.015689    4194.5166 
 1855000   -200960.76     1.706627 0.00079499072    65.037793    4207.3904 
 1860000   -200986.51    1.6825218 0.0011840208    65.041736    4220.2244 
 1865000   -200925.81    1.7359261 0.0023009719     65.04077    4233.0732 
 1870000   -201058.04    1.7387771 0.00022416805    65.081633    4245.9006 
 1875000   -201046.34    1.6962853 0.0041957379    64.999393    4258.7762 
 1880000   -200953.62    1.6967434 0.00048075865    65.107543    4271.6258 
 1885000   -200833.64    1.6988834 4.1677599e-05    65.104229    4284.4657 
 1890000   -200976.09    1.7612302 -0.0011296834    65.106505    4297.2796 
 1895000   -201029.85    1.6925389 -0.0021492329    65.158244    4310.1267 
 1900000   -200961.68    1.7025946 0.0020152412    65.143942    4322.9875 
 1905000   -200923.65    1.7175713 -0.0018103506    65.136862    4335.8342 
 1910000   -200977.17     1.680175 0.0016855972    65.158648    4348.6717 
 1915000   -200853.14    1.7063124 -0.003966917    65.310253    4361.4895 
 1920000   -200726.74     1.752369 -0.0019346655    65.375517    4374.3343 
 1925000   -200955.02    1.7351074 0.0032294748    65.236784    4387.1685 
 1930000   -200776.41    1.6671736 0.00068093742    65.240054    4399.9527 
 1935000   -200714.75    1.7030519 -0.0019408646    65.314715    4412.7703 
 1940000   -200871.89    1.7519422 0.0022544086    65.241099    4425.5964 
 1945000   -200836.38    1.7205981 0.0045787304    65.133083     4438.413 
 1950000   -200752.55    1.7405671 -0.0052791496    65.198001    4451.2771 
 1955000   -200874.24    1.7030873 -0.0047146961    65.178143    4464.1317 
 1960000   -200730.49    1.6857221 -0.0068627014    65.266801    4476.9865 
 1965000   -200881.76    1.7337747 0.0018781045    65.167106     4489.832 
 1970000   -200892.09     1.651243 -0.0018816838    65.236989     4502.672 
 1975000   -200842.49    1.7578053 0.0030479881    65.145527     4515.518 
 1980000   -200881.68    1.7351547 -0.0043068363    65.263954    4528.3306 
 1985000   -201011.62    1.7318197 0.0035018088    65.059192     4541.168 
 1990000   -200709.11    1.7146899 -0.0034095364    65.202762    4554.0005 
 1995000   -200877.79    1.7172302 0.0046856648    65.051113    4566.7877 
 2000000   -200870.79    1.7723267 0.0033667383    64.972425    4579.6708 
 2005000   -200947.16    1.7051176 -0.0013144806    65.060892    4592.5653 
 2010000   -200940.35    1.7138561 0.0026753953    65.074438    4605.4095 
 2015000   -200906.39    1.6692508 -0.0051718273    65.158001    4618.2478 
 2020000   -200765.76    1.7634393 -0.00079717399    65.194005    4631.0783 
 2025000   -200769.38    1.7079303 -0.0034612762    65.252607    4643.9006 
 2030000   -200850.92    1.7182159 -0.001711823    65.108673    4656.7655 
 2035000   -200922.34    1.6389852 -0.0013764651    65.110675    4669.5723 
 2040000   -201103.57    1.7193087 -0.0027132221    65.119606    4682.4177 
 2045000   -200955.04     1.708779 0.0018344125    65.101158    4695.2875 
 2050000   -201051.65    1.7229831 -0.0044475996    65.246833    4708.1293 
 2055000   -200920.14    1.6973952 0.0048882622    65.075753    4720.9612 
 2060000    -201186.7    1.7578042 0.00050291036    65.134726    4733.8118 
 2065000   -201165.78    1.7584136 -0.0001310476    65.103732    4746.6499 
 2070000   -200944.22    1.7085624 0.00035886044    65.171006    4759.5212 
 2075000   -200963.82    1.6771023 -0.0027441979    65.149483    4772.3514 
 2080000   -200961.55    1.7254412 -0.0012693434    65.105139    4785.1858 
 2085000   -200916.73    1.7266537 0.0031583121    65.038578    4798.0366 
 2090000   -201106.84     1.690282 -3.4822444e-05    64.966884    4810.8652 
 2095000   -201024.28    1.7087393 -0.00078512587    64.999478    4823.6657 
 2100000   -200843.43    1.7042829 0.0027801159    65.019773    4836.5115 
 2105000   -200953.38    1.7489144 -0.0019821071    65.090213    4849.3401 
 2110000   -201074.92    1.7205834 -0.0021389716    65.029981    4862.1823 
 2115000   -200945.73    1.7391624 -0.0011604872    65.134318    4875.0026 
 2120000   -200880.64    1.7579481 -0.00083244355    65.185409    4887.8097 
 2125000   -200650.11    1.6852918 -0.00067740192    65.304835    4900.5923 
 2130000   -200668.58    1.7253441 -0.00089567538      65.1752    4913.4313 
 2135000   -200844.16    1.7021653 0.0019521607    65.080394    4926.2968 
 2140000   -200983.18     1.731087 -0.0034128587    65.097579    4939.1758 
 2145000   -200847.56    1.7393451 0.0016520933     64.93839    4952.0237 
 2150000   -200876.83    1.7706397 0.0060435945    64.911578     4964.899 
 2155000   -200646.42    1.6485212 -0.0035563985    65.133014    4977.7727 
 2160000   -200890.82    1.7152049 -0.0018331654    65.129354    4990.6174 
 2165000   -200708.38    1.6926514 -0.00086644053    65.223927    5003.4677 
 2170000   -200687.24    1.7099501 0.0026296968    65.104672    5016.3627 
 2175000   -200660.34    1.6574579 -0.0024392444    65.198725    5029.1828 
 2180000   -200709.87    1.7131349 0.0013388785    65.159061    5042.0008 
 2185000   -200664.35    1.7463502 0.0005169207    65.170238    5054.8255 
 2190000   -200845.03    1.6810661 -0.0062140417    65.170325    5067.6898 
 2195000   -200755.87    1.6829401  0.002307035    65.101003    5080.5289 
 2200000   -200807.44    1.7336101 0.00093899921    65.218791    5093.3936 
 2205000   -200862.68    1.7078247 0.0022712192    65.086544     5106.238 
 2210000   -200753.14    1.7246138 -0.00064356514    65.146861     5119.064 
 2215000   -200919.78     1.742659 -0.0040526472    65.060229    5131.9193 
 2220000   -200943.92     1.733668 0.0028122725    65.049935    5144.7844 
 2225000   -200973.46    1.7114123 0.00027194453    65.081894    5157.6489 
 2230000   -201006.33    1.7135797 -0.0013880028    65.139322    5170.4636 
 2235000   -201030.49    1.7167777 -0.00052552981    65.114587    5183.2931 
 2240000   -200971.99    1.7080568 -0.0032680236    65.138402    5196.1746 
 2245000   -201053.21    1.7111029  0.002395375    65.013733    5208.9854 
 2250000   -201093.52     1.695186 -0.0018117317    65.013691    5221.8404 
 2255000   -200955.99    1.7518572 -0.00040257766    64.990869    5234.7553 
 2260000   -200917.09    1.7033794 0.0039923142    64.877814    5247.5915 
 2265000    -200827.6    1.6845273 -0.0036743478    65.106287    5260.4565 
 2270000   -200884.87    1.7516682 0.0034897841    65.012885    5273.3117 
 2275000   -200809.08    1.6515567 -0.0024932382    65.082514    5286.1471 
 2280000   -200903.17    1.7298908 0.0021281889    65.088598     5298.985 
 2285000   -200824.77    1.7568949 0.0020526124    65.091621    5311.8241 
 2290000   -200956.74    1.7386643 -0.0010266415    65.119969    5324.6584 
 2295000   -201011.26    1.7220374 0.0042634703    65.033461    5337.4688 
 2300000   -200876.64     1.742793 -0.0018287468    65.146093    5350.2725 
 2305000   -200976.59    1.7135934 -0.0023203378    65.152754    5363.1379 
 2310000   -200816.55    1.7025264 0.0036109164    65.000358    5375.9815 
 2315000   -200837.33    1.6629159 0.0038750834    64.932506    5388.7902 
 2320000   -200795.64    1.7290336 0.0016872653    65.009549    5401.6504 
 2325000   -200725.77    1.7070185 -0.00075769656    65.123262    5414.4954 
 2330000   -200896.67    1.7280607 0.0019074013    64.968112     5427.346 
 2335000    -200861.6    1.6995791 -0.0015875111    65.025921    5440.1769 
 2340000   -200876.35    1.7200511 -0.0017266709    65.114988    5453.0216 
 2345000   -200711.11    1.6891303 0.0013077025    65.247264    5465.8693 
 2350000   -200896.57     1.708843 -0.0012869799     65.19148    5478.6819 
 2355000   -200950.46    1.7278957 0.0014091521    65.137296    5491.4523 
 2360000   -201001.28    1.7057393 -0.0013272837    65.220127    5504.2508 
 2365000   -200897.99     1.764682 0.0036471832    65.123188    5517.0998 
 2370000   -200831.52    1.7055521 -0.003687547    65.237911    5529.9458 
 2375000   -200779.89    1.6887126 -0.0022474504    65.155552    5542.7235 
 2380000   -201031.91    1.6733422 0.0016354883    65.096273    5555.5638 
 2385000   -200887.78    1.7565533 0.0013131619    65.197451     5568.391 
 2390000   -200773.62     1.701957 -0.0033350396     65.33215    5581.2074 
 2395000   -200901.15    1.7168094 0.0032278695    65.254905    5594.0219 
 2400000   -200853.86    1.7354741 -0.0019275156    65.343018    5606.8568 
 2405000   -200774.96    1.7457452 -0.00064874004    65.270498    5619.6793 
 2410000   -200857.88    1.7141151 -0.0018709706    65.249286    5632.4929 
 2415000   -200895.22    1.7885285 0.0040625975    65.176425    5645.3266 
 2420000   -200915.37    1.7411726 -0.0006024779    65.242353    5658.1363 
 2425000   -201051.93    1.6886025 -0.00095691817    65.135182    5670.9092 
 2430000   -201044.27    1.7413817 0.0018468446    65.155034    5683.7387 
 2435000   -201108.23    1.7222073  0.003541912    65.078771    5696.5634 
 2440000   -201013.36    1.7746134 0.0069149197     65.08862    5709.4097 
 2445000   -201007.54    1.7108537 -0.0037222475     65.27575    5722.2505 
 2450000   -201047.69    1.7309664 -0.002900325    65.113299    5735.0872 
 2455000   -200990.92    1.7465933 0.0038134323    65.025357    5747.9423 
 2460000   -200859.23     1.706454 -0.0044076847    65.204292    5760.7824 
 2465000   -200856.62    1.6652656 -0.00087603955    65.069891    5773.6661 
 2470000   -200963.88    1.6620667 0.00035118006    65.145994    5786.5409 
 2475000   -200887.25    1.6947822 -0.0014658655    65.213096    5799.4038 
 2480000   -201044.36    1.6891409 0.00024511724     65.21643    5812.2177 
 2485000   -201034.53    1.7459478  0.001212939    65.113293    5825.0203 
 2490000   -200896.11    1.7311672 0.00067436055    65.164629    5837.8782 
 2495000   -200936.25    1.7522571 0.0042944256    65.118577    5850.6825 
 2500000   -201074.23    1.6997966 -0.0032503282    65.178648    5863.5537 
 2505000   -201042.87     1.710951 -0.00058382275    65.025684    5876.4054 
 2510000   -200863.19    1.7115847 -0.0039496265    65.193184     5889.239 
 2515000   -200972.69    1.7603496 0.00061313272    65.138964    5902.0914 
 2520000   -200776.81     1.742482 0.0010436464    65.183893    5914.9269 
 2525000   -200791.09    1.7185775 -0.0022677435    65.141342    5927.7427 
 2530000   -200694.39    1.6753272 0.0020262038    65.106997    5940.5907 
 2535000    -200865.1    1.7280535 0.0017051048    65.123811    5953.4465 
 2540000   -200826.86    1.7447041 -0.00097293632    65.098808    5966.2964 
 2545000   -201071.94    1.7553238 -0.0041466735    64.983334    5979.1274 
 2550000   -200876.78    1.7622039 -0.0011535588    64.977761    5991.9753 
 2555000   -200963.54    1.6595865 -0.00022046459    64.934117    6004.8179 
 2560000   -201115.87    1.7031007 -0.0010780962     64.94226    6017.6652 
 2565000   -200914.54    1.7058043 0.0035162849    64.833687    6030.5477 
 2570000   -201019.73    1.7295043 -0.0007221737    64.915957    6043.4242 
 2575000    -200907.6    1.7322297 0.0049385245    64.821391    6056.2894 
 2580000   -200908.49    1.7103359 -0.0021975143    65.046381     6069.159 
 2585000   -200951.84    1.6695557 -0.0064199516     65.13087    6082.0551 
 2590000   -201006.32    1.7202612 -0.00093685107     65.02929    6094.9347 
 2595000   -200784.77    1.7347009 -0.0080899776    65.085453    6107.7854 
 2600000   -200864.55    1.6815817 -0.0016121771    65.047121    6120.6434 
 2605000   -201014.33    1.6953424 0.0019835187    64.976395    6133.5447 
 2610000   -200667.87    1.6994275 -0.0047941036    65.195415    6146.3742 
 2615000   -200710.52    1.6860693 -0.00021808309     65.06437    6159.2703 
 2620000   -200786.69    1.7244327 -0.0052708988    65.150987    6172.1205 
 2625000   -200777.88    1.7326925 0.0029757197    65.025857     6184.978 
 2630000   -200759.65    1.7107562  0.001749703    65.124017    6197.8324 
 2635000   -200861.97    1.7356824 -0.0023202233    65.191439    6210.6351 
 2640000   -200852.07    1.7036827 0.00098958333    65.224981    6223.4851 
 2645000   -200969.77    1.7244414 0.0031316869    64.969241    6236.3169 
 2650000   -201111.76    1.6846228 6.6744099e-05    65.004068    6249.1691 
 2655000   -200951.64    1.7386308 0.0043383629    65.043221    6262.0688 
 2660000   -200951.76      1.72006 0.00030202856    65.188742     6274.914 
 2665000   -200836.68    1.6869096 -0.0018783887      65.0804    6287.7873 
 2670000   -200873.05    1.7022722 0.00078364209    65.081622    6300.6621 
 2675000   -200870.93    1.6657697 -0.00076106499    65.194342    6313.4876 
 2680000   -200714.43    1.6827698 -0.00096320914    65.203748    6326.3195 
 2685000   -200926.11    1.7752883 -0.0010021532    65.180287    6339.1788 
 2690000   -200788.54    1.7509872 -0.0026144811    65.183503    6352.0232 
 2695000   -201133.65    1.6711976 -0.0023197616    64.992155    6364.8543 
 2700000   -200807.66    1.7176957 -0.0013482996    65.111668    6377.7195 
 2705000   -200939.77     1.679092 0.0033721082     64.97624    6390.5581 
 2710000   -200858.74    1.7426038 -8.1681444e-05    65.057438    6403.4136 
 2715000   -200827.27    1.7091267 0.0032878847    65.073948    6416.2302 
 2720000   -200875.72    1.7353851    0.0014878    65.222727    6429.0681 
 2725000   -200821.12    1.7183209 -0.0017345452     65.26193    6441.8929 
 2730000   -200832.62    1.7704816 -0.00041602918    65.233778     6454.722 
 2735000   -200749.73     1.732934 -0.00039983385    65.238664    6467.5579 
 2740000   -200884.32    1.7442139 0.0016642914    65.188653    6480.3516 
 2745000   -200756.43    1.7341253 0.0054028874    65.215095    6493.2128 
 2750000   -200805.02     1.710288  0.001561967    65.264225    6506.0289 
 2755000   -200778.94    1.7801965 -0.0022652921    65.211079    6518.8548 
 2760000   -200823.93    1.7451049 -0.0031549987    65.195825    6531.6804 
 2765000   -200889.21    1.7343089 0.00094403522    65.131551    6544.5055 
 2770000   -200986.95    1.7397804 -0.0012342171    65.173987      6557.32 
 2775000   -200936.24    1.6805394 0.0016714277    65.197482    6570.1638 
 2780000   -200983.46    1.7040107 0.0046340567    65.061054    6583.0078 
 2785000   -200997.83    1.7042153 -0.0016913059    65.157611    6595.8605 
 2790000   -201102.57    1.6560388 0.0032451823    65.074417    6608.6966 
 2795000   -200943.29    1.7362512 -0.0050323512    65.173634    6621.5615 
 2800000   -200944.54    1.7378309 -0.0020545244    65.165151     6634.386 
 2805000   -200859.12     1.724962 -0.0033361471     65.27745    6647.1732 
 2810000   -201055.28    1.6762859 -0.0034803728    65.204917    6660.0137 
 2815000   -201005.11     1.733216 -0.00069020882    65.208467    6672.8549 
 2820000   -200933.26    1.7197745 -0.003635128    65.192971    6685.6734 
 2825000   -200952.26    1.6949306 -0.0011576227     65.15372    6698.5017 
 2830000   -200952.07    1.7536982 -0.0023122635    65.294005    6711.3009 
 2835000   -201012.39    1.6959394 0.0062566428    65.091614    6724.1155 
 2840000    -200837.2    1.7769822 -0.0011627349    65.201168    6736.9696 
 2845000   -200819.07    1.7362955 -0.0016839269      65.2299    6749.8179 
 2850000   -200658.26    1.7017416 0.0012259444    65.216594    6762.6647 
 2855000   -200892.11     1.680201 -0.0025954352    65.178358    6775.5112 
 2860000   -200852.99    1.7406061 0.0032739987    65.073614    6788.3835 
 2865000   -201033.73    1.7291414 -0.0034931108    65.166962    6801.2111 
 2870000   -201173.05    1.6685894 -0.0047936026    65.144915    6814.0347 
 2875000   -200918.85     1.695794 0.0021994998      65.1503    6826.8672 
 2880000   -200826.25    1.6749852 0.0062186233    65.159021    6839.6861 
 2885000   -200795.41    1.6953194 -0.00025267903     65.28471    6852.4896 
 2890000   -200524.92    1.7219099 -0.0039573958    65.375458    6865.2977 
 2895000   -200844.26    1.7062206 -0.0056347677    65.311266    6878.1017 
 2900000    -200920.6    1.6799584 0.0076916204    65.068744    6890.9304 
 2905000   -200891.46    1.7654922  0.001783534    65.228347    6903.7378 
 2910000   -200948.52    1.6758346 0.00091133829    65.206212    6916.5295 
 2915000   -200935.04    1.7715142 0.00034287163    65.348496    6929.3309 
 2920000   -201117.12    1.7587278    0.0015931    65.225555    6942.1599 
 2925000   -200924.09    1.7314055 0.0033471431    65.288076    6954.9955 
 2930000   -200571.12    1.7151483 -0.000793292     65.40163    6967.7743 
 2935000   -200889.05    1.7224041 -0.0041572516    65.300346     6980.589 
 2940000   -200800.64    1.6827572 0.0038626936     65.16334    6993.4236 
 2945000   -200991.26     1.720626 0.0014337523    65.142011    7006.2261 
 2950000   -200812.55     1.712023 -0.0018904139    65.300837    7019.0612 
 2955000   -200808.57    1.7291743 0.00091093412    65.263649    7031.8727 
 2960000   -200724.72    1.7249874 0.0013693396    65.271233    7044.7092 
 2965000   -201000.15     1.776872 -0.0045571727    65.356246    7057.5399 
 2970000   -200918.77    1.7357778 -0.00027217789    65.226388    7070.3443 
 2975000   -200752.19    1.7282956 -0.0036710914    65.315451    7083.1656 
 2980000   -200836.85    1.7283033 0.0020216035    65.193302    7096.0077 
 2985000   -200869.84    1.7212018 0.0010260165     65.29105    7108.8807 
 2990000   -200884.65    1.7346026 0.00022286791    65.221061    7121.7224 
 2995000   -200875.21    1.6876601 -0.00014431054    65.203812    7134.5332 
 3000000   -200964.09    1.7445316 -0.00074884244    65.248117     7147.373 
 3005000    -200777.5    1.7232628 0.0022466702    65.169258    7160.2103 
 3010000   -201147.39    1.6778291 -0.0029955161    65.143281      7173.03 
 3015000   -200881.19     1.675464 0.00040120928    65.197447    7185.8563 
 3020000   -200885.83    1.7310707 -0.0020208521     65.29635    7198.7095 
 3025000   -201013.64    1.7505402 -0.0012650297    65.238152    7211.5209 
 3030000   -200856.51    1.7433494 0.0016158478    65.232489    7224.3762 
 3035000   -200850.86    1.7381119 0.0058079729    65.154375    7237.2101 
 3040000   -200766.76    1.6692481 -0.0026167187    65.401952    7250.0269 
 3045000   -200936.68    1.6623672 -0.0011102319    65.306683    7262.8339 
 3050000   -200926.18    1.7349788 -0.0050266907    65.453974    7275.6394 
 3055000   -200810.11    1.6856309 0.0021755313    65.326465    7288.4425 
 3060000   -200775.73    1.6762403 0.00088365141    65.319269    7301.2613 
 3065000   -200867.65    1.6769304 -0.0011611205    65.356616    7314.0756 
 3070000   -200951.73    1.7522288 0.00058449332    65.265516    7326.8937 
 3075000   -200658.09    1.7261498 0.0034092718    65.293467    7339.6894 
 3080000    -200889.5    1.7327862 0.0015689531    65.288003    7352.5249 
 3085000   -200850.64     1.726541 -0.0018026245    65.298707    7365.3156 
 3090000   -200883.71    1.7202402 0.00062482473    65.244352    7378.1315 
 3095000   -200901.99     1.746781 -0.00093327923    65.260962    7390.9296 
 3100000   -200800.22     1.685464 -0.00011817116     65.22771    7403.7357 
 3105000   -200928.57     1.661728 0.00030485437    65.236338    7416.5328 
 3110000   -200812.03    1.7131776 -0.0005535742     65.23452    7429.3587 
 3115000    -200802.8    1.7014378 -0.0027034559    65.259442    7442.2067 
 3120000   -200964.32    1.6786399 0.0012913357    65.167392    7455.0757 
 3125000   -200952.31    1.6905869 -0.0037615554    65.173383    7467.9495 
 3130000   -200968.02    1.6893828 0.0044191973    65.092833    7480.7885 
 3135000   -200850.96    1.6645618 0.00017339222    65.213285    7493.6239 
 3140000   -201006.07    1.7096536 0.0011565354    65.151042    7506.4627 
 3145000    -200825.3    1.7201713 0.0024731794     65.25939     7519.295 
 3150000   -200854.32    1.7158229 0.0051910444    65.124144    7532.1331 
 3155000   -201026.43    1.7397683 -0.00092194631    65.268364    7544.9269 
 3160000   -200800.53    1.6919084 0.0044326216    65.205276    7557.7139 
 3165000   -200852.03    1.7139555 -0.0057157251    65.471517    7570.5172 
 3170000   -200881.81    1.7469295 -0.00034330952    65.300618     7583.293 
 3175000   -200703.39    1.7477162 -0.004158859    65.359122    7596.1146 
 3180000   -200871.69    1.7346533 0.0028137601    65.174688    7608.9306 
 3185000    -200956.7    1.7166238 0.0030209512    65.199645    7621.7702 
 3190000   -200871.98    1.7024232 -0.0027747098    65.291701    7634.6033 
 3195000   -201063.82    1.6571669 -0.0081751708    65.437075    7647.4075 
 3200000    -201014.8    1.7118757 -0.0035673293    65.335956    7660.2212 
 3205000   -200850.08    1.7431211 0.0014765525    65.268584    7672.9963 
 3210000   -201024.34     1.714735 0.0029895222    65.189145    7685.7967 
 3215000   -200807.63    1.6874298 -0.00082826364    65.328249    7698.6074 
 3220000   -200770.17     1.739655 0.0019498082    65.316091     7711.449 
 3225000   -200810.54    1.7083431 0.0021120721    65.236251    7724.2347 
 3230000   -200912.91    1.7173315 -0.0013796229    65.293798    7737.0492 
 3235000   -200872.56    1.7174538 -0.0010386926    65.352274    7749.8226 
 3240000   -200844.03     1.785651 -0.00093266267     65.33742    7762.6459 
 3245000   -200980.19    1.7822989 0.00013319453    65.279696    7775.4506 
 3250000   -200745.22    1.7134506 0.0005761191    65.307072    7788.2625 
 3255000    -200755.4    1.6870724 -0.0075473596     65.42496    7801.0638 
 3260000   -200773.66    1.6937135 0.0011885606    65.288795    7813.9084 
 3265000   -200781.58    1.7226117 -0.002749056    65.434109    7826.7348 
 3270000   -200831.82    1.6856538 -0.0012743531    65.299373     7839.571 
 3275000   -200830.68    1.7154724 0.0027433528    65.199418    7852.4069 
 3280000   -200767.06    1.7519231 -0.0038835329    65.317167    7865.2061 
 3285000   -200801.13     1.731567 0.0035306301     65.16364    7877.9983 
 3290000   -200678.46    1.7215266 0.0011328534    65.273755    7890.8243 
 3295000   -200901.29    1.6966132 -0.0023025868    65.269579    7903.6589 
 3300000   -200865.67     1.663897 0.00092657207    65.294281    7916.4536 
 3305000   -200949.34    1.7273681 -0.0026923421    65.306329    7929.2515 
 3310000   -200900.34    1.7561836 0.0025172051    65.297016    7942.1138 
 3315000   -200962.48    1.7024871 -0.00013992823    65.334703    7954.8827 
 3320000   -200870.97    1.7138201  -0.00502493     65.51334    7967.6721 
 3325000   -200896.89    1.7824935 -0.0021775615    65.386962    7980.4737 
 3330000   -200923.01    1.7068276 0.00075469835    65.274803    7993.2884 
 3335000   -200972.83    1.6649116 0.0026410894    65.150294    8006.0871 
 3340000   -200943.41    1.6845542 -0.0013390623    65.221494    8018.9217 
 3345000   -200862.58    1.6865245 0.0017755716    65.184005    8031.7458 
 3350000   -200843.18    1.7492809 -0.0040182147    65.237456    8044.5702 
 3355000   -201168.66    1.7063396 0.0033901021    65.040477     8057.388 
 3360000   -200861.93    1.7393893 0.0030560305     65.05719    8070.1787 
 3365000   -200917.23    1.7077802 -0.0032765663    65.060866    8083.0118 
 3370000   -201139.62    1.7317311 0.0023908387    64.920659    8095.8555 
 3375000   -200951.19     1.767715 0.0011873038     64.96239    8108.6981 
 3380000   -200850.89    1.6895566 0.00040412218    65.135592     8121.565 
 3385000   -200988.95     1.735137 0.00039854001    65.023909    8134.4204 
 3390000   -200886.26    1.6882975 -0.0024131131    65.107168    8147.2829 
 3395000   -200832.59    1.7656926 -0.00017527055    65.068413    8160.1318 
 3400000   -200670.98    1.6945694 -0.0029893207    65.129811    8172.9697 
 3405000   -200845.36    1.7053887  0.001097975    65.075589    8185.8109 
 3410000   -200950.11    1.7348687 -0.0017130337    65.166043    8198.6312 
 3415000   -201063.07    1.7145174 -0.0037108784    65.200236    8211.4686 
 3420000   -201086.62    1.7411924 -0.00019620877     65.07083    8224.3368 
 3425000   -200847.91    1.7081402 0.0013339258    65.136761    8237.1997 
 3430000   -200751.78    1.7555494 -0.0006031098    65.126436    8250.0312 
 3435000   -200568.33    1.7438724 -0.0013890667    65.216376    8262.8773 
 3440000   -200880.43     1.744276 -0.0014739634    65.176565    8275.7048 
 3445000   -200825.82    1.6760846 -0.0023758365    65.221294    8288.5014 
 3450000   -200947.15    1.6956502 0.00024340174      65.0725    8301.3262 
 3455000   -200859.13    1.7533136 -0.0014758756    65.247793    8314.1559 
 3460000   -200909.42    1.7743353 -0.0020661289    65.106782    8326.9471 
 3465000   -200996.33    1.7167448 0.0049034861     65.02942    8339.7507 
 3470000   -200977.51     1.740414 -0.0014502209    65.076745    8352.6161 
 3475000   -200779.07    1.7167058 -0.0012517509    65.041963     8365.476 
 3480000      -200787    1.7062918 0.0018343241    64.960912    8378.3473 
 3485000   -200673.44    1.6820577 -0.00082857445    65.125835    8391.1867 
 3490000   -200815.35    1.7330053 0.0012558708    65.127357    8404.0241 
 3495000   -200760.02    1.7300358 -0.0011411279    65.125568    8416.8648 
 3500000   -200883.94    1.7091501 -0.0026898011    65.330702    8429.6844 
 3505000   -200807.44    1.6637817 -0.0028887409    65.142428     8442.466 
 3510000   -200888.14    1.7183718 0.0034860948    65.120419    8455.3125 
 3515000   -200873.01    1.7324707 0.0015371509    65.174896     8468.152 
 3520000   -201107.66    1.7035429 -0.00025560176    65.285363    8480.9792 
 3525000   -200944.13    1.7804758 -0.0013022089     65.37031    8493.7812 
 3530000   -200953.63    1.7257209 0.0012350191    65.167169    8506.5768 
 3535000   -200903.15    1.7332182 -0.0017293643    65.249371    8519.3928 
 3540000   -200847.02    1.6992008 -0.0031117466    65.218541    8532.2302 
 3545000   -200695.28    1.7156495 -0.00075540509     65.16936    8545.0511 
 3550000   -200895.75    1.8120511 -0.0004512152    65.152878    8557.8749 
 3555000   -200905.72    1.7427885 0.0053576413    64.994585    8570.7021 
 3560000   -200934.96    1.7154499 0.0012305595    65.040032    8583.5561 
 3565000   -200716.21    1.7539412 -0.0035227824    65.127124    8596.4014 
 3570000   -200857.77    1.7268081 0.0072973527    64.935381    8609.2391 
 3575000   -201214.41    1.7192446 -0.0037518794    64.999097    8622.1079 
 3580000   -200903.34    1.7051413 -0.0044373591    65.088516    8634.9733 
 3585000   -200960.67    1.7035474 0.0045202307    65.008959    8647.7987 
 3590000   -200980.16    1.7575508 0.00034731266     65.11903    8660.6425 
 3595000   -200858.93    1.7293136 -0.0015879319    65.202863    8673.4661 
 3600000   -200828.69    1.7006993 0.00097927059    65.067094    8686.2631 
 3605000   -200774.74    1.7492762 -0.0044933109    65.251639     8699.062 
 3610000   -200870.49    1.7336911 0.0021028265    65.116859    8711.9143 
 3615000   -200807.02    1.6638663 0.0010652458    65.154232    8724.7154 
 3620000   -200732.08    1.6965126 0.00075406086    65.216063    8737.5392 
 3625000   -200828.81    1.7328956 0.0011097625    65.246337    8750.3987 
 3630000   -201028.78    1.7453886 -0.005186249    65.283744    8763.2224 
 3635000   -200861.77    1.7114748 -0.001024249    65.214457    8776.0279 
 3640000   -200929.64    1.7046022 -0.00029056873    65.117886    8788.8208 
 3645000   -200887.58    1.7212813 -0.0049341128    65.212797    8801.6285 
 3650000   -201030.96    1.7251794 0.0043177315    65.046931    8814.4781 
 3655000   -200987.73    1.7438478 -0.002358508     65.20063    8827.3277 
 3660000   -200890.58    1.7177187 0.0011596865    65.203222    8840.1307 
 3665000    -200839.1    1.7689035 -0.0018243616    65.156144    8852.9648 
 3670000    -200874.4    1.6977526 -0.00071783547    65.187869    8865.7699 
 3675000   -200738.43     1.712073 -0.00075680133    65.207456    8878.5722 
 3680000   -201016.29    1.7159138 -0.0008091674    65.019818    8891.4202 
 3685000   -200929.28    1.6654257 -5.4122685e-07    64.965947    8904.2394 
 3690000   -200895.31    1.7183509 -0.00011176277    65.005909    8917.1099 
 3695000   -200923.37    1.6817368 -0.0035488027    65.047328    8929.9512 
 3700000   -201009.39    1.6892914 0.0029601601    64.956032     8942.792 
 3705000   -200906.53    1.6932395 0.00042437655    65.027065    8955.6489 
 3710000   -200930.59    1.7396376 0.00050197964    65.063157    8968.5296 
 3715000   -200953.46    1.6804127 0.0016507421    65.074131    8981.3847 
 3720000   -201116.41    1.7149218 0.00015732973    65.051486    8994.2186 
 3725000   -200977.69    1.7294532 -0.00029416374    65.117564    9007.0524 
 3730000   -200994.81    1.6989819 -0.00052749165     65.06532    9019.8632 
 3735000   -200835.83    1.7409677 -0.0035560126    65.111815    9032.7012 
 3740000   -200758.96     1.681095 -0.0035732444    64.973865    9045.5568 
 3745000   -200945.88    1.7403229 -0.00084804942    64.945194    9058.4017 
 3750000   -200976.37     1.705169 0.0032698621    64.917414    9071.2685 
 3755000   -201024.51    1.7041773 -0.0014411185    64.910904    9084.1267 
 3760000   -200900.22    1.7596411 0.00041023179     64.95922    9097.0337 
 3765000   -200979.41    1.7482065 0.0024924504    64.843816    9109.8838 
 3770000   -200907.16     1.727712 0.00049124443    64.940588    9122.7105 
 3775000    -201026.5    1.6651769 0.0022171154    64.884581    9135.5553 
 3780000   -201013.81    1.7132062 -0.0034461006    64.917565    9148.4675 
 3785000   -200877.38    1.6965022 0.00010261881    64.869684    9161.3282 
 3790000   -200791.27    1.7442456 0.0024647043    65.015488    9174.2081 
 3795000   -201027.21    1.7165151 -0.0057796266    65.077273    9187.0793 
 3800000   -200955.13    1.7328054 -0.00047871383    65.042052    9199.9279 
 3805000   -201016.13    1.7028417 0.0021206957    64.879615    9212.7465 
 3810000   -200943.75    1.7125029 0.0023780554    64.971636    9225.5865 
 3815000   -200776.64    1.7059117 0.0049769027    65.088547    9238.4259 
 3820000    -200888.2    1.7312302 0.0018187421    65.140045    9251.2222 
 3825000   -200944.34    1.6854602 0.0051988009    65.062807    9264.0178 
 3830000   -200907.26     1.705044 0.0035616324    65.003947    9276.8218 
 3835000   -200814.85    1.7415704 0.0033223074    65.042203    9289.6459 
 3840000   -200833.98    1.7112358 -0.0011303071    65.153509    9302.4684 
 3845000   -200924.98    1.6894219 -0.0027831432    65.161724    9315.2755 
 3850000   -201163.46     1.758119 0.0014023174     65.07348    9328.0684 
 3855000   -201167.35    1.7186894 -0.0036903937    65.139462    9340.9051 
 3860000   -200970.17    1.7603075 0.0020533139    65.093097    9353.7399 
 3865000   -200684.26    1.7857096 0.0010911753    65.163936    9366.5805 
 3870000    -200855.1    1.7301334 -0.002039829     65.20037    9379.4052 
 3875000   -200980.76    1.6642451 -0.0022932566    65.151779     9392.224 
 3880000   -200924.44    1.6880856 0.0038495751    65.105526    9405.0658 
 3885000   -200740.49    1.7434337 -0.00087660315    65.221395    9417.9173 
 3890000   -200671.08    1.7152984 -0.0057589881    65.325832    9430.7716 
 3895000   -200900.15    1.7498785 0.0010912902    65.249106    9443.5864 
 3900000   -200728.83    1.7648734 -0.0021072068    65.294429    9456.4302 
 3905000   -200791.46    1.7526949 0.0043714001    65.192908    9469.2509 
 3910000    -200784.3    1.7556819 -1.1710761e-05    65.240804    9482.1323 
 3915000   -200837.79    1.7610906 -0.0012231805    65.302919    9494.9237 
 3920000   -200675.74    1.7109921 -0.0031529078    65.407994    9507.7339 
 3925000   -200742.86    1.6920333 -0.006391648    65.383018    9520.5665 
 3930000   -200907.09    1.7278929 -0.0098550501    65.481778    9533.3718 
 3935000   -200972.13    1.7161048 -0.0038920023    65.363786    9546.1849 
 3940000   -201058.51    1.6942544 -0.00084567449    65.291423    9559.0134 
 3945000   -201101.95    1.7116703 0.0037924196    65.256368    9571.8477 
 3950000   -200946.68    1.7161559 0.00071827561     65.31712    9584.6906 
 3955000    -201030.2    1.7612441 0.0022655693    65.177695    9597.5152 
 3960000   -201235.35    1.7418593 -0.0008381126    65.185238    9610.3112 
 3965000   -201010.11    1.6708557 -0.00083605567    65.246654    9623.1453 
 3970000   -200832.21    1.7602162 -0.0018429569    65.313773    9635.9652 
 3975000   -200924.61    1.7395503 0.0038425532    65.042227    9648.7953 
 3980000   -201000.55    1.6655342 0.0054420574    65.015621    9661.6586 
 3985000   -200802.07    1.7123525 -0.0034836771    65.181335    9674.5036 
 3990000   -200942.68    1.7491127 0.00056297764    65.115782    9687.3038 
 3995000   -201056.79    1.6842462 -0.0027374766    65.059406    9700.1333 
 4000000   -200815.75    1.7736186 0.0020196591    65.042122    9712.9761 
 4005000   -200835.64    1.6919307 0.0018334952    65.029973    9725.7861 
 4010000   -200664.09    1.7174102 -0.0029349921    65.245484    9738.6018 
 4015000   -200822.71    1.7549747 0.0019865687    65.065484     9751.458 
 4020000   -200861.15     1.752607  0.003111395    65.142247     9764.313 
 4025000   -200940.08    1.7408905 -0.00010630206    65.229739    9777.1843 
 4030000   -200788.85    1.6741661 -0.0010642605     65.19576    9790.0067 
 4035000   -200839.32    1.7638387 0.00074827891    65.161181    9802.8286 
 4040000   -200654.13    1.7592095 -0.0032415609    65.327224    9815.6696 
 4045000   -200839.95    1.7794994 0.0015789926    65.162366    9828.4702 
 4050000   -200928.62    1.6938296 -0.0025597987    65.165125    9841.3074 
 4055000   -200826.25     1.678117 -0.0018158412    65.168639    9854.1467 
 4060000   -200852.29    1.7536243 -0.003581375    65.154313    9866.9758 
 4065000   -200909.93    1.6836462 -0.0010177395    65.051293    9879.8353 
 4070000   -200849.59     1.715446 -0.0015919727    65.042421    9892.6548 
 4075000   -200775.45    1.7393128 0.0043263336    65.094865    9905.4944 
 4080000   -200786.93    1.7002827 0.00018809699    65.173093    9918.2876 
 4085000    -200861.3    1.6897695 0.00012147514    65.190001    9931.1514 
 4090000   -200757.76    1.7261506 0.0015707679    65.186342    9943.9811 
 4095000   -200863.13    1.7109636 0.0012567439    65.199071    9956.8012 
 4100000   -200860.46      1.75235 -0.0020707662    65.193733     9969.638 
 4105000   -200925.63    1.7327821 -0.00024646642    65.227675    9982.4585 
 4110000   -200756.33    1.7263529 -0.00093831841    65.173648    9995.2548 
 4115000   -200800.83    1.6866854  0.002554128    65.086701    10008.079 
 4120000   -200837.83    1.7166596 0.0016769744    65.184716     10020.87 
 4125000      -200813    1.7144907 0.0040780414     65.07231    10033.718 
 4130000   -200977.12    1.7181101 -0.0016567557    65.200199    10046.539 
 4135000   -200941.37    1.7311389 -0.00051430615    65.243684    10059.385 
 4140000   -200986.75    1.7096607 0.0024848601    65.093732    10072.258 
 4145000   -201268.53    1.7504085  0.001059634    65.043996    10085.068 
 4150000   -200901.89    1.7637111 0.0023611724    65.049015    10097.891 
 4155000   -201018.01    1.7310527 -0.0020829023    65.138215    10110.736 
 4160000   -201015.53    1.7456566 0.0017948828    65.193105    10123.576 
 4165000   -200953.46    1.7332154 0.00040399431    65.101944      10136.4 
 4170000   -200721.62     1.664628 -0.0013175393     65.06204    10149.235 
 4175000    -200995.4    1.7411982 0.0036294949    65.057721    10162.074 
 4180000    -201098.1    1.6823022 0.0052923312     64.97759    10174.918 
 4185000   -200890.61    1.6829364 -0.0030018762    65.148827    10187.788 
 4190000   -200778.74    1.7671975 0.0017141139    65.096115    10200.652 
 4195000   -200875.28    1.6911759 -0.001096403    65.124427    10213.482 
 4200000   -201051.84    1.6644755 0.00032187103    65.205014      10226.3 
 4205000   -200928.25    1.7056822 -0.00069479101    65.221725    10239.138 
 4210000    -200821.1     1.713402 -0.0043912983    65.326486    10251.986 
 4215000   -200993.12     1.687779 0.0033450296      65.1733    10264.813 
 4220000   -200987.65    1.7533907 0.0003308299    65.260907     10277.61 
 4225000   -200945.58     1.739113 0.00088342266    65.187871    10290.416 
 4230000   -200932.87    1.7231326 0.00021688241    65.142585    10303.229 
 4235000   -200857.35    1.7354658 -0.0014948034       65.225    10316.051 
 4240000   -200996.69    1.7177479 -0.0020602961     65.15513    10328.886 
 4245000   -201030.87    1.7250097 -0.0023369233    65.164217      10341.7 
 4250000   -200735.91    1.7212906 0.00070574062    65.130645     10354.52 
 4255000   -201149.61    1.7246053  0.004249526    65.027091    10367.413 
 4260000   -200894.68     1.710792 -0.0039347154     65.14392    10380.245 
 4265000   -201121.03     1.711752 0.0048667647    65.054323    10393.082 
 4270000   -201235.11    1.7181412 0.00069761589    65.128653    10405.913 
 4275000   -200840.59    1.7421007 0.0021584534    65.070689    10418.755 
 4280000   -200885.74    1.6974603 -0.00041073615    65.059719    10431.607 
 4285000   -200925.48    1.7094253 -0.002737377    65.141187    10444.439 
 4290000   -200754.86    1.6980168 -0.00026286191    65.155096    10457.253 
 4295000    -201026.8    1.7375638 0.0045661233    65.027158    10470.086 
 4300000   -200928.44    1.7316367 0.0012109101     65.11469    10482.924 
 4305000   -200910.98    1.7357901 0.0054110523    65.102286    10495.733 
 4310000    -200974.2    1.7147699 -0.0025845514    65.228644    10508.558 
 4315000   -200955.68    1.7363397 -0.00012524649    65.196529    10521.383 
 4320000   -201017.98    1.7772427 -0.0028085293    65.201683    10534.213 
 4325000   -200944.36    1.6773807 0.0021616543    65.251014    10547.041 
 4330000   -200865.68    1.7527532 0.0013121634    65.278757     10559.84 
 4335000   -200989.79    1.7458001 0.0017702064    65.156032     10572.64 
 4340000   -200995.08    1.7166494 -0.00076746775    65.239351    10585.438 
 4345000   -201031.21    1.7157963 0.00086959441    65.188692    10598.273 
 4350000   -200827.66    1.7071826 -0.0033764822     65.28399    10611.135 
 4355000    -200839.3    1.6918995 -0.004640976    65.285802    10623.957 
 4360000   -200780.37    1.7403255 -0.0030502819    65.300466    10636.762 
 4365000   -200691.53    1.7248285 -0.0001090435    65.225712    10649.595 
 4370000   -200883.41    1.7715377 0.00067003894    65.226193    10662.414 
 4375000   -200803.63    1.7065261 -0.005353143    65.251595    10675.236 
 4380000   -200853.63    1.7554323 -0.005148082    65.220256    10688.071 
 4385000    -201011.7    1.7570888 -0.0023645957    65.192066    10700.885 
 4390000   -200947.98    1.7272487 -0.0020854783    65.220116    10713.687 
 4395000   -200800.59    1.7693565   0.00219134    65.178227    10726.511 
 4400000   -200862.93    1.7306792 -0.00061695507    65.166246    10739.337 
 4405000   -200876.68    1.6759306  0.001829782    65.196612    10752.187 
 4410000   -200824.81    1.6672096 -0.0021996857     65.26452    10765.011 
 4415000    -201011.1    1.7202394 -0.00067758718    65.171415     10777.84 
 4420000    -201007.2    1.7212187 -0.0033288424    65.211953    10790.674 
 4425000   -201149.24    1.7434603 -0.0027628221    65.266326     10803.48 
 4430000    -201014.3    1.7583521 0.0033843699    65.199491     10816.29 
 4435000   -200892.73    1.7711322 -0.0033205185    65.291678    10829.121 
 4440000   -200992.57    1.6896256 0.0056837749    65.067583    10841.923 
 4445000   -200951.07    1.7518873 -0.00011576726    65.139696    10854.767 
 4450000   -201095.32    1.7007844 -0.00021350789    65.108912    10867.598 
 4455000   -201014.04    1.6833951 0.0044434068    65.139827    10880.382 
 4460000   -201001.28    1.7188697 -0.00074387623     65.23212    10893.215 
 4465000   -200935.73    1.7249334 0.0057268062    65.122139     10906.07 
 4470000   -201043.22    1.7145785 -0.0037430182    65.350781    10918.928 
 4475000    -201010.7    1.6932134 0.0022198042    65.163868    10931.763 
 4480000   -200999.32     1.664782 -0.0028532196    65.260074    10944.609 
 4485000   -200965.21    1.6799429 0.0035916628    65.225017    10957.421 
 4490000   -200849.14    1.6838036 0.0016446108    65.226547    10970.234 
 4495000   -200750.75    1.6997559 -0.0015019734    65.238937     10983.08 
 4500000   -200926.96    1.7571593 -0.00023473297    65.175202    10995.903 
 4505000   -200843.01    1.7542918  0.004561192    65.139837    11008.707 
 4510000   -201027.05    1.7520863 -0.0011914016    65.251769    11021.513 
 4515000   -200924.55    1.8050826 0.0024816975    65.284671    11034.301 
 4520000   -200875.62    1.7632552 -0.00019882987    65.350187    11047.109 
 4525000   -200926.33    1.7300504 0.0010000233    65.248174    11059.892 
 4530000   -201020.74     1.654222 -0.0011887303    65.319077     11072.69 
 4535000   -201122.33    1.7283194 0.0034591159    65.183494    11085.505 
 4540000   -201094.55     1.747381 0.0018450469     65.24203     11098.32 
 4545000    -201129.8    1.7316857 0.0018547968    65.153255    11111.071 
 4550000   -201172.93    1.7188712 -0.0015472619     65.20955    11123.901 
 4555000   -201125.62    1.7202631 -0.0013038592    65.153328    11136.714 
 4560000   -201007.75    1.6569769 0.0025953463    65.185427    11149.498 
 4565000   -200821.12    1.7021652 -0.0066268743    65.387419    11162.314 
 4570000   -200990.43    1.7274547 -0.0017614216     65.24946    11175.155 
 4575000   -200968.95     1.748617 0.0034848209     65.19881    11188.013 
 4580000   -200949.48    1.7484109 -0.0029548317    65.247212    11200.819 
 4585000   -200859.13    1.7007352 0.0033450246    65.092667    11213.638 
 4590000   -200802.42    1.7256212 -0.0049547084    65.343079    11226.488 
 4595000   -200899.78    1.6872133 0.00036991845    65.251933     11239.33 
 4600000   -201045.48     1.691804 -0.0015756462    65.235696    11252.132 
 4605000   -200988.72    1.6703571 0.0014604532    65.247214    11264.979 
 4610000   -200913.92    1.7433407 9.9987527e-05    65.216139     11277.81 
 4615000   -200852.85     1.677799 0.00086506333    65.224057    11290.673 
 4620000   -200795.67    1.7167402 -0.0031002394    65.269397    11303.528 
 4625000   -201096.96    1.6900141 -0.00034540037    65.108305    11316.385 
 4630000   -201015.88    1.7567197 -0.0035805098    65.245813    11329.213 
 4635000   -200798.62    1.7096049 -0.0010104586    65.221184    11342.063 
 4640000   -200932.52    1.7108063 0.0028306021    65.119894    11354.877 
 4645000   -200915.07    1.7644899 -0.0031347599    65.232159    11367.716 
 4650000   -200963.08    1.6965653 -0.0035265521    65.213174    11380.586 
 4655000   -200924.96    1.7337761 -0.00029661442    65.184794    11393.406 
 4660000   -200854.93    1.7416522 0.0015345533    65.207958    11406.238 
 4665000    -201017.9    1.7245425 0.00092477037    65.231119    11419.057 
 4670000   -200862.57    1.7312629 -0.002424763    65.273111    11431.902 
 4675000   -200889.74    1.7429655   -0.0038087    65.309244    11444.716 
 4680000   -200987.03    1.7223608 0.00013302653     65.17808    11457.558 
 4685000   -200706.86     1.745985 0.0012446107     65.22751    11470.351 
 4690000   -200899.43     1.708515 -0.0032558266    65.242912    11483.116 
 4695000   -200851.74    1.7408376 -0.0024721958     65.20844    11495.956 
 4700000   -200765.43     1.725119 -0.0023545678    65.265577    11508.811 
 4705000   -201009.27     1.719744 0.00025890826    65.252304    11521.651 
 4710000    -201147.2    1.7591714 -0.0023557045     65.23751    11534.511 
 4715000    -200945.7    1.7112912 -0.0058137129     65.38831    11547.326 
 4720000   -201021.57    1.7030282 0.0042657209    65.093386    11560.177 
 4725000   -201151.54    1.7125391 -0.00037023522    65.176606        11573 
 4730000   -200910.93    1.7173271 -0.0024158144    65.261321    11585.818 
 4735000   -200941.19    1.7484385 0.0021207343    65.219796    11598.672 
 4740000    -200888.2    1.7755528 -0.0008173282    65.261081    11611.498 
 4745000   -200884.91    1.7356985 -0.0035665822    65.336062    11624.297 
 4750000   -200736.59     1.728311 0.0027396592    65.305394    11637.159 
 4755000   -200967.99    1.7238838 0.0012324048    65.234581    11649.997 
 4760000   -200823.44    1.7164882 -0.0047253067    65.366852    11662.833 
 4765000    -200945.8     1.709126 -0.00053614278    65.326318    11675.665 
 4770000   -200849.41    1.6774668 0.0030207768    65.284552    11688.492 
 4775000   -200911.05    1.7454661 -0.0025594469    65.338639    11701.307 
 4780000   -200988.51    1.7233372 0.0029607739    65.221277    11714.109 
 4785000   -200911.55    1.7219479 -0.0038033886     65.34269    11726.891 
 4790000   -200837.94    1.6855883 0.0018586043    65.277532    11739.731 
 4795000   -200865.67    1.6898644 -0.0031937952    65.364043    11752.556 
 4800000    -200817.9     1.660908 0.0012336872    65.293921    11765.353 
 4805000   -200693.17    1.7311807 -0.00052724222    65.336943    11778.149 
 4810000   -200914.86     1.744288 -0.002301061    65.232515    11790.945 
 4815000   -200949.68    1.7426091 -0.002341001    65.191783     11803.75 
 4820000   -201040.31    1.7446252 0.0014097932    65.099165    11816.574 
 4825000    -201103.3    1.7325051 -0.0022480949    65.149409    11829.407 
 4830000   -200859.13    1.7086461 0.00092778823    65.121411    11842.225 
 4835000   -201041.17    1.7004193 0.0010797027    65.108397    11855.066 
 4840000   -200741.64    1.7300509 -0.0040709719    65.213477    11867.865 
 4845000   -201041.74    1.6614706 -0.0024779176    65.207877    11880.701 
 4850000   -200700.53    1.6914564 0.0031768069    65.128948    11893.544 
 4855000   -200989.88    1.7235944 0.0035615784    65.059446    11906.355 
 4860000   -200852.54    1.6331007 -0.0044486914    65.233247    11919.209 
 4865000   -201152.58    1.7200071 0.0057277776     64.97528    11932.044 
 4870000   -200926.21    1.7157484 -0.0017382388    65.127652    11944.874 
 4875000   -201012.88    1.6917741 0.0035051719    64.990138    11957.678 
 4880000   -201119.92    1.7377963 0.00071792528    65.034982    11970.545 
 4885000   -200826.71    1.7107291 0.00054758245    65.118178     11983.39 
 4890000   -200882.21    1.7226768 -0.0057428247    65.220281    11996.269 
 4895000   -200936.11     1.723249 -0.0013399851    65.189509     12009.14 
 4900000   -201094.44    1.7786111 -0.00072023239     65.12264    12021.941 
 4905000   -201104.31    1.7193764 -0.0076048371     65.15791    12034.767 
 4910000   -200891.93    1.7626595 0.0058794387    65.104985    12047.642 
 4915000   -200875.43    1.7399954 -0.0022001253    65.247751    12060.489 
 4920000   -201068.54    1.7722065 -0.0012943614    65.270291    12073.337 
 4925000   -200904.07    1.7092318 -0.0038923683    65.327559    12086.175 
 4930000   -200898.56     1.738905 -0.0027039261    65.258263    12099.034 
 4935000   -200983.25    1.7471021 -0.0034916386    65.255715    12111.861 
 4940000   -200867.84     1.717481 0.0047003116    65.094437    12124.696 
 4945000   -200969.28    1.7350031 0.0025778843     65.07891    12137.524 
 4950000   -201083.69    1.7441232  0.004278571     65.02882    12150.351 
 4955000   -200952.66    1.6774241 0.0031320808    65.140838    12163.195 
 4960000   -200859.48    1.6934503 -0.0014339473    65.261695    12176.032 
 4965000   -200945.53    1.7353129 -0.0024505499    65.339547    12188.832 
 4970000   -200976.58     1.680878 0.0022720772    65.221673    12201.666 
 4975000   -200937.27    1.6892877 -0.0013754945    65.270396    12214.459 
 4980000   -200788.76     1.680771 -0.0019982211    65.381116    12227.254 
 4985000    -200944.2    1.6655465 -0.0043730154    65.364301    12240.049 
 4990000   -200950.84    1.7153538  0.004050675     65.18644    12252.849 
 4995000   -201013.54    1.6731522 -0.004775389    65.282222    12265.645 
 5000000   -200927.16    1.6679764 0.00028993811    65.361383    12278.502 
 5005000   -201031.39    1.7052594 -0.0050763385    65.394245    12291.309 
 5010000    -200759.7    1.7563184 0.0011908954    65.374195     12304.13 
 5015000   -200899.99    1.7599175 -0.0011528829    65.322074    12316.968 
 5020000      -200966     1.764481 0.00030370836     65.37339    12329.754 
 5025000   -200767.23    1.7064828 -0.0064281935    65.453169    12342.564 
 5030000   -200828.15    1.7465413 0.00074010412    65.342229    12355.378 
 5035000    -201145.9    1.6690933 -0.0029265629    65.312481     12368.19 
 5040000   -200948.45    1.7422832 0.00045760626    65.324567    12381.024 
 5045000   -200946.24    1.7513559 0.0017922244    65.376672    12393.829 
 5050000   -201088.32    1.7267323 0.0015000588    65.364044    12406.631 
 5055000   -201015.95    1.6580742 0.0010702412    65.304319    12419.422 
 5060000   -200727.98    1.6588679 -0.0054382518    65.454399    12432.212 
 5065000   -200997.18    1.6937577 -0.00079836718    65.351211    12445.025 
 5070000   -200923.59     1.742882 0.0010803824    65.368704    12457.812 
 5075000   -200846.74     1.714614 -0.0013817008    65.361974    12470.615 
 5080000   -200904.46    1.7028019 0.0018787951    65.298142    12483.437 
 5085000   -200842.72    1.7378904 0.0028007358    65.386824    12496.224 
 5090000   -200948.19    1.6947093 -0.00080306574    65.331459    12509.035 
 5095000   -200793.22    1.7361937 -0.0012991846    65.357743    12521.865 
 5100000   -200944.62    1.7809138 -0.0010305076    65.287345    12534.642 
 5105000   -201017.13    1.7024486 0.0025252819    65.170439    12547.477 
 5110000   -201107.06    1.6923909 -0.0014169447    65.153893    12560.283 
 5115000   -201043.02    1.7063619 0.0040951357    65.048723    12573.106 
 5120000   -201025.41    1.7409975  -0.00304168     65.26776    12585.926 
 5125000   -201012.84    1.7027108 -0.0032551873    65.298499    12598.779 
 5130000   -201085.17    1.7323334 -0.00059744358    65.211383     12611.63 
 5135000    -200778.2    1.7556329 0.0050105939    65.144283     12624.44 
 5140000   -200894.21    1.7331619 -0.0022129467    65.145094    12637.263 
 5145000   -201034.88    1.7151538 -0.0034058059    65.157349    12650.103 
 5150000   -200986.72    1.7652753 0.0023524463    65.176101    12662.932 
 5155000   -201019.71    1.7851562  0.004334299    65.199254    12675.765 
 5160000   -200833.21    1.7042341 0.0022657587    65.145582    12688.635 
 5165000   -200984.97    1.7213707 1.0531214e-06    65.177794    12701.421 
 5170000   -200804.13    1.7560806 0.0013124446    65.227682    12714.256 
 5175000   -200883.98    1.6683135 -0.0038078325    65.249505      12727.1 
 5180000   -200904.14     1.714756 -0.0013972088    65.255119    12739.884 
 5185000   -201046.76    1.7529577 0.0072529187    65.099497    12752.754 
 5190000   -200997.21      1.73705 -0.0050694891    65.286586    12765.594 
 5195000   -200821.79    1.7115174 0.0019289768       65.229    12778.426 
 5200000   -201108.67    1.6675145 0.0020711708    65.066777    12791.269 
 5205000   -200763.76    1.6928675 0.0031810824    65.211544    12804.115 
 5210000   -201064.51    1.7829561 0.0041809991    65.085991    12816.959 
 5215000   -200940.33    1.6915143 0.0013173618    65.074137    12829.797 
 5220000   -200825.16    1.7450795 -0.0045886703    65.235144    12842.629 
 5225000   -201168.09    1.7140467 -0.0017765696     65.01359    12855.482 
 5230000   -200975.89    1.6906092 -0.0045899101     65.12818    12868.295 
 5235000   -200905.22    1.7460754 0.00059513284    65.114778    12881.121 
 5240000   -200984.95    1.7217066 0.0062038747    64.899161    12893.991 
 5245000   -200755.11    1.7122859 -0.0073970095    65.214664    12906.831 
 5250000   -200949.91    1.7535058 -0.0020441095    65.020214    12919.667 
 5255000   -200889.29    1.7402442 0.0047956591    65.024733    12932.521 
 5260000   -200969.49    1.7026034 -0.0036742768    65.185622    12945.365 
 5265000   -200913.55    1.6759221 0.0026200956    64.970987    12958.235 
 5270000   -200993.94    1.7274807 -0.0022333172    65.077048    12971.062 
 5275000   -200783.42    1.6946831 0.00070614492    65.135272    12983.895 
 5280000   -200764.83    1.6987143 -0.0017642944    65.116779    12996.736 
 5285000   -201033.65    1.7343912 -0.00045806298    65.136379    13009.602 
 5290000   -201021.36    1.6581874 0.0017855947    65.037943    13022.463 
 5295000   -200803.07    1.7463422 -0.0010437505    65.174735    13035.297 
 5300000    -201041.5    1.6781639 0.0025406927    65.100786    13048.105 
 5305000   -201105.72    1.6669617 -0.0026990148    65.144732    13060.937 
 5310000   -201088.72    1.7109273 0.0026875885    64.994063    13073.787 
 5315000   -201095.91    1.7141322 -0.0016541736    65.081317    13086.604 
 5320000   -200893.72    1.6633542 -0.0030508232    65.129597    13099.491 
 5325000   -200937.25    1.7602739  0.001216692    65.064421    13112.361 
 5330000   -200896.89    1.7285175 0.0013550753    65.136525    13125.217 
 5335000   -200964.57    1.7688506 0.00018475329    65.123901    13138.047 
 5340000   -200849.03    1.7028442 -0.0001756773    65.225212    13150.849 
 5345000   -200851.11     1.721494 -0.003783592    65.313254    13163.644 
 5350000   -200899.79    1.7549812 -0.0036948213    65.253598    13176.476 
 5355000   -200919.78    1.7320388 -0.00058788091    65.202417    13189.282 
 5360000   -201024.06    1.7106834 -0.001773249    65.146981    13202.128 
 5365000   -200927.01    1.7285212 -0.0027259914    65.151272    13214.978 
 5370000   -200925.65    1.6638372 0.0029445845    65.076804    13227.806 
 5375000   -200866.49    1.7639003 -0.0012921165    65.152551    13240.637 
 5380000    -200899.4     1.668633 0.0023392829    65.008582    13253.463 
 5385000   -200829.95    1.7287664 -0.0020445481    65.063088    13266.309 
 5390000    -200869.9    1.7146995 0.0020957107    64.969841    13279.188 
 5395000   -200864.63     1.712415 -0.0022276991    65.028136    13292.031 
 5400000   -200716.72    1.7351223 -0.0013445158     65.11244    13304.873 
 5405000   -200964.55    1.7214561 0.0030336185    65.103045    13317.717 
 5410000   -200969.19    1.7737315 -0.0018806331     65.07336    13330.538 
 5415000   -200944.22    1.7431621 0.0029548814    64.984635    13343.452 
 5420000   -200811.85    1.6955082 0.00079054754    65.120366    13356.258 
 5425000   -201037.02    1.6647074 0.00099739759    65.060706    13369.088 
 5430000   -200916.73    1.7674271 0.0034330963    65.159052    13381.907 
 5435000   -200976.59    1.7367695 -0.0013469349    65.135252    13394.747 
 5440000   -200990.31     1.733161 -0.00071144358    65.135098    13407.569 
 5445000   -201021.85     1.697145 0.00089024594    65.099119    13420.384 
 5450000   -200868.54    1.7381536 -0.0066321471    65.332813    13433.206 
 5455000   -200743.39    1.7202842 -0.0070232125    65.402976    13446.043 
 5460000   -201034.46    1.7350264 0.0001794187    65.205261    13458.864 
 5465000   -200901.75    1.7056436 -0.0031893961    65.228417    13471.656 
 5470000   -200846.01    1.7186262 7.4860099e-05    65.156927    13484.494 
 5475000   -200901.17    1.6718677 -0.0044664681    65.312351    13497.314 
 5480000   -201002.14    1.7714859 0.0058935302    65.084244    13510.122 
 5485000   -200764.72    1.7436753 0.0022174019    65.279512    13522.971 
 5490000   -200868.82    1.7297367 -0.0003125471    65.259361    13535.775 
 5495000   -200840.48    1.7593042 0.0052048551    65.222566    13548.615 
 5500000   -200879.07    1.7216867 0.00044344762    65.220106    13561.426 
 5505000   -200815.29    1.7372924 -0.00062388429    65.254036    13574.253 
 5510000   -200943.55    1.7484727 0.0012992537    65.196574    13587.068 
 5515000   -200944.36    1.7387224 0.0041678392    65.142248     13599.89 
 5520000   -201008.04    1.7280068 0.00092610466    65.206954    13612.733 
 5525000   -200865.57    1.7643633 -0.001700438    65.290818    13625.598 
 5530000   -200859.43    1.6947107 0.0015026361     65.20994    13638.408 
 5535000   -200837.56    1.7030352 -0.0054484118    65.238872    13651.254 
 5540000   -200909.93    1.6853642 0.0067576936    65.009705    13664.068 
 5545000   -200891.46     1.753724 -0.0022804561    65.134322    13676.866 
 5550000   -200881.76    1.7030905 -0.0013423233    65.192285    13689.697 
 5555000    -200799.1    1.7684815 0.0024865069    65.259238    13702.497 
 5560000   -200582.38    1.7155508 -0.00076660961    65.344705    13715.341 
 5565000   -200878.91    1.7350885 -0.0024792325    65.148941    13728.155 
 5570000   -201002.26    1.7347308 0.0038622741    64.911636    13741.013 
 5575000   -200711.73    1.7471549 -0.00073076894    65.155228    13753.847 
 5580000   -201050.28     1.708458 9.1448257e-05    65.050144    13766.696 
 5585000   -200976.34    1.7482165 0.0010395702     65.17722    13779.527 
 5590000   -200952.57    1.7814759 0.00015066322    65.080667    13792.364 
 5595000   -200810.88    1.7108331 -0.0043903412    65.267153    13805.242 
 5600000   -200693.31    1.6902052 -0.0035145114     65.17708    13818.068 
 5605000    -200995.7    1.6917512 -0.0037713487    65.117896    13830.878 
 5610000   -200933.96    1.7317515 -0.0017753399    65.043783    13843.746 
 5615000   -200942.84    1.6999912 -0.0013992847    65.037171    13856.602 
 5620000   -200991.94     1.710146 0.0012193922    64.922444    13869.445 
 5625000   -201002.16      1.70916 0.0011311407    64.866066    13882.307 
 5630000   -200955.21    1.7946492 -0.0027192087    64.903228    13895.225 
 5635000   -201044.81      1.72358 -0.00091215175    64.945522    13908.095 
 5640000   -201025.17    1.7026007 0.0029685564    64.862851    13920.972 
 5645000   -201070.51    1.7057435 -0.0021494369    64.971197     13933.84 
 5650000   -201003.12    1.7108694 -0.0012359462    64.917611     13946.73 
 5655000   -200997.09    1.6925267 -0.0061880684    65.048096    13959.586 
 5660000   -200926.53    1.7390053 -0.0019970417    65.011761     13972.47 
 5665000   -200979.89    1.7216764 0.0015045813     64.94637    13985.326 
 5670000   -201097.63    1.7312504 -0.0022767149    64.927618     13998.22 
 5675000      -201136    1.7009089 0.0051415612    64.852924    14011.124 
 5680000   -200980.85    1.7314503 -0.0075665144    65.041737    14023.968 
 5685000   -201022.41    1.6879849 -0.0054691432    64.997773    14036.854 
 5690000   -201025.33    1.7665398 0.0014330132    64.909522    14049.707 
 5695000      -201019    1.7001786 -0.0010911684    65.043529    14062.581 
 5700000   -200979.97     1.690063 9.625526e-05    64.941836    14075.434 
 5705000   -200963.48    1.7648492 -0.0013655988    65.016915    14088.287 
 5710000   -200982.47    1.7100309 0.00097180671    64.922761    14101.199 
 5715000   -200848.63    1.7096012 -0.0044087282    65.048066    14114.088 
 5720000   -200927.89    1.7337005 -0.0006275427    64.966472    14126.964 
 5725000   -201081.41    1.7478494 0.00028240517    64.911917    14139.797 
 5730000   -200894.62    1.7563558 -0.00083464255    64.956531    14152.637 
 5735000   -200947.21    1.7256301 0.0033231544    64.983757    14165.466 
 5740000   -200917.86    1.7377704 0.0056322399    65.005447    14178.312 
 5745000   -200910.54    1.7033832 0.00047007625    65.045395    14191.213 
 5750000   -201037.46    1.7255791 -0.0050023391    65.110381     14204.08 
 5755000   -201014.08    1.7377707 -0.0023814602    65.129829    14216.921 
 5760000   -200844.02    1.6906382 -0.0047867825    65.242759    14229.748 
 5765000   -200842.22    1.6886388 0.0025161224    65.094014    14242.619 
 5770000   -200724.36    1.6835526 -0.0041616242    65.254899    14255.499 
 5775000    -200840.6     1.741945 -0.002754719    65.197032    14268.333 
 5780000   -200916.19    1.7021411 0.0020766434    65.173675    14281.191 
 5785000   -200568.29    1.6870835 -0.0021748587    65.251457    14294.032 
 5790000   -200698.59    1.7535467 -0.0014940359    65.259937    14306.852 
 5795000   -200800.81    1.7256054 0.0020882315    65.098924    14319.674 
 5800000   -200805.85    1.6854934 -0.0029123988    65.085836    14332.531 
 5805000   -200919.54    1.6988947 0.00090895394    65.052335    14345.376 
 5810000   -200892.01    1.7183465 -0.0023529693    65.128371    14358.204 
 5815000   -201036.95     1.763705 -0.0063122872    65.152669    14371.073 
 5820000   -200910.17    1.6765783 -0.0032685613    65.101889    14383.911 
 5825000   -200810.47    1.7359834 -0.0017943597    65.049821    14396.778 
 5830000   -201021.39    1.7416226 0.0020007826     65.01883    14409.681 
 5835000   -200870.61    1.7374636 -0.0051344311    65.152578    14422.561 
 5840000   -200941.08    1.7330852 -0.00065836115    65.100341    14435.392 
 5845000   -200976.97    1.6875711 -0.0038715846    65.052724    14448.273 
 5850000   -201127.63    1.7462486 0.0069454286    64.880861    14461.126 
 5855000   -200824.99    1.6930475 -0.0028048721    65.069169    14473.955 
 5860000   -200799.79    1.7028423 -0.0013186204     65.06767    14486.772 
 5865000   -200954.69    1.6844852 -0.00020408535    64.942732    14499.605 
 5870000      -200798    1.7591361  0.003807478    65.025711    14512.457 
 5875000   -200821.79    1.7349182 0.0072992909    64.962002    14525.304 
 5880000   -200885.38    1.7444566 -0.0067329271    65.158231     14538.16 
 5885000   -200881.96    1.7310473 -0.00085189665    65.010847     14551.01 
 5890000   -200946.68    1.7277614 -0.0020422564    65.072737     14563.86 
 5895000   -201044.97    1.7293677 5.4494754e-05    65.030552    14576.703 
 5900000   -200843.53     1.695399 -0.0010919369    65.008531    14589.539 
 5905000   -200953.02    1.7595939 0.0012980839    64.993576    14602.365 
 5910000   -200913.39    1.7374469 -0.0021829711    65.109021    14615.213 
 5915000   -200922.46    1.7518535 0.0023041939    65.006348    14628.051 
 5920000   -201139.26    1.7557055  0.005900999    64.856792    14640.896 
 5925000   -200993.56    1.7144936 -0.0038319037    65.036921    14653.771 
 5930000   -200897.69    1.7111976 -0.0020355321    65.016706    14666.667 
 5935000   -200967.79    1.7254007 -0.0022067598    64.994251    14679.535 
 5940000   -200841.66    1.7632972 -0.0012360663     64.93065    14692.435 
 5945000   -201092.99    1.7340889  0.003944164    64.912696    14705.288 
 5950000   -200938.97    1.7233291 -0.0022724038    64.980929    14718.136 
 5955000   -200858.06    1.7136693  0.001773262    65.032189    14730.965 
 5960000   -200878.45    1.6725673 -0.0043255432    65.088234    14743.831 
 5965000    -200888.5    1.7461033 0.00079394686    65.068627    14756.722 
 5970000   -200960.39    1.7656715 -0.00043911577      65.1419    14769.551 
 5975000   -200950.02    1.7368684 -0.0021774858    65.217378    14782.402 
 5980000   -200979.24    1.7020337 -0.0025456991    65.165759     14795.22 
 5985000      -200943    1.7354843 -0.00079279454    65.141573    14808.101 
 5990000   -200977.65    1.7423456 0.0014962903    65.071632    14820.983 
 5995000   -201100.81    1.7201873 -0.00060285787    65.077363     14833.83 
 6000000   -201096.52    1.7330443 0.00077721724    65.078396    14846.701 
 6005000   -200994.84    1.6729032 -0.0055123133    65.280429    14859.555 
 6010000   -200919.31      1.74399 0.0016802397    65.196711     14872.38 
 6015000   -201019.64    1.6715799 0.00018807765    65.172133    14885.193 
 6020000   -201075.21    1.6817969 0.0010249698     65.16271    14898.011 
 6025000   -200946.12    1.7133885 -0.0049077802     65.23716    14910.844 
 6030000   -200678.09    1.7576224 0.0040937186    65.103138     14923.66 
 6035000   -201095.07    1.7040465 -0.0029989098    65.126568    14936.518 
 6040000   -201152.81    1.7275334 0.00014116589    64.949889    14949.372 
 6045000   -201051.48    1.7426229 -0.0028263353    65.065566    14962.224 
 6050000   -201077.25    1.7141531 0.00097157739    65.037118    14975.095 
 6055000    -201021.7    1.7554818 -0.0022108266    65.068458    14987.895 
 6060000   -201001.29    1.6735203 0.0021121873    65.041511    15000.731 
 6065000   -201207.24    1.7532015 0.00091686358    65.103637    15013.573 
 6070000   -201008.65    1.7258139 -0.001874144    65.136931    15026.424 
 6075000   -201002.02    1.6703259 0.0015175545    65.014063    15039.305 
 6080000    -201007.3    1.7201003 0.00023484153    65.128547    15052.163 
 6085000   -200863.06    1.7644252 0.0057130571    65.027097    15065.014 
 6090000   -200923.59    1.7521596 0.00018562065    65.126934    15077.872 
 6095000   -200995.27    1.6554959  0.003428697    65.167314    15090.708 
 6100000   -200850.32    1.7428579 0.00022027099    65.221501    15103.543 
 6105000   -201060.19    1.7120556 0.0028251462    65.185627    15116.397 
 6110000   -200936.46    1.7062664 -0.0005075385    65.221018    15129.206 
 6115000   -200858.46    1.7349368 -0.0018431945    65.263894    15142.041 
 6120000   -200780.37    1.7048603 -0.0041654086    65.383325    15154.842 
 6125000   -200911.19    1.7394673 -0.0032347641    65.390255    15167.639 
 6130000   -200802.72    1.7054852 -0.00022184937    65.306512    15180.455 
 6135000    -200874.5    1.7034381 -0.00089022785    65.203517     15193.27 
 6140000   -200778.28    1.7102554 0.0043892027    65.104951    15206.102 
 6145000   -200809.81    1.7242967 0.00097223715    65.173854    15218.957 
 6150000   -201048.34    1.7185813 -0.00032256665    65.045143    15231.804 
 6155000   -200759.57    1.6992632 0.0052310831    65.081883    15244.665 
 6160000   -200877.72    1.7162055 0.0057622667    65.070426    15257.497 
 6165000   -200844.98    1.7922008 0.0037666127    65.150577    15270.339 
 6170000   -200870.47    1.7150235 0.0042642181     65.02009    15283.184 
 6175000   -200786.13    1.7463259 0.0017654467    65.077096    15296.027 
 6180000   -200884.99    1.7215591 -0.00088278778    65.244024    15308.905 
 6185000   -201003.63    1.7058442 -0.0049852026    65.244058    15321.738 
 6190000   -200940.96     1.745144 0.0021741627    65.114304    15334.558 
 6195000   -201049.59    1.7420094 0.0017955645    65.185397    15347.381 
 6200000   -201027.39    1.6568869 -9.5568017e-05    65.219689    15360.204 
 6205000   -201120.68    1.6582321 -0.0012450173    65.138542    15373.007 
 6210000   -201055.22    1.7270989 0.0027568109    65.112227    15385.829 
 6215000   -201000.27    1.6769584 0.0017959586    65.115542    15398.644 
 6220000   -200610.48    1.7409582 -0.0026562037    65.333842     15411.45 
 6225000   -200854.76    1.6983765 0.0007548584    65.237979    15424.244 
 6230000   -200911.24    1.7025263 0.0041503183    65.168695    15437.034 
 6235000   -200973.04    1.7031166  0.003184741    65.077528    15449.876 
 6240000   -200982.14    1.6958481 0.00039179078    65.198389    15462.678 
 6245000   -200867.82    1.7425939 -0.0031917956    65.301602    15475.446 
 6250000   -200936.84    1.6832904 0.0030293506     65.13848      15488.3 
 6255000   -200891.02    1.7492124  0.001180863    65.175059    15501.108 
 6260000   -200813.91    1.7124388 -0.0030643562    65.264707    15513.958 
 6265000   -200732.82    1.6858413 -0.0025370067    65.230751    15526.812 
 6270000   -200648.79    1.7040589 -0.001383517     65.28594    15539.606 
 6275000   -200856.58    1.7368675 -0.0016211014    65.251814    15552.421 
 6280000   -200896.77    1.7294329 0.00018884835    65.134851    15565.255 
 6285000   -200764.04    1.7468726 -0.00081397161    65.251346    15578.098 
 6290000   -200939.24    1.6896333 -0.002057244    65.251718    15590.885 
 6295000   -200833.86    1.7154054 0.00079862802    65.318987    15603.684 
 6300000   -200863.35    1.6985745 -0.0055677229    65.366261    15616.463 
 6305000   -200795.97     1.696211 0.00052417839     65.34573    15629.243 
 6310000   -200609.27    1.7233774 -0.0041529287    65.452314    15642.059 
 6315000   -200696.67    1.7245742 -0.00087858093     65.33125    15654.873 
 6320000   -200754.75    1.7436794 5.9462503e-05    65.172136    15667.669 
 6325000   -200730.32    1.6871571 0.0013151553    65.200716    15680.455 
 6330000   -200866.85    1.6949272 0.00033643239    65.132428    15693.329 
 6335000   -200989.74     1.679777 -0.0013644858    65.167484    15706.196 
 6340000   -200955.68    1.6645568 0.00068581337    65.150571    15719.003 
 6345000   -200958.29    1.6860075 0.0075990615    65.040557    15731.854 
 6350000    -201060.2     1.665195 -0.0019112878    65.137829    15744.714 
 6355000   -200946.99    1.7454281 0.00069632623    65.236626    15757.534 
 6360000   -200743.93    1.6835734 0.0060596568    65.239459    15770.365 
 6365000   -201086.77    1.6993989 -0.00070527378    65.317669    15783.184 
 6370000   -200865.34    1.7631572 0.00076128431    65.269893    15796.006 
 6375000   -200831.26    1.7299235 0.00081160542    65.240131    15808.861 
 6380000   -200784.33    1.7350933 0.0018371941    65.246714    15821.693 
 6385000   -200997.35    1.7842222 0.0022441895    65.143006      15834.5 
 6390000   -200949.19    1.7121766 -0.00067472323    65.281603    15847.322 
 6395000   -200928.56     1.695652 -0.0036802692    65.286782    15860.165 
 6400000   -201015.81    1.7024375 0.0051490602    65.171251    15872.986 
 6405000   -201087.22    1.7402201 0.00092965888    65.274811    15885.814 
 6410000   -201067.96    1.7034788 -0.0015829558    65.299986    15898.628 
 6415000   -200858.03    1.7341061 -0.0020706584     65.31322    15911.445 
 6420000   -200689.32    1.7615296 0.0013594363    65.237308    15924.225 
 6425000   -200859.17    1.7279335 -0.0036100417    65.283512    15937.056 
 6430000   -200524.36    1.6817035 -0.0031315836    65.353617    15949.852 
 6435000    -200829.2    1.7303319 1.7600313e-06    65.216429    15962.669 
 6440000   -200780.87    1.6639588 -0.0025409196    65.197597    15975.515 
 6445000   -200720.74    1.7159607 -0.0010731606    65.140367    15988.368 
 6450000   -200911.55    1.7379378 -0.00066866181     65.03656    16001.206 
 6455000   -201017.76    1.7201497  0.002214853    65.056626     16014.06 
 6460000   -200871.97    1.7017023 -0.004493876    65.227654      16026.9 
 6465000   -200906.48    1.7693769 0.0023088417     65.10742    16039.753 
 6470000   -201007.29    1.7307063 -0.0043863953    65.175476    16052.606 
 6475000   -200761.36    1.7456482 0.0015581619    65.145265    16065.411 
 6480000   -200655.15    1.7459812 -0.0036491152    65.183423    16078.223 
 6485000   -200863.28    1.7186623 -0.0053219168    65.159062     16091.07 
 6490000   -201028.65    1.7504352 0.00093959717    65.030464    16103.893 
 6495000   -200909.34    1.7620925 0.0013604964    65.065702    16116.735 
 6500000   -201082.51    1.7345214 0.0032036994    65.035279    16129.559 
 6505000    -200771.6    1.7183962 -0.0059097508    65.237225    16142.384 
 6510000   -200835.22    1.7407353 0.0043087658      65.0476    16155.235 
 6515000   -200865.53    1.7300218 0.00071297342    65.245923    16168.066 
 6520000   -200788.96    1.6932921 -0.0026998825    65.292674    16180.908 
 6525000   -201097.49    1.7034841 -0.0016888182    65.309671    16193.701 
 6530000   -200876.27    1.6994342 0.00028176001     65.29253    16206.534 
 6535000   -200927.18    1.7272527 -0.0020949644    65.327655    16219.362 
 6540000   -200983.33    1.7180244  0.001821675    65.191913    16232.162 
 6545000   -200992.92    1.6766856 0.0032489315    65.195373    16244.966 
 6550000   -200907.04    1.7149558 0.0019508484    65.183752    16257.785 
 6555000   -200846.02     1.717589 0.0059712506    65.087914    16270.583 
 6560000   -200958.14    1.6662739 -0.0034749032    65.285218    16283.415 
 6565000    -200999.6    1.7559196 0.0016363808    65.108898    16296.238 
 6570000   -200816.88    1.7137865  0.005705434    65.138855    16309.053 
 6575000   -200973.67     1.720129  0.003313428      65.1955    16321.875 
 6580000   -200868.84    1.6850689 0.0041510887    65.181283      16334.7 
 6585000    -200944.9    1.7140024 0.0037707835    65.151522    16347.545 
 6590000   -200770.35    1.7460487 -0.0038901876    65.376454    16360.348 
 6595000   -200697.59     1.737087 -0.0055275742    65.374973    16373.165 
 6600000   -201069.41    1.7264511 -0.0015397155    65.197119    16385.979 
 6605000   -200763.17    1.7125761 -0.0037052817    65.295696    16398.803 
 6610000   -200878.68    1.6905366 0.00086991477    65.152353    16411.621 
 6615000   -200794.65    1.6823798 0.0072085524    65.043348    16424.439 
 6620000   -200962.72    1.7208762 -0.0025036446    65.069624    16437.251 
 6625000   -200994.84    1.7085901 -0.0016990925    65.135357    16450.116 
 6630000   -200966.69    1.7254325 0.0022722899    65.028646    16462.951 
 6635000   -200783.76    1.7078995 -0.0014677421    65.125688    16475.769 
 6640000   -200922.33    1.7395934 -0.00046072691    65.034276    16488.644 
 6645000   -200930.32    1.6951075 0.0038182615    65.051564    16501.491 
 6650000   -200968.55     1.720545 0.0033347301    65.077639    16514.309 
 6655000   -200819.76    1.7360894 0.0047954024    65.105846    16527.169 
 6660000   -201056.78    1.7337584 -0.00086612048    65.102147     16540.01 
 6665000   -200976.22    1.7208779 -0.00056446833    65.133256    16552.833 
 6670000   -200832.39    1.7415157 -0.00057116198    65.158037    16565.656 
 6675000   -200699.27    1.6809886 0.0041031181    65.130384    16578.496 
 6680000   -200970.08    1.7164167 0.0002467926    65.140688    16591.349 
 6685000   -201000.66     1.671337 0.0030685675    64.996363    16604.188 
 6690000   -200808.24     1.740874 0.00041177694    65.027309    16617.087 
 6695000   -200750.87    1.6941955 0.00079053487    65.021489    16629.901 
 6700000      -200869    1.7160541 0.0031951946    65.022889    16642.733 
 6705000   -200941.73    1.7131191 -0.0026666152    65.138056    16655.589 
 6710000    -200918.7    1.7104758 -0.0018274091    65.118539    16668.429 
 6715000   -200954.11     1.714122 0.00092823959     65.14165    16681.244 
 6720000   -200882.23    1.7162984 0.0010106747    65.073379    16694.107 
 6725000    -201018.9    1.7187115 -6.0084183e-05    65.114143    16706.952 
 6730000   -200945.55    1.7475895 -0.0005053138    65.066162    16719.809 
 6735000   -200715.06    1.7107182 -0.0055465306    65.227139    16732.642 
 6740000   -200934.85    1.7196621 -0.0016781754    65.169001    16745.454 
 6745000   -200949.74     1.711629 -0.0031959918    65.233634    16758.293 
 6750000   -200828.46    1.7673754 -0.00021677579    65.181031    16771.121 
 6755000   -200910.21    1.7124331 -0.0014899812    65.217813    16783.943 
 6760000   -200980.77    1.7349643 0.00081492408    65.242507    16796.748 
 6765000   -200989.22    1.7786004 -0.0030446745    65.195781    16809.568 
 6770000   -200984.15    1.7211906 -0.0022482685    65.106114    16822.354 
 6775000    -200949.2    1.7213582 0.00068780813    65.104222    16835.206 
 6780000   -201036.93    1.7621857 -0.0030581943     65.18224    16848.053 
 6785000   -200769.27    1.7415709 -0.00021710789    65.256306    16860.875 
 6790000   -200712.14    1.6881231 0.0019668016    65.216224    16873.681 
 6795000    -200768.4    1.7399425  0.001462159    65.185904    16886.495 
 6800000   -200784.03     1.699808 -0.006621022    65.354212     16899.31 
 6805000   -200766.77    1.6642195 -0.0012558463     65.24697     16912.16 
 6810000   -200752.07    1.7280005 0.0062260881    65.151138    16924.977 
 6815000   -200794.83    1.7312206 0.0010718585     65.21124      16937.8 
 6820000   -200931.17    1.7370964 0.0022355824    65.086856    16950.653 
 6825000   -200830.11    1.7233248  0.003083138    65.165573    16963.484 
 6830000   -201071.92    1.7035343 0.0023169121    65.144041    16976.329 
 6835000   -200718.28    1.7154299 -0.0025054954    65.303606    16989.147 
 6840000   -200826.43    1.6814983 0.0021166855    65.126464    17001.952 
 6845000   -201012.11    1.7336454 0.0036118418    65.116951    17014.808 
 6850000    -201040.9    1.6972003 0.0020575286    65.204933    17027.663 
 6855000   -200790.13    1.7211445 0.0029345968     65.10942     17040.48 
 6860000   -200958.89    1.6619993 0.00045000657    65.111008    17053.341 
 6865000   -200816.28    1.7217004 -0.0012520311     65.17674    17066.165 
 6870000   -200817.59    1.6962892 -0.0034596481    65.168949    17078.986 
 6875000   -200725.18    1.7096444 -0.003136583    65.237979    17091.811 
 6880000   -200760.52     1.677928 -0.00053890678    65.145065    17104.634 
 6885000   -200893.47    1.6923644 -0.0026811507    65.191277     17117.46 
 6890000   -200590.83    1.7064683 -0.0056680017     65.14743    17130.324 
 6895000   -200895.01    1.6942965 -0.0063246195    65.212115    17143.162 
 6900000   -200832.13    1.6977279 0.0050946531    65.064967    17156.001 
 6905000   -200810.49    1.6847494 -0.0027470586    65.182736    17168.853 
 6910000   -200978.15    1.6797572 0.00039900924    65.020005    17181.701 
 6915000   -201010.83    1.6954065 -0.0023929122    65.064344    17194.565 
 6920000   -201003.41    1.7238279 -0.0011003068    65.141147    17207.385 
 6925000    -200935.3    1.7555596 -0.0016505705    65.049709    17220.196 
 6930000   -200868.02    1.7189468 -0.00037416718    65.167704    17233.027 
 6935000   -200951.96     1.763792 -0.00093850732    65.120427    17245.836 
 6940000   -200934.98    1.7584377 0.0045060459    65.100225    17258.676 
 6945000   -201168.81    1.7539518 0.0025437585    65.103865    17271.504 
 6950000   -200921.99    1.7239642 0.0030640593    65.159559     17284.35 
 6955000   -200801.03    1.7074858 -0.0037701859    65.119388    17297.147 
 6960000    -200918.8    1.7120232 0.0039433118    65.007918    17309.975 
 6965000   -200869.78    1.7741885 0.0022813682    65.056995    17322.785 
 6970000   -200994.26    1.7371291 0.0065636939    65.015059    17335.608 
 6975000   -200885.97    1.7427526 -0.00050356769    65.080402    17348.407 
 6980000   -201002.11    1.7473624 0.00095795504    64.992783    17361.269 
 6985000   -200935.92    1.7044113 -3.413493e-05     64.97586    17374.095 
 6990000   -200962.46    1.7218383 0.0014073284    65.059178    17386.969 
 6995000   -201081.83     1.782354 0.0030963016    65.006474    17399.803 
 7000000   -201079.16    1.7517278 0.00079536569    65.003329    17412.634 
 7005000   -201010.93    1.7502385 0.0020313939    65.107876    17425.484 
 7010000   -200857.46    1.7463283 -0.0026462614    65.132428    17438.308 
 7015000   -200862.89    1.7447236 0.00049122868    65.050596    17451.127 
 7020000   -200976.28    1.7376144 -0.0035088985    65.129296    17463.987 
 7025000   -200835.06    1.7140345 -0.00061125686    65.166187    17476.832 
 7030000   -200914.68    1.6943248 -0.0010777614    65.042334    17489.653 
 7035000   -200966.07    1.6969716 -0.0038144505    64.971577    17502.526 
 7040000   -201032.18    1.7171134 -0.0042094831    64.944369    17515.433 
 7045000   -200951.66    1.6976961 -0.0004559126    64.976493    17528.298 
 7050000   -201151.49    1.7571973 -0.0048215652    65.072238    17541.162 
 7055000   -200968.96    1.7782074 0.0015536576    65.077426    17554.016 
 7060000   -200929.22    1.7292366 -0.00055033507    65.065869    17566.857 
 7065000   -200979.17    1.6886934 0.00060676594    64.915511    17579.723 
 7070000    -200726.6    1.7099808 -0.0027808668     65.11282    17592.571 
 7075000   -200875.11    1.7101624 0.0010323052    65.080492    17605.414 
 7080000   -200849.33    1.6658908 0.0020959101    65.015803    17618.273 
 7085000   -200919.93    1.6898442 -0.0020009176    65.088548    17631.121 
 7090000   -200735.47    1.7119266 0.0013031724    65.143369    17643.984 
 7095000   -200857.33    1.7379397 0.00039847887    65.141874    17656.849 
 7100000   -200847.84    1.7229708 0.0021609816    65.208809    17669.705 
 7105000   -200845.69    1.6628716 0.0044886693    65.047745    17682.536 
 7110000   -200927.01    1.7642805 0.00091399082    65.144854    17695.374 
 7115000   -201013.68     1.731595 0.0017386877    65.064111    17708.176 
 7120000   -201083.28    1.7001943 -0.0013782509    65.007716     17721.04 
 7125000   -200983.92     1.726324 -0.00076925251    65.107962    17733.868 
 7130000    -201131.6    1.6935034 -0.0019202543    65.099819    17746.713 
 7135000   -201137.38     1.728252 0.0011029183    65.009596    17759.578 
 7140000   -201033.31     1.718156 0.0005432166    65.072688    17772.431 
 7145000   -201098.82    1.7416096 -0.0007580923    65.100612    17785.239 
 7150000   -200873.26    1.6987967 0.0021186617    65.117383    17798.069 
 7155000   -200949.01    1.7161679 0.00026575435    64.984481    17810.906 
 7160000   -200771.57    1.7184928 -0.0059438032    65.218703     17823.75 
 7165000   -200910.15    1.6984307 -0.0023820732    65.034855    17836.594 
 7170000   -200966.06    1.6668422 -0.0031948542    65.125573     17849.43 
 7175000   -200948.32    1.7176854 0.0068911262    64.917778    17862.322 
 7180000   -200930.17     1.760118 -0.0045226575    65.056755    17875.188 
 7185000   -200909.64    1.7010617 -0.0030450606    65.037364    17888.047 
 7190000   -200981.03    1.7340589 -0.0043314586    64.951498    17900.928 
 7195000   -201021.82    1.7278596 -0.0031254082    64.932336    17913.831 
 7200000   -201177.05    1.7425123 -0.0036263517    64.900519    17926.744 
 7205000   -200955.11    1.6872836 -0.0013409263    64.948771     17939.65 
 7210000   -200996.95    1.7378579 -0.0058517846      65.0435    17952.553 
 7215000   -200991.71    1.6762212 0.0022073283    64.912809    17965.414 
 7220000   -200907.64    1.7264651 -0.0014596138    64.958585    17978.277 
 7225000   -200842.51    1.7203369 0.00078717657    64.867002    17991.141 
 7230000   -201013.34    1.7164778 -0.0020776863    64.940168    18004.028 
 7235000   -200982.94    1.7029419 0.0054644584    64.771554    18016.909 
 7240000   -200753.83     1.676628 0.0049411471     64.85992    18029.822 
 7245000   -200888.11    1.7198964 0.00028479604    65.022946     18042.66 
 7250000   -200799.82    1.7022909 -0.00053699333    65.002438    18055.533 
 7255000   -200877.31    1.7097452 -0.00078852034    65.015578    18068.394 
 7260000   -200961.35    1.6914765 -0.0010914472     65.01732    18081.226 
 7265000   -200890.57    1.6965133  0.001939852     65.00216    18094.072 
 7270000   -200909.17    1.7414564 0.0041218153    64.914995    18106.919 
 7275000   -200878.69    1.7156815 0.0040643679    64.905489    18119.761 
 7280000   -200727.72    1.7136138 -0.0018952101    64.999753    18132.645 
 7285000   -200980.47    1.6736094 0.0060025864    64.934015    18145.539 
 7290000   -200983.32     1.763312 -0.0027374387    65.225684    18158.414 
 7295000   -200801.44    1.6773147 -0.001385587    65.191217    18171.226 
 7300000   -200912.21    1.7118612 0.00041487952    65.175026    18184.042 
 7305000   -200708.13    1.7079712 0.00014825349    65.107295     18196.89 
 7310000    -200752.1    1.7435215 0.0009104496    65.110772    18209.725 
 7315000   -200757.42    1.7124825 0.0025035129    65.119211    18222.529 
 7320000   -200698.81    1.7317882 -0.0010539416    65.198271    18235.395 
 7325000   -200772.51    1.7150517 0.0014606412    65.133066    18248.249 
 7330000   -200870.33    1.7336929 0.00041511077    65.160302     18261.09 
 7335000   -200831.15    1.7279779 0.0020773298    65.128332    18273.953 
 7340000   -200640.84     1.723851 -0.00090463163    65.196081    18286.765 
 7345000   -200863.01    1.6935141 -0.0010886618    65.203104      18299.6 
 7350000   -200918.29     1.731925 0.0062834893    65.065133    18312.443 
 7355000   -200954.45     1.695341 0.00034943004    65.215116    18325.249 
 7360000   -200781.55    1.7285712 -0.0025820876    65.274344    18338.072 
 7365000    -200873.8    1.7574934 0.00047116787    65.234274      18350.9 
 7370000   -201072.22    1.7439113 0.00013987876    65.160095    18363.709 
 7375000   -200869.45    1.7451487 0.00059166391    65.153043    18376.539 
 7380000   -200983.76    1.7483127 -0.002127251    65.096402    18389.387 
 7385000   -200960.48    1.7589963 0.0024093694    65.038169    18402.212 
 7390000   -200908.69    1.7400817 -4.694826e-06    65.099302    18415.058 
 7395000    -200911.4    1.7274399 -0.00083892642     65.27068    18427.888 
 7400000   -200720.68    1.7779873 0.0036690463    65.108099    18440.712 
 7405000    -200898.5    1.7114149 -0.0019925794    65.081853    18453.527 
 7410000   -201047.74    1.6881414 -0.0011719456    65.035882    18466.375 
 7415000   -200696.93    1.7036551 -0.005164744    65.169077    18479.197 
 7420000   -200871.55    1.7840879 -0.0028829493    65.160748    18492.025 
 7425000    -200904.3    1.7120654 -0.0049647067    65.233469    18504.829 
 7430000   -201000.66    1.7315412 -0.00046733432    65.187681    18517.653 
 7435000   -201150.49    1.7373534 0.0019801159    65.106059    18530.443 
 7440000   -201114.75    1.7204608 -0.0028059069    65.114153    18543.262 
 7445000    -201163.3     1.715676 0.0020020028    64.968087    18556.054 
 7450000   -201037.55    1.6891436  0.001190853    64.950955     18568.91 
 7455000   -201007.71     1.738256 -0.0048549068    65.227337    18581.734 
 7460000   -201007.62    1.7398044 0.00049028143    65.100916    18594.558 
 7465000   -200915.29    1.6899631 0.0028056057    65.094219    18607.391 
 7470000   -200860.93    1.6670385 -0.0007232774    65.040088    18620.209 
 7475000   -200931.25     1.744964 -0.0045152664     65.15359    18633.045 
 7480000   -201123.84    1.7111393 0.00052168627    65.033604    18645.936 
 7485000   -200835.33    1.7279117 0.0013499665    65.127429    18658.767 
 7490000   -200963.91    1.7382557 -0.00044369764    65.025115    18671.615 
 7495000   -200957.62    1.7720113 0.0019685003     65.08071    18684.453 
 7500000   -200877.21    1.7515001 -0.0036710925    65.173635    18697.276 
 7505000   -200763.81      1.70578 0.0007079539    65.134665    18710.141 
 7510000   -200925.54    1.7468143 -0.0014674992    65.165924    18723.007 
 7515000   -200958.41    1.7293528 0.0022286758    65.116655    18735.844 
 7520000   -201089.42    1.6923258  0.002516553    65.070187    18748.685 
 7525000   -201060.17    1.7116034 0.0010692096    65.121187     18761.52 
 7530000   -201087.77    1.6752881  0.001679811    65.118329    18774.352 
 7535000   -200705.72    1.6861839 -0.001465124    65.240181    18787.204 
 7540000   -200896.41    1.7642857 -0.00069062144    65.238272    18800.041 
 7545000    -200911.4    1.6642044 -0.00076028578     65.30699    18812.879 
 7550000    -201062.7    1.7143972 -0.0002011515    65.302651    18825.704 
 7555000   -201113.85    1.7316739 0.00084678458    65.164755    18838.541 
 7560000   -201082.85    1.7018387 -0.00015033854    65.178055    18851.373 
 7565000   -201089.19    1.7916576 -0.0027734535    65.207708    18864.224 
 7570000   -200959.15    1.7225455 -0.0045969569     65.29495    18877.063 
 7575000   -200830.18    1.7347531 -0.0016827598    65.305886    18889.891 
 7580000    -200985.9    1.7031312   0.00319933     65.16912    18902.751 
 7585000   -200818.19    1.7370548 -0.0023639698    65.270031    18915.575 
 7590000   -200930.62    1.7081245 -0.00039980128     65.14221    18928.419 
 7595000   -200858.89    1.7495585 -0.0029698142    65.342425    18941.186 
 7600000   -200794.81    1.7386349 -0.00017728725    65.312058    18953.977 
 7605000   -200993.28     1.675656 -0.0022297784    65.251055    18966.786 
 7610000   -200817.44    1.7216746 -0.0011787517    65.180923    18979.621 
 7615000   -200903.66    1.7349147 0.0012550181    65.040523     18992.46 
 7620000   -200770.48    1.6998975 -0.00074889645    65.136733    19005.244 
 7625000   -200609.26    1.6575325 0.00035903979    65.091171     19018.04 
 7630000   -200508.61    1.7345204 -0.0020095324    65.134607    19030.886 
 7635000   -200693.14    1.7085389  0.002138556    65.086705    19043.728 
 7640000    -200831.9    1.6932438 0.00012030951    65.151903     19056.53 
 7645000    -200754.7    1.7155725 -0.0068967217    65.278081    19069.342 
 7650000    -200736.3    1.7103957 -0.0056237797    65.347169     19082.19 
 7655000    -200945.6    1.6961174 -0.0016067372    65.168485     19095.05 
 7660000   -200848.94    1.7367841 -0.0006777118    65.099392     19107.87 
 7665000   -200827.49    1.7321937 0.0009392756    65.127754    19120.747 
 7670000    -200836.1    1.6916188 -0.0020816406    65.180003    19133.563 
 7675000   -200929.14    1.7379208 0.0066403269    64.938017    19146.415 
 7680000   -200968.47    1.7338124 0.0021574185    64.997713    19159.297 
 7685000    -200935.9    1.6745878 -0.0037783247     65.14544    19172.124 
 7690000   -200803.76     1.710537 -0.0047500649    65.093929    19184.975 
 7695000   -200992.39    1.7311178 -0.0044350314    65.070423    19197.851 
 7700000   -201026.29    1.6683117 -0.0020582539    64.963921    19210.724 
 7705000   -201049.73    1.7381081 -0.0044512654     65.12694     19223.62 
 7710000   -200964.22    1.7509617 -0.00029807185    65.097328    19236.478 
 7715000   -200909.81    1.7226968 -0.0013497703    65.135556    19249.351 
 7720000    -200901.1    1.7792239 -0.00024155845    65.148032    19262.203 
 7725000   -201177.75    1.7423487 0.0037651776    64.901098     19275.08 
 7730000   -200982.06    1.7185813 -0.0026995209    65.065936    19287.904 
 7735000   -200904.77    1.7279023  0.004010419    65.075512    19300.799 
 7740000   -200692.33    1.7358708 0.00038085565    65.153842    19313.611 
 7745000   -201058.56    1.7837892 0.0026381705    65.065837    19326.389 
 7750000   -201071.84    1.7548609 0.0012631756    64.977857    19339.237 
 7755000   -200848.31    1.6854537 -0.00088678605     64.98589    19352.104 
 7760000   -200927.24    1.7004702 -0.0029126118     64.97862    19365.018 
 7765000   -201046.92    1.7258927 -0.00010742509    64.985447    19377.869 
 7770000   -200924.74     1.637389 -0.0027384648    65.034452    19390.761 
 7775000   -200821.71    1.6768406 -0.0016483458    65.107753    19403.599 
 7780000   -200852.92    1.7084219 -0.0030915308    65.175474    19416.492 
 7785000   -200891.37     1.735057 0.0011975823    65.024387    19429.347 
 7790000   -200904.35    1.6893784 -8.3320077e-05    65.024193    19442.209 
 7795000   -200938.26    1.7331394 -0.0023052179    65.049823     19455.05 
 7800000    -201044.1    1.7355964  0.001539914    64.983765    19467.928 
 7805000   -200902.86    1.7027592 0.00093241109     65.15425    19480.808 
 7810000   -200738.71    1.7208221 -0.0015687959    65.186925    19493.641 
 7815000   -201034.18    1.7862651 0.0034265009    65.090827    19506.483 
 7820000   -200922.94    1.7178391 -0.00046865563    65.088684    19519.305 
 7825000   -200916.62    1.7046403 0.0019606636    65.082972    19532.141 
 7830000   -201062.61    1.7266816 -0.0012073292    65.107476    19544.983 
 7835000    -200980.4     1.719926 0.00034604643     65.01427    19557.811 
 7840000   -200729.61    1.7477936 -0.00036882275    65.092946    19570.662 
 7845000   -200885.41    1.7209136 -0.00053617557    65.162593    19583.531 
 7850000   -201006.24    1.7003211 0.00017510541     65.12431    19596.379 
 7855000   -201081.46    1.7762369 0.00065888512    65.118777    19609.237 
 7860000   -200849.83    1.7407367 -0.0021560681    65.134629    19622.085 
 7865000   -200952.24    1.7026631 0.0016073186    65.127061    19634.901 
 7870000   -200885.77    1.6891379 0.0030153314    65.043884    19647.749 
 7875000   -200860.63    1.7464874 -0.00074957911     65.13962     19660.62 
 7880000   -200801.69    1.6917429 0.0014849105     65.05147    19673.448 
 7885000   -200904.34    1.6771355  0.005542548    65.021705     19686.28 
 7890000   -200580.49    1.7056429 -0.0062946633    65.309214    19699.102 
 7895000   -200825.69     1.727398 0.0040257984    65.180916    19711.945 
 7900000   -200831.48    1.7319338 0.0071673627    65.095024    19724.747 
 7905000   -200822.35    1.7185022 -0.0020900804    65.264578    19737.592 
 7910000   -200935.21    1.6978385 0.00016745706    65.156238    19750.374 
 7915000   -200870.42    1.7314552 0.00042699989    65.253176    19763.181 
 7920000   -200949.55    1.7184108 -0.0012368899    65.191007    19775.998 
 7925000   -200746.29    1.7429937 -0.00022380652    65.268526    19788.802 
 7930000   -201005.02     1.669054 -0.0022161508    65.272353    19801.613 
 7935000   -201006.87    1.7447993 -0.00028289884    65.252689     19814.44 
 7940000   -200911.23    1.7164184 -9.8468421e-05    65.338343    19827.269 
 7945000   -201045.92    1.7211491 -0.0020989616    65.412772    19840.031 
 7950000   -200914.27    1.7628593 -0.0032466871    65.414417    19852.841 
 7955000   -201049.43    1.7210859 0.0035454907    65.301217    19865.624 
 7960000   -200905.37    1.7132021 0.0021939088    65.275206    19878.402 
 7965000    -200748.2    1.7280258 0.00085615431    65.296958    19891.221 
 7970000   -200788.64    1.7251129 0.0046112751    65.252537     19904.04 
 7975000   -200698.54    1.6891254 0.0041737863    65.208924    19916.869 
 7980000   -200900.86    1.6975838 -0.0011905439    65.346556    19929.683 
 7985000    -200903.3    1.7221471 0.0012263115    65.322569    19942.475 
 7990000      -200899    1.7406619 0.0042475668    65.279644    19955.278 
 7995000   -200931.72    1.7437674 0.00087270563    65.407686    19968.074 
 8000000   -200719.89     1.705206 0.0028732868    65.319631    19980.893 
 8005000   -200738.43    1.7811676 0.0060934666    65.479637    19993.715 
 8010000   -200805.42    1.6954079 -0.0010701923    65.481479    20006.524 
 8015000    -200661.5    1.6821852 -0.00091388763    65.377453    20019.333 
 8020000   -200762.17    1.7165297 0.0012555872       65.426    20032.141 
 8025000   -200801.84    1.7540325 0.00089834626    65.462009    20044.961 
 8030000   -200853.03    1.6925884 0.0019279757    65.297437    20057.809 
 8035000    -200890.4    1.7470608 0.0044005261     65.23996    20070.647 
 8040000   -200909.34    1.7215453 0.0029763151    65.212611    20083.475 
 8045000   -200813.98    1.7334289 -0.0012690275    65.256278    20096.279 
 8050000   -201119.07    1.7113438 0.0010694378    65.153621    20109.126 
 8055000   -200835.53    1.7514923 -0.0014340629      65.2483    20121.983 
 8060000    -200978.1    1.7046892 0.0044180803    65.048829    20134.817 
 8065000   -200829.63    1.6776226 0.0003865876     65.07403    20147.688 
 8070000   -200944.05    1.6822145 -0.00092134856    65.052109    20160.542 
 8075000   -200915.68    1.7489223 -0.0011605767     65.13395    20173.383 
 8080000   -200866.98    1.7707366 0.0015590737    65.089258    20186.296 
 8085000   -200850.58    1.7599361 0.0004356144    65.133847    20199.175 
 8090000   -200802.15    1.7316579 -0.0015907834    65.106758    20211.984 
 8095000   -200921.95    1.7228712 0.00086566468    65.128438    20224.827 
 8100000   -200823.74    1.7169072 -8.515289e-05    65.145645    20237.651 
 8105000   -200972.13    1.7156444 0.00075023397     65.08848    20250.478 
 8110000   -200816.03    1.7479223 -0.0027374298    65.082438    20263.331 
 8115000   -200852.58    1.7274362 -0.0033500664    65.138015     20276.16 
 8120000   -200857.74    1.6893857 0.0016451878    65.012521    20288.984 
 8125000    -201045.3    1.6550123 -0.0013786749    65.098241    20301.795 
 8130000   -201062.91    1.7492863 0.0015208144    65.008416    20314.633 
 8135000   -200871.71    1.7587414 0.0013931992     65.14297    20327.507 
 8140000   -200848.33    1.7471987 -0.0038132768    65.248956    20340.332 
 8145000   -200891.56    1.7770184 0.0050905136    65.116298    20353.196 
 8150000   -200858.34    1.7197937 0.0039113222    65.090566    20366.037 
 8155000   -200836.67    1.7298059 0.00043374846    65.102916    20378.861 
 8160000   -200925.52     1.726526 -0.0016831286    65.157333    20391.747 
 8165000   -200909.29    1.7512992 -0.0010576189    65.171642    20404.574 
 8170000   -200926.82    1.7826539 -0.0030978288    65.197624    20417.405 
 8175000   -201005.67    1.7100421 0.00093156331    65.182266    20430.249 
 8180000    -200932.2    1.7046963 0.0047674009    65.071731    20443.047 
 8185000   -200929.07    1.6959054 0.0011631742    65.158198    20455.903 
 8190000   -200895.56    1.7654852 -4.1270998e-05    65.233976    20468.698 
 8195000   -200901.57     1.720952 0.0019077843    65.218612    20481.544 
 8200000   -200903.38    1.7325218 0.0051436522    65.179772    20494.338 
 8205000    -200871.6    1.6956701 0.0040659825    65.221307     20507.16 
 8210000   -200938.72    1.7196815 -0.00085358996     65.17896    20519.936 
 8215000    -200725.1    1.7329489 0.0045278066    65.137955    20532.742 
 8220000   -201100.77     1.723246 0.0016431506    65.014019    20545.562 
 8225000   -200861.38    1.7741919 -0.0020696418      65.2368    20558.433 
 8230000   -201132.19    1.7292015 -0.00034575823     65.08686    20571.234 
 8235000   -201024.85     1.706192 0.00072096159    65.045933     20584.05 
 8240000   -201065.39    1.7423607 0.00070199156    65.112353     20596.89 
 8245000   -201072.28    1.7118488 -0.00074405462    65.179486    20609.709 
 8250000   -201144.25    1.7815018 0.00035358352    65.109434    20622.563 
 8255000   -200962.17    1.7474035  0.003796403    65.115214    20635.398 
 8260000   -200889.76     1.695859  0.002038309    65.209866    20648.233 
 8265000   -200979.44    1.7030366 0.00028681184    65.050822    20661.021 
 8270000   -200977.83    1.7428009 -0.0011868657    65.117323     20673.86 
 8275000    -201037.1    1.7075887 -2.5549417e-05    65.073967    20686.689 
 8280000   -201225.35    1.7491582 0.00044421823    65.014518    20699.547 
 8285000   -200950.83    1.7527782 0.0019918934    65.045126    20712.431 
 8290000   -200925.81    1.6859583 -0.001533535    65.090845    20725.259 
 8295000   -201020.35    1.6829448 0.00065304955    64.988702    20738.138 
 8300000   -201097.36    1.7170188 0.0042943293    64.992966    20750.964 
 8305000   -200898.85    1.7515727 -0.00041302584    65.217975    20763.811 
 8310000   -200776.29    1.7022609 0.0033654365    65.162994    20776.654 
 8315000   -200895.85    1.7469757 0.0021894802     65.16848      20789.5 
 8320000   -200957.03    1.7983237 0.0024562132    65.108271     20802.33 
 8325000   -200899.26    1.6851873 0.00092576296    65.112298    20815.159 
 8330000   -201018.35    1.7240658 0.0012570239     65.10277    20827.987 
 8335000   -200869.94    1.6866622 -0.0024808454    65.175617    20840.819 
 8340000   -200889.96    1.7016827 -0.00038663094    65.094902    20853.675 
 8345000   -201034.83    1.7095562 -0.00057914725     65.10396    20866.524 
 8350000   -200894.42    1.6864262 -0.00084375844    65.226564     20879.37 
 8355000   -201171.74     1.708053 0.0040862695    65.050266    20892.239 
 8360000   -200881.73    1.6947832 -0.0021418154    65.273246    20905.036 
 8365000   -200897.87    1.7226347 0.0019088985    65.092446    20917.886 
 8370000   -201007.46    1.6830052 -0.0011182839    65.064307    20930.691 
 8375000   -200994.74    1.6987675 -0.0019415247    65.081798    20943.513 
 8380000   -200788.89    1.6931468 4.9848198e-05    65.031613    20956.338 
 8385000   -200905.79    1.7240605 -0.00040513091    64.990252    20969.187 
 8390000   -201033.82     1.811251 0.0046345427    64.933992     20982.05 
 8395000   -200929.25    1.7336839 0.0017173524    65.013782    20994.911 
 8400000   -200922.04     1.737781 -0.002835008    65.024221    21007.743 
 8405000   -200750.07     1.774651 0.0011822364    65.001531    21020.579 
 8410000   -200870.29    1.6952185 -0.00036282426    65.019279    21033.416 
 8415000   -200875.22     1.684385 0.0035098254    64.904393    21046.282 
 8420000   -200847.25    1.7195098 0.00069338112    64.961226    21059.154 
 8425000   -200963.28    1.6798839 0.0033451264     64.83229    21072.038 
 8430000   -200866.92      1.69749 -0.0016149294    64.860637    21084.862 
 8435000   -200944.09     1.724593 0.0040543093    64.859038    21097.723 
 8440000   -201021.59    1.7390997 -0.0013268926    64.933216    21110.596 
 8445000   -200748.05    1.6851308 -0.0036309871    65.118766    21123.455 
 8450000   -200778.75    1.6669542 -0.0020348142    65.076029    21136.326 
 8455000   -200865.81    1.7434837 0.00091403417    64.963612    21149.227 
 8460000   -200706.69    1.6923132 -0.0021438005    65.106631      21162.1 
 8465000   -200945.77    1.7339931 -0.0014975153    65.068443    21174.965 
 8470000   -200757.96    1.6689163 -0.0022697452    65.094343    21187.827 
 8475000   -200904.78    1.7142397 0.0023950345    65.042136    21200.695 
 8480000   -200899.87    1.7242785 0.0029802039    65.031382    21213.548 
 8485000    -200953.1    1.7223202 0.0026371913    64.972232    21226.412 
 8490000   -200941.63    1.7484551 0.0030756296    64.972013    21239.283 
 8495000   -200887.49    1.6886469 0.0028465105    64.981528    21252.147 
 8500000   -200962.13    1.7071884 -0.0012945153    65.066041    21265.012 
 8505000   -201067.34    1.7053416 0.0018288747    65.012516    21277.852 
 8510000   -200890.29    1.6872035 0.0014127023    65.054203      21290.7 
 8515000   -200831.79    1.6901414 -0.0025066292    65.108858    21303.561 
 8520000   -200863.46    1.7036225 -0.00027660656    65.100212    21316.367 
 8525000   -200902.23    1.7514135 -0.0021887649    65.084654    21329.255 
 8530000   -200902.68    1.6860602 0.0022802078    64.998568    21342.121 
 8535000   -200776.83    1.7314169 -0.0020281147    65.152078    21354.939 
 8540000   -200677.35    1.7361979 0.0021422757    65.136157    21367.766 
 8545000   -200776.43    1.6869563 -0.0012253393     65.14591    21380.604 
 8550000   -201042.91     1.756176 -0.0036479961    65.164995    21393.438 
 8555000      -201166    1.7257391 0.0011634752    64.956355    21406.272 
 8560000   -201146.53     1.716191 -0.0074449688    65.152295    21419.147 
 8565000   -201157.36    1.6766784 0.0083172029    64.878637    21432.019 
 8570000   -201087.28    1.7008522 -0.0011061673     65.05861    21444.847 
 8575000   -200971.38    1.6866006 0.0046219176     65.03247    21457.692 
 8580000   -200963.32    1.7248961 8.4979895e-05     65.08766    21470.576 
 8585000   -200851.07     1.665993 -0.0021922132    65.201493     21483.41 
 8590000   -200963.01    1.7387416 0.0025851417    64.948475    21496.201 
 8595000   -200735.65    1.7165831 -0.00099431764    65.057167    21509.045 
 8600000   -200855.13    1.6987026 -0.0012040104     65.08889      21521.9 
 8605000   -200770.08    1.7455828 0.0024370734    65.045911    21534.741 
 8610000   -200911.79    1.7064368 0.0018097861     65.06675     21547.58 
 8615000   -200951.87    1.7268417 0.0024842058    65.023531     21560.39 
 8620000   -200828.78    1.6980725 0.0017838118    65.089151     21573.19 
 8625000   -200896.51    1.7266931 0.0061396227    64.981598    21586.005 
 8630000   -200975.56    1.7019429 0.0018655815    65.030423    21598.857 
 8635000   -201073.79    1.6979671 0.0018719063    65.080538    21611.662 
 8640000   -200944.24    1.6930206 -0.00056626979    65.131649      21624.5 
 8645000   -200887.45    1.7231867 0.00022376736    65.128049    21637.293 
 8650000   -200912.62    1.7293119 -0.0031824565    65.207213    21650.114 
 8655000   -200822.78    1.7320091 -6.2289759e-05    65.163955    21662.933 
 8660000   -200782.55      1.66881 -0.0027197639    65.116456    21675.753 
 8665000    -200946.5    1.7468606 0.00071488965    65.055804    21688.599 
 8670000   -200739.57    1.7252144 -0.003884886    65.149548     21701.45 
 8675000    -200732.8    1.6972991 0.0012144391    65.101086    21714.296 
 8680000   -200902.16    1.7192994 0.00021810554    65.166983    21727.095 
 8685000   -200759.08    1.7551407 -0.00097069738    65.249349    21739.907 
 8690000   -200802.85     1.679938 0.0036350217    65.210386    21752.724 
 8695000   -200859.76    1.7131747 -0.00035660573    65.389949    21765.539 
 8700000   -200824.74    1.7562711 -0.0031696781    65.464542    21778.333 
 8705000    -200873.6    1.7223162 0.0012106958     65.36464    21791.163 
 8710000   -200822.31    1.7036761 -0.0036730997    65.375619     21803.96 
 8715000   -200783.73    1.6794954 0.0027177227    65.269284    21816.799 
 8720000   -200817.94    1.6653866 -0.0014272161    65.304147    21829.592 
 8725000   -201030.04    1.6974233 -0.0002793581    65.210805    21842.373 
 8730000   -200845.65    1.7111303 -0.0045739181    65.349805    21855.192 
 8735000   -200917.03    1.7602246 -0.0026630689    65.243071    21867.995 
 8740000   -200862.52    1.7307457 0.0014669494    65.124165     21880.82 
 8745000   -200874.25    1.7544351 0.0045475554    65.014629     21893.65 
 8750000   -200935.81    1.7263808 -0.0017818254    65.100601    21906.465 
 8755000   -200819.92     1.678792 -0.0002645769    65.174724    21919.258 
 8760000   -200891.63    1.7501213 -0.00072920655    65.218046    21932.061 
 8765000   -200645.12    1.7107203 -0.0011198095    65.252492    21944.879 
 8770000    -200875.7    1.7755416 2.498144e-05    65.124974    21957.725 
 8775000   -201103.34    1.7593328 0.0048080237    64.981328    21970.565 
 8780000   -201198.64    1.7219211 0.0024823599    65.059125    21983.418 
 8785000   -201011.28     1.685984 0.0022034261      65.0544    21996.259 
 8790000   -200992.54    1.7509288  0.003664108    65.076588    22009.098 
 8795000   -200892.59     1.767242 0.0020907762    65.052478    22021.963 
 8800000   -201097.15    1.7243683 0.0012832977    64.952037    22034.812 
 8805000   -201177.38    1.7647474 0.0012851746    64.979404    22047.705 
 8810000   -201174.38     1.710523 -0.00061592067    65.018352    22060.536 
 8815000   -201076.76    1.6909659 0.0021517423    65.005913     22073.41 
 8820000   -201056.36    1.6693541 -0.0031284544    65.026519    22086.242 
 8825000   -200778.42    1.6991844 0.0029916526    64.984293    22099.094 
 8830000   -201035.48    1.7033147 -0.0016569364    65.000424    22111.942 
 8835000   -200914.76    1.7155435 0.00032044551    65.044921    22124.799 
 8840000   -200951.59    1.7474534 -0.0011915979    65.058015    22137.646 
 8845000   -201014.53    1.6911526 -0.0025901943    65.019975    22150.514 
 8850000   -201002.11     1.714794 2.1676015e-05    64.942823    22163.384 
 8855000   -201141.61    1.7622674 0.0028756432    64.986585    22176.224 
 8860000   -200962.65    1.6932432 -0.00038072515    64.984923    22189.093 
 8865000    -201101.2    1.7212015 0.0019643969      64.9339    22201.967 
 8870000   -200970.51     1.705306 0.0015798201    64.920309    22214.845 
 8875000   -200805.42    1.6533162 -0.0033040027     65.15897    22227.681 
 8880000   -200810.94    1.7432726  0.003654388    65.108337    22240.559 
 8885000   -200693.16    1.7652633 0.0011348464    65.060511    22253.352 
 8890000   -201014.47    1.7108153 0.00079551202    64.990592    22266.199 
 8895000   -201163.14    1.6926818 0.0046252505    65.044432    22279.059 
 8900000   -201059.71    1.7067799 0.0021277793     65.14288    22291.928 
 8905000    -200977.8    1.6483802 0.00062958387    65.195478    22304.768 
 8910000   -200893.83     1.706755 0.0024482163    65.229982    22317.588 
 8915000   -200926.26    1.7862669 -0.00021680508    65.286487    22330.396 
 8920000   -200904.41    1.7422278  0.006844832    65.216383    22343.219 
 8925000   -200920.48    1.6878588 -0.00025421742    65.281488    22356.025 
 8930000   -200867.34    1.6512147 0.00010243723     65.15578    22368.851 
 8935000   -200957.09    1.7044383 -0.00021437081    65.282585    22381.666 
 8940000   -200873.17    1.6711509 -0.0048414861    65.446791    22394.492 
 8945000   -200986.47    1.7909327 0.0060223978    65.218268    22407.301 
 8950000   -201045.11    1.6714281 0.00024909119    65.279809    22420.098 
 8955000    -201041.5    1.7604096 0.0033197719    65.207089    22432.901 
 8960000   -200910.65    1.7114417 -0.0020017944     65.26827    22445.726 
 8965000   -200917.23    1.7409769 -0.0019656438    65.258454    22458.528 
 8970000   -200879.98    1.7465442 -0.0053890149    65.164118    22471.368 
 8975000   -200962.56    1.7047897 -0.0042430054    65.206495    22484.182 
 8980000   -200930.45    1.6960557 0.0012420269      65.2265    22497.034 
 8985000   -200815.92    1.7280281 -0.0036441841    65.302467    22509.845 
 8990000   -200670.61    1.7413326 -0.0025697276    65.374895    22522.651 
 8995000    -200750.1    1.7434498 0.0038309307     65.23556    22535.465 
 9000000   -201001.61    1.7244779 -0.0029659222    65.331317    22548.252 
 9005000    -200794.1    1.7337257 -0.00025853245    65.244993    22561.057 
 9010000   -200893.78    1.7271912 0.0036372788     65.13934    22573.896 
 9015000   -200863.28    1.7308505 -0.0041498617    65.235889    22586.741 
 9020000   -201026.13    1.6661617 -0.0014170421    65.093027    22599.559 
 9025000      -200731     1.741583 0.0020323893    65.116572    22612.384 
 9030000    -200799.9    1.6975011 -0.001307405    65.205717    22625.198 
 9035000   -200980.42     1.689954 -0.0010964606    65.263682        22638 
 9040000   -200733.78    1.6830226 0.00027441127     65.31769    22650.769 
 9045000   -200919.94    1.6643959 -0.0017343017    65.271987    22663.558 
 9050000   -200916.64    1.7476369 0.0015368189    65.195101    22676.364 
 9055000   -200795.66    1.7272335 -0.00095585463    65.197413    22689.166 
 9060000   -200950.19    1.6990029 -0.0005382208    65.181311     22701.99 
 9065000   -200907.88    1.7299632 -0.00092760895    65.228885    22714.805 
 9070000   -201039.16    1.7379162 0.0038774644    65.133533    22727.663 
 9075000   -200720.97    1.7151015 0.0017850435     65.19541    22740.514 
 9080000   -200784.19    1.7407156 0.0018086162    65.267924    22753.348 
 9085000   -200866.14    1.6824793 0.0021214675    65.276547    22766.159 
 9090000    -200716.5    1.7558911 -0.0082344091    65.521728    22778.967 
 9095000   -200986.47    1.6933088 -0.0013406879    65.275481    22791.788 
 9100000   -200853.19    1.7212131 0.00030162085    65.344125    22804.591 
 9105000   -200849.61    1.7763003 -0.00071463465    65.307382    22817.393 
 9110000   -200701.66    1.7175433 0.0015818514    65.285017    22830.184 
 9115000   -200749.13    1.7564045 -0.00039195343    65.261588     22843.01 
 9120000   -200926.51    1.7357291 0.0073603866    65.102965    22855.825 
 9125000   -200816.02    1.6800926 -0.0016884499    65.241015    22868.664 
 9130000   -200919.56    1.7259959 0.0025893395    65.207557    22881.527 
 9135000   -200911.46    1.7401453 0.0037101993    65.130708    22894.366 
 9140000   -201109.22    1.7338677 -0.00095902952    65.200001    22907.221 
 9145000   -200883.92    1.7672717  0.004757439    65.150149    22920.052 
 9150000   -200842.02    1.7225348 0.0040733941    65.135431    22932.872 
 9155000   -201029.51    1.7427781 0.00094204648    65.122289    22945.721 
 9160000   -201011.12    1.6858516 0.0011518266    65.142644    22958.524 
 9165000   -201045.72    1.7660321 0.0012105192    65.097124    22971.355 
 9170000   -200838.73    1.7315449 0.0011703167     65.14027    22984.183 
 9175000   -200831.91    1.7040844 -0.0024614321    65.274454    22997.007 
 9180000   -200925.28    1.7313197 0.0034251303    65.022536    23009.871 
 9185000   -200806.22     1.752041 -0.00019340191    65.141235    23022.703 
 9190000   -200829.14     1.744262 0.00069447951    65.206164    23035.535 
 9195000   -200876.51    1.7073132 -0.0036856276    65.268457     23048.33 
 9200000   -201072.91    1.7041515 0.0041570059     65.12164    23061.171 
 9205000   -201141.94    1.7045209 -0.0049460151    65.267304    23074.006 
 9210000   -201193.28    1.7478715 0.0028500869    65.082277    23086.855 
 9215000   -200969.05    1.7447658 -0.0047045125    65.316862    23099.695 
 9220000   -200820.99    1.7571232 -0.0017885909    65.277275     23112.54 
 9225000   -201083.59    1.7482884 0.0023330563    65.197738    23125.352 
 9230000   -201132.32    1.7095949 0.0014835696    65.125404    23138.183 
 9235000   -201023.78    1.7031252  0.000625936    65.101361    23150.974 
 9240000   -201060.85    1.7247174 9.663307e-05    65.168599    23163.807 
 9245000   -201061.32    1.7254067  0.004399591    65.072258    23176.637 
 9250000   -200855.69    1.6931106 -0.001952252    65.330261    23189.454 
 9255000   -200929.52    1.7204903 -0.0039303978    65.331316    23202.271 
 9260000   -200891.23    1.7400427 -0.0027437973    65.352525    23215.113 
 9265000   -200864.86    1.7500616 -0.0033047017    65.241666    23227.936 
 9270000   -200895.19    1.7279373 0.0013388708    65.209217    23240.797 
 9275000   -201008.26    1.7415709  0.003535093     65.23178    23253.611 
 9280000   -200825.51    1.7114858 0.00087174495    65.206363    23266.427 
 9285000   -201124.63    1.7145008 0.0076174032    64.984387    23279.251 
 9290000   -201015.18      1.73034 0.0015622298    65.244032    23292.081 
 9295000   -200971.17    1.7331604 -0.0004671098    65.266746    23304.911 
 9300000   -200810.57    1.7125805 -0.00065922211     65.36355     23317.73 
 9305000   -200894.44    1.6942273 -0.00013651926    65.294278    23330.539 
 9310000   -200914.98    1.7515241 0.00088490151    65.317994    23343.338 
 9315000   -200911.88    1.7278294 0.0044189666    65.264951    23356.146 
 9320000   -200838.36    1.6988307 0.0011966104    65.309517    23368.953 
 9325000   -200656.79    1.7403057 -0.0037046419    65.375148    23381.736 
 9330000      -200894    1.7630678 -0.0012576796    65.347246    23394.559 
 9335000    -200836.2    1.6818589 -0.00072291239    65.354517    23407.374 
 9340000   -200771.75    1.7004402 0.0021548177    65.294287    23420.169 
 9345000   -200721.49    1.6777882 0.0023040382    65.158388    23433.032 
 9350000   -200983.36    1.7146816 0.0046706697    65.031128     23445.88 
 9355000   -200961.93    1.7231721 -0.0019360762      65.1574    23458.703 
 9360000   -200973.32      1.70263 -0.0021736649    65.204019    23471.525 
 9365000   -201047.85    1.7416609 -0.0035236535    65.150049    23484.369 
 9370000   -201000.55    1.7168481 -0.0020349963    65.198889     23497.24 
 9375000   -200854.71    1.6831776 -0.0024359699    65.203952    23510.052 
 9380000      -200796    1.6932243 -0.0032230044    65.245196    23522.872 
 9385000   -201077.13    1.6906053 0.0017931405    65.114309    23535.748 
 9390000    -200760.4    1.7136723 -0.0012589211    65.219993    23548.551 
 9395000    -200857.2     1.721503 0.0046846714    65.059484    23561.369 
 9400000    -200822.1     1.714139 -0.0034290439    65.236681    23574.209 
 9405000   -200832.94    1.7319854 0.0011416831    65.218476    23587.023 
 9410000   -200818.75    1.7402552 -0.0011845683    65.223343    23599.847 
 9415000   -200767.12    1.7567198 0.00072080114    65.214246    23612.659 
 9420000   -200807.37     1.774913 -0.00058424013    65.194158    23625.455 
 9425000   -201013.32    1.7029894 0.00097950398    65.105781    23638.293 
 9430000   -200870.33     1.715246 0.0016428246    65.156001    23651.109 
 9435000   -200859.26    1.6910058 0.0011285736    65.205863    23663.942 
 9440000   -200881.12    1.7666819 -0.0010278918    65.248294    23676.722 
 9445000   -200801.36    1.6838534 0.0019865772    65.132405    23689.527 
 9450000   -201066.48    1.7169804 0.0025598996    65.113935    23702.351 
 9455000   -200947.48     1.720398 0.0051397939    65.105036    23715.147 
 9460000   -200949.96    1.7296773 0.0042426551    65.045385    23727.947 
 9465000   -200888.02    1.7104992 0.0057716394    65.009156    23740.784 
 9470000   -200981.66     1.731735 -0.0019162524    65.081934    23753.627 
 9475000   -201025.58    1.7040328 -1.5951493e-05    65.080264    23766.464 
 9480000   -201066.32    1.7194202 -0.00033843733    65.065518    23779.255 
 9485000   -200973.08    1.7004843 -0.0037434407    65.208927    23792.095 
 9490000   -200865.81     1.729707 0.0025763549    65.134034      23804.9 
 9495000    -200824.5    1.7003559 -0.0051379322    65.177171    23817.743 
 9500000   -200831.99    1.7678565  -0.00292598    65.190165    23830.593 
 9505000   -201006.91    1.7047189 0.0014915142    65.051433     23843.42 
 9510000    -200965.2    1.6905136 -0.0038123705    65.158247    23856.215 
 9515000   -200921.32    1.6992337 -0.0054171702    65.159779    23869.025 
 9520000   -200686.58    1.7130274 -0.0029322636    65.192184     23881.83 
 9525000   -200894.38     1.747014 0.0047156619    65.139491    23894.682 
 9530000   -201089.58    1.7309368 0.0038470471    65.154729    23907.486 
 9535000   -200972.77    1.7289767 -0.00061643349    65.286178    23920.284 
 9540000   -200976.95    1.7193963 0.0036924044    65.282022    23933.078 
 9545000   -200711.81    1.6927692 0.0011253766    65.400798    23945.837 
 9550000   -201078.29    1.7000973 0.00043502835    65.276634    23958.626 
 9555000   -201089.46    1.7046378 3.8381955e-05    65.261742    23971.399 
 9560000   -201072.67     1.727321 -0.00041243774    65.342633    23984.212 
 9565000   -200926.89    1.7539519 0.00056120188    65.315745    23997.009 
 9570000   -201104.47    1.6776041 0.0026567636    65.232485    24009.847 
 9575000   -200917.25    1.7675032 0.0032857314    65.295861    24022.684 
 9580000   -201029.14    1.6870533 -0.0019310456    65.309992    24035.504 
 9585000   -200935.65     1.731021 0.0021422702    65.187521    24048.317 
 9590000   -200805.67    1.6843442 -0.0037204106    65.371007     24061.11 
 9595000   -201009.28    1.7411434 0.00057720458    65.352492    24073.932 
 9600000   -200938.35    1.6672003 0.0016043337    65.269915    24086.765 
 9605000   -201030.29    1.6939131 0.00045110218    65.309449    24099.531 
 9610000   -200864.23     1.680093 0.00015768366    65.256962    24112.331 
 9615000   -201060.85    1.7453452 0.0036047278    65.108904    24125.139 
 9620000   -201078.25    1.7234894 -0.0013388222    65.196648    24138.019 
 9625000   -200928.66    1.7234086 0.00090579121    65.192592    24150.844 
 9630000   -200862.36    1.7319052 0.00056174697    65.170675     24163.67 
 9635000   -200937.84    1.6936767 -0.0059547465    65.226015    24176.498 
 9640000    -200891.8    1.7094949 0.0026383384    65.126378    24189.303 
 9645000   -200970.84    1.6921747 -0.00049281683    65.077136    24202.148 
 9650000   -200785.56    1.7088684 -0.0049318431    65.185036    24214.992 
 9655000   -200880.47     1.710308 -0.0013588989    65.162907    24227.835 
 9660000   -200963.11    1.7577323 -0.00025711424    65.063423    24240.684 
 9665000   -200838.92    1.7027678 0.0023405056    65.109089    24253.578 
 9670000   -200885.23    1.7013083   0.00166438    65.072391    24266.421 
 9675000   -200946.92    1.7252242 0.0014802183    65.123894    24279.284 
 9680000   -200974.77    1.7243936 -0.00057846534    65.100871    24292.144 
 9685000   -200738.32    1.6838529 -0.0063085315    65.196408    24304.982 
 9690000   -200816.13    1.7015596 0.0023793995    64.931064     24317.85 
 9695000   -201048.84    1.7774583 -0.0018198297    65.020555    24330.698 
 9700000   -201053.93    1.7076433 -0.0031851668    65.031105     24343.58 
 9705000    -201008.9    1.7294621 -0.0044392852    65.121666     24356.42 
 9710000   -201062.61    1.6869994 0.0020108424    64.956906     24369.25 
 9715000   -200923.26    1.7215392 -0.0010327035    65.002975    24382.139 
 9720000   -201029.07    1.6955173 -0.0033457862    65.039971    24394.972 
 9725000    -201029.6    1.6769165 0.0026065386     64.92141    24407.851 
 9730000   -200903.87    1.7294116 -0.0053199026     65.14618    24420.721 
 9735000   -201003.58    1.7353162 -0.00046999061     64.99525    24433.533 
 9740000   -201056.06    1.7393548 -0.0028549958    65.032856     24446.37 
 9745000   -200825.82    1.6636212 0.0036942501    64.986318    24459.248 
 9750000   -200801.08    1.6951243 0.00011902774    65.084484    24472.113 
 9755000   -200692.57    1.7452699 -0.00014076095    65.222636    24484.956 
 9760000   -200862.99    1.7432396 -0.0012310922    65.158626    24497.811 
 9765000   -200876.77    1.7231057 -3.4528373e-05    65.097155     24510.66 
 9770000   -200959.47    1.7151614 0.00099841423    64.999106      24523.5 
 9775000   -200931.12    1.6908371 -0.0015731242    65.037513    24536.359 
 9780000   -200809.77    1.7705923 0.0027604438    65.047632    24549.211 
 9785000   -200768.22    1.7079639 -0.0034594832    65.073142    24562.068 
 9790000   -201014.49    1.6726087 -0.0029692905     65.13132    24574.923 
 9795000   -200763.14    1.7511935 0.0037547997    65.028555    24587.756 
 9800000   -200717.61    1.7766865 0.0034363661    65.085974     24600.57 
 9805000    -200943.4    1.7305115 -0.0011823572    65.102957    24613.395 
 9810000   -200671.71    1.6944838 -0.0032931925    65.093004    24626.246 
 9815000   -200820.22    1.7194775 -0.0016140323    65.049215    24639.103 
 9820000    -200809.7    1.7453111 -0.00099934685    65.011648    24651.951 
 9825000   -200981.27    1.7276708 0.0011767716    64.987153    24664.796 
 9830000    -200959.7    1.7720546 0.0043558407    65.035309    24677.698 
 9835000   -201022.72    1.7552585 -0.0020149802    65.085781    24690.545 
 9840000   -200966.32    1.7199811   0.00108437    65.103305    24703.407 
 9845000   -201072.07    1.8076086 0.0071060458    64.947884    24716.227 
 9850000    -200776.5    1.7534384  0.003531496    64.987823    24729.066 
 9855000   -200997.88    1.6803352 0.00013587701     64.95167    24741.909 
 9860000   -200706.56    1.6721928 -0.0041495982    65.065735     24754.76 
 9865000   -200868.49    1.7128948 0.00026026587    64.944527    24767.611 
 9870000   -200655.84    1.7671045 0.0013342546    64.993986    24780.481 
 9875000   -200885.93    1.7272021 0.0054355692    64.946325    24793.332 
 9880000   -201054.77    1.7190173 -0.00061446686    65.103808     24806.16 
 9885000    -200983.4     1.737673 -0.0016836934    65.135369    24818.997 
 9890000   -200955.97    1.7351786 0.0018029141    65.093133    24831.822 
 9895000   -200995.48    1.7309578 0.0055635247    64.994794    24844.663 
 9900000   -200923.44    1.7092865 0.0026182614    65.168054    24857.497 
 9905000   -200917.47    1.7120529 -0.0010284501    65.194352    24870.311 
 9910000   -200962.96    1.7244603 -0.0034101677    65.173516    24883.151 
 9915000   -200973.47    1.6669879 0.0027715238    65.005645    24896.024 
 9920000   -200953.02    1.7113861 -0.0010873746     65.13644    24908.851 
 9925000   -200858.48    1.6949499 -0.0002166481    65.232857    24921.674 
 9930000   -200846.55    1.7311987 0.0060271532    65.158371    24934.514 
 9935000   -200727.47    1.6413012 0.0008130939    65.234791    24947.352 
 9940000   -200809.72    1.7064991 0.0007915128    65.132398    24960.157 
 9945000   -200930.23    1.7395763 0.00046749598    65.219377    24973.021 
 9950000   -200952.64     1.713558 -0.0026039713    65.264937    24985.835 
 9955000   -200833.02    1.7348214 0.0031261618    65.218346     24998.65 
 9960000    -200740.1     1.696814 -0.0029789736    65.378294    25011.499 
 9965000   -200861.26    1.7117246 0.0044023603    65.257436    25024.332 
 9970000   -200942.83     1.666496 0.0022053066    65.272128     25037.15 
 9975000   -200889.32      1.66089 -0.0038744384    65.471469    25049.913 
 9980000   -200853.13    1.7329081 0.0008251699    65.317504    25062.736 
 9985000   -200831.16    1.7569968 -0.0024886715    65.358772    25075.537 
 9990000   -200828.45    1.6891608 0.0053760063    65.239415    25088.332 
 9995000   -200904.75    1.7277127 -0.001026834    65.314345    25101.139 
10000000   -201117.77    1.7317343 0.0044282982    65.118045    25113.936 
10005000   -200901.75    1.7598533 -0.0022146191     65.26192    25126.779 
10010000   -200972.41    1.6995956 0.0037158186    65.110055    25139.598 
10015000   -200964.82    1.7594749 -0.0056390566    65.267448    25152.411 
10020000   -201036.93    1.7684064 0.0024539049    65.145611    25165.206 
10025000   -201100.36     1.734199 -0.00029228039    65.148071    25178.021 
10030000   -201079.82    1.7635861 0.0013506774    65.115855    25190.891 
10035000   -200885.92    1.7268482 0.00018914072    65.081204    25203.748 
10040000   -200884.85    1.7315692 -0.00029427336    65.024094    25216.621 
10045000   -200849.13    1.7437128 0.00073955573    64.966156    25229.484 
10050000   -200946.44    1.6868369 0.0013710229    64.998604    25242.335 
10055000   -200913.71     1.704576 -0.002179328    65.061153    25255.183 
10060000   -200910.14    1.7225541 0.00078706948    65.010684    25268.015 
10065000   -200822.05    1.6569982 0.0026426537    65.121522    25280.858 
10070000   -200691.68    1.7549755 0.0025457121    65.073053    25293.699 
10075000   -200908.23    1.7137156 0.00054433638    65.149308    25306.576 
10080000   -200892.63    1.7516905 0.0049102917    65.058686    25319.389 
10085000   -200990.79    1.6922682 -4.9776943e-06    65.109126    25332.222 
10090000   -200710.61     1.748836 0.0021628896    65.264772    25345.016 
10095000   -200822.66    1.7328586 -0.00036646066    65.257349    25357.836 
10100000   -201000.61    1.7147964 -0.0013833216    65.127562    25370.684 
10105000   -201064.73    1.6395156 -0.001536379      65.0611    25383.511 
10110000   -200724.04    1.7943598 0.0040920122     65.14985    25396.373 
10115000   -200648.71    1.6945477 -7.72907e-06    65.219885    25409.192 
10120000   -200884.38     1.679495 0.0036696704    65.205791    25422.031 
10125000   -200617.14    1.7017678 -0.0027029442    65.427476    25434.848 
10130000   -200873.59    1.6912679 -0.0021073231    65.317194    25447.666 
10135000   -200839.56    1.7253767 -0.0018236308    65.376637    25460.503 
10140000   -200799.94     1.728924 -0.0044371748    65.369434    25473.337 
10145000   -200815.74    1.7327757 -0.0038567378    65.360835    25486.164 
10150000   -200972.07    1.7480415 -0.00020565893     65.19256    25499.015 
10155000    -200972.5     1.713353 0.00071352144    65.216344    25511.838 
10160000   -201015.93    1.7123909 -0.0044630476    65.301292    25524.632 
10165000   -200930.65    1.7337014 0.0011461845     65.14402    25537.444 
10170000   -200880.92    1.7011441 -0.0037770327    65.255713     25550.27 
10175000   -200845.41    1.6830493 0.00063781752    65.253142    25563.093 
10180000   -200700.69    1.7277775 -0.0011169473    65.296719    25575.874 
10185000   -200864.83    1.7568321  0.000990533    65.127967    25588.689 
10190000   -200674.68    1.7143237 -0.0014021871    65.272192    25601.472 
10195000   -200841.74    1.7051823 0.0034554081    65.157675    25614.293 
10200000   -200569.82    1.7220891 0.00015134365    65.240607    25627.146 
10205000   -200749.55    1.7400673 0.00090270073    65.155398    25639.937 
10210000   -200888.52    1.7224055 0.0022620544    65.068985    25652.797 
10215000   -200933.31     1.690852 -0.0022633783    65.274602    25665.632 
10220000   -200905.64    1.7156423 0.0017307677    65.222146     25678.49 
10225000    -200953.9     1.736803 0.00058364924    65.310268    25691.316 
10230000   -200860.61    1.6966108 -0.0038552679    65.406842    25704.113 
10235000   -200693.78    1.7585842 0.00040150946    65.334998    25716.932 
10240000   -200913.68    1.6956167 0.0028704003    65.280484    25729.764 
10245000   -200882.38    1.7103458 -0.0015390751    65.357564    25742.555 
10250000    -200876.7    1.7210259 0.0038133581    65.270836    25755.319 
Loop time of 25755.3 on 8 procs for 10000000 steps with 2304 atoms

Performance: 33546.469 tau/day, 388.269 timesteps/s
95.6% CPU use with 8 MPI tasks x 1 OpenMP threads

MPI task timing breakdown:
Section |  min time  |  avg time  |  max time  |%varavg| %total
---------------------------------------------------------------
Pair    | 3982.9     | 4455.8     | 4982.9     | 494.5 | 17.30
Bond    | 0.85256    | 1.0168     | 1.3037     |  15.4 |  0.00
Kspace  | 10879      | 10984      | 11090      |  87.9 | 42.65
Neigh   | 641.88     | 653.59     | 683.39     |  50.5 |  2.54
Comm    | 1009.8     | 1027.5     | 1045.8     |  34.1 |  3.99
Output  | 0.84669    | 0.8793     | 1.1029     |   9.0 |  0.00
Modify  | 6426.8     | 7876.1     | 8573       | 905.1 | 30.58
Other   |            | 756.1      |            |       |  2.94

Nlocal:        288.000 ave         299 max         280 min
Histogram: 2 0 1 1 1 0 2 0 0 1
Nghost:        5944.88 ave        5973 max        5923 min
Histogram: 2 0 1 1 1 0 0 2 0 1
Neighs:         0.00000 ave           0 max           0 min
Histogram: 8 0 0 0 0 0 0 0 0 0
FullNghs:      242256.0 ave      252423 max      234993 min
Histogram: 2 0 1 1 1 0 2 0 0 1

Total # of neighbors = 1938050
Ave neighs/atom = 841.16753
Ave special neighs/atom = 0.0000000
Neighbor list builds = 79790
Dangerous builds = 0

## ----- deletion for small NPs and salt ----- ##
#    reset_timestep 0

#    label checking

#    compute     peatom    all   pe/atom
#    variable    exppe    atom    exp(2*c_peatom/${ttemp})
#    compute     aveS    small   reduce ave v_exppe
#    compute     aveCl   anion   reduce ave v_exppe
#    compute     aveNa   cation  reduce ave v_exppe

#    fix AVE all ave/time 5 ${repeat} ${freq} c_aveS c_aveCl file average.dat
#    thermo 10000
#    thermo_style custom step pe c_press lx cpu
#    thermo_modify norm no flush yes
#    fix AVE all ave/time 1 ${repeat} ${freq} c_aveS c_aveCl c_aveNa
#    variable    chempNP equal ${ttemp}*(ln(v_numS/vol)+ln(v_numCl/vol)*25+ln(f_AVE[1])+ln(f_AVE[2])*25)
#    variable    chempS  equal ${ttemp}*(ln(v_numNa/vol)+ln(v_numCl/vol)+ln(f_AVE[2])+ln(f_AVE[3]))
#    timestep 0.0005
#    run ${freq}

#    print "done! ChempNP= ${chempNP}" append potential.dat
Total wall time: 7:29:57
