LAMMPS (27 Oct 2021)
OMP_NUM_THREADS environment is not set. Defaulting to 1 thread. (src/comm.cpp:98)
  using 1 OpenMP thread(s) per MPI task
package gpu 0
package gpu 2 neigh no pair/only on
#Lammps gcmc code for electrolytes

## ----- Simulation times ----- ##
    variable t_nve      equal 50000             #nve/limit
    variable t_deform 	equal 50000            #nvt
    variable t_pressed 	equal 50000            #nvt
    variable t_relaxed 	equal 100000            #nvt
    variable t_eq 	equal 5000000           #nvt

    variable smallc	equal 10
    variable bigc	equal -80
    variable numB	equal 256
    variable numS	equal ${numB}*8
    variable numS	equal 256*8
#    variable numCl	equal ${numS}*${smallc}+${bigc}*${numB}

## ----- Environment setting ----- ##
    boundary p p p
    atom_style full

## ----- System Variables  ----- ##
    variable    ttemp       equal   1.6          	#reduced temperature
    variable    ppress      equal   0			#osmetic pressure
    variable    cutoff_pppm equal   28.3	        #cutoff for the real part of pppm
    variable	ipress      equal   0.1

    variable    bigd        equal   10                      #LJ sigmas
    variable    smalld      equal   2
    variable    d_bs        equal   0.5*(${bigd}+${smalld})
    variable    d_bs        equal   0.5*(10+${smalld})
    variable    d_bs        equal   0.5*(10+2)

    variable    cut_small   equal   ${smalld}*1.122462	    #cutoffs for LJ
    variable    cut_small   equal   2*1.122462	    
    variable    cut_big     equal   ${bigd}*1.122462
    variable    cut_big     equal   10*1.122462
    variable    cut_bs      equal   ${d_bs}*1.122462
    variable    cut_bs      equal   6*1.122462


## ----- Initialization and grouping ----- ##
    read_data config_fcc8.dat
Reading data file ...
  triclinic box = (-80.000000 -80.000000 -80.000000) to (80.000000 80.000000 80.000000) with tilt (0.0000000 0.0000000 0.0000000)
  2 by 2 by 2 MPI processor grid
  reading atoms ...
  2304 atoms
Finding 1-2 1-3 1-4 neighbors ...
  special bond factors lj:    0        0        0       
  special bond factors coul:  0        0        0       
     0 = max # of 1-2 neighbors
     0 = max # of 1-3 neighbors
     0 = max # of 1-4 neighbors
     1 = max # of special neighbors
  special bonds CPU = 0.012 seconds
  read_data CPU = 0.031 seconds

    set type 1 charge   ${bigc}    	#large NPs
    set type 1 charge   -80    	
Setting atom values ...
  256 settings made for charge
    set type 2 charge   ${smallc}       #small NPs
    set type 2 charge   10       
Setting atom values ...
  2048 settings made for charge
#    set type 3 charge   1       #Na+
#    set type 3 charge   -1      #Cl-

    mass    *   0.2
    mass    1   25.0

    group big       type 1
256 atoms in group big
    group small     type 2
2048 atoms in group small
#    group cation    type 3
#    group anion     type 3

## ----- Interaction setting ----- ##
    pair_style lj/cut/coul/long ${cut_big} ${cutoff_pppm} #lj/cut/coul/long/soft 2.0 0.5 5.0 ${cut_small} ${cutoff_pppm}
    pair_style lj/cut/coul/long 11.22462 ${cutoff_pppm} 
    pair_style lj/cut/coul/long 11.22462 28.3 
    #Between regular particles (4*5/2=10)
    pair_coeff  1   1   2.0     ${bigd}     ${cut_big}	        # big-big
    pair_coeff  1   1   2.0     10     ${cut_big}	        
    pair_coeff  1   1   2.0     10     11.22462	        
    pair_coeff  2   2   2.0     ${smalld}   ${cut_small}	    # small-small
    pair_coeff  2   2   2.0     2   ${cut_small}	    
    pair_coeff  2   2   2.0     2   2.244924	    
    pair_coeff  1   2   2.0     ${d_bs}     ${cut_bs}	        # big-small
    pair_coeff  1   2   2.0     6     ${cut_bs}	        
    pair_coeff  1   2   2.0     6     6.734772	        
    pair_modify shift yes
    kspace_style	pppm	5.0e-4

## ----- Simulation setup ----- ##
    neighbor 1.2 bin
    neigh_modify delay 0 every 1 check yes #one 2000

    compute temp all temp
    compute press all pressure temp

    thermo 5000
    thermo_style custom step pe temp c_press lx ly lz cpu
    thermo_modify norm no flush yes

   # dump moldump all custom 50000 ${xyzname} id type q x y z

## ----- Thermalization of system ----- ##
    timestep 0.0002

    fix 1 all nve/limit 0.05
    fix 2 big langevin ${ttemp} ${ttemp} 0.2 ${rseed1}
    fix 2 big langevin 1.6 ${ttemp} 0.2 ${rseed1}
    fix 2 big langevin 1.6 1.6 0.2 ${rseed1}
    fix 2 big langevin 1.6 1.6 0.2 6068
    fix 3 small langevin ${ttemp} ${ttemp} 0.008 ${rseed2}
    fix 3 small langevin 1.6 ${ttemp} 0.008 ${rseed2}
    fix 3 small langevin 1.6 1.6 0.008 ${rseed2}
    fix 3 small langevin 1.6 1.6 0.008 20688

    fix freeze big setforce 0.0 0.0 0.0
    fix zeromom all momentum 1 linear 1 1 1 angular
    run ${t_nve}
    run 50000

CITE-CITE-CITE-CITE-CITE-CITE-CITE-CITE-CITE-CITE-CITE-CITE-CITE

Your simulation uses code contributions which should be cited:

- GPU package (short-range, long-range and three-body potentials):

@Article{Brown11,
 author = {W. M. Brown, P. Wang, S. J. Plimpton, A. N. Tharrington},
 title = {Implementing Molecular Dynamics on Hybrid High Performance Computers - Short Range Forces},
 journal = {Comp.~Phys.~Comm.},
 year =    2011,
 volume =  182,
 pages =   {898--911}
}

@Article{Brown12,
 author = {W. M. Brown, A. Kohlmeyer, S. J. Plimpton, A. N. Tharrington},
 title = {Implementing Molecular Dynamics on Hybrid High Performance Computers - Particle-Particle Particle-Mesh},
 journal = {Comp.~Phys.~Comm.},
 year =    2012,
 volume =  183,
 pages =   {449--459}
}

@Article{Brown13,
 author = {W. M. Brown, Y. Masako},
 title = {Implementing Molecular Dynamics on Hybrid High Performance Computers â€“ Three-Body Potentials},
 journal = {Comp.~Phys.~Comm.},
 year =    2013,
 volume =  184,
 pages =   {2785--2793}
}

@Article{Trung15,
 author = {T. D. Nguyen, S. J. Plimpton},
 title = {Accelerating dissipative particle dynamics simulations for soft matter systems},
 journal = {Comput.~Mater.~Sci.},
 year =    2015,
 volume =  100,
 pages =   {173--180}
}

@Article{Trung17,
 author = {T. D. Nguyen},
 title = {GPU-accelerated Tersoff potentials for massively parallel Molecular Dynamics simulations},
 journal = {Comp.~Phys.~Comm.},
 year =    2017,
 volume =  212,
 pages =   {113--122}
}

@Article{Nikolskiy19,
 author = {V. Nikolskiy, V. Stegailov},
 title = {GPU acceleration of four-site water models in LAMMPS},
 journal = {Proceeding of the International Conference on Parallel Computing (ParCo 2019), Prague, Czech Republic},
 year =    2019
}

CITE-CITE-CITE-CITE-CITE-CITE-CITE-CITE-CITE-CITE-CITE-CITE-CITE

PPPM initialization ...
  using 12-bit tables for long-range coulomb (src/kspace.cpp:340)
  G vector (1/distance) = 0.11279571
  grid = 60 60 60
  stencil order = 5
  estimated absolute RMS force accuracy = 0.0003775628
  estimated relative force accuracy = 0.0003775628
  using double precision KISS FFT
  3d grid and FFT values/proc = 42875 28800
  generated 0 of 1 mixed pair_coeff terms from geometric mixing rule
Neighbor list info ...
  update every 1 steps, delay 0 steps, check yes
  max neighbors/atom: 2000, page size: 100000
  master list distance cutoff = 29.5
  ghost atom cutoff = 29.5
  binsize = 14.75, bins = 11 11 11
  1 neighbor lists, perpetual/occasional/extra = 1 0 0
  (1) pair lj/cut/coul/long/gpu, perpetual
      attributes: full, newton off
      pair build: full/bin
      stencil: full/bin/3d
      bin: standard
Per MPI rank memory allocation (min/avg/max) = 11.95 | 12.05 | 12.16 Mbytes
Step PotEng Temp c_press Lx Ly Lz CPU 
       0 1.7992005e+08            0    175.78446          160          160          160            0 
    5000    -68340.56    1.4476734 -0.0043609882          160          160          160    40.011699 
   10000   -73864.159    1.4274286 -0.0044481547          160          160          160    79.969531 
   15000   -78332.702    1.4180784 -0.0044807237          160          160          160    119.87375 
   20000   -82147.614    1.4631728 -0.004502205          160          160          160     159.7897 
   25000    -85730.09    1.4438763 -0.0045468411          160          160          160    199.71682 
   30000   -89363.595     1.430693 -0.0045329494          160          160          160    239.68814 
   35000   -92657.824    1.4360348 -0.0045301784          160          160          160    279.63872 
   40000   -95446.147    1.3740366 -0.0044912268          160          160          160    319.60624 
   45000   -98043.305    1.4001758 -0.0043705458          160          160          160    359.57453 
   50000   -100736.54    1.4139939 -0.0042599172          160          160          160    399.47297 
Loop time of 399.473 on 8 procs for 50000 steps with 2304 atoms

Performance: 2162.849 tau/day, 125.165 timesteps/s
99.7% CPU use with 8 MPI tasks x 1 OpenMP threads

MPI task timing breakdown:
Section |  min time  |  avg time  |  max time  |%varavg| %total
---------------------------------------------------------------
Pair    | 9.4419     | 9.6089     | 9.8188     |   4.8 |  2.41
Bond    | 0.0072053  | 0.0077172  | 0.0087867  |   0.6 |  0.00
Kspace  | 382.7      | 383.5      | 384.18     |   2.1 | 96.00
Neigh   | 0.067399   | 0.076661   | 0.084972   |   2.3 |  0.02
Comm    | 2.2567     | 2.9835     | 3.6385     |  26.1 |  0.75
Output  | 0.00035727 | 0.00051608 | 0.0015988  |   0.0 |  0.00
Modify  | 2.757      | 2.7935     | 2.8331     |   1.7 |  0.70
Other   |            | 0.5066     |            |       |  0.13

Nlocal:        288.000 ave         316 max         260 min
Histogram: 2 0 0 1 0 2 1 0 1 1
Nghost:        1367.88 ave        1391 max        1341 min
Histogram: 1 0 0 2 0 2 1 0 0 2
Neighs:         0.00000 ave           0 max           0 min
Histogram: 8 0 0 0 0 0 0 0 0 0
FullNghs:      17421.0 ave       19991 max       14757 min
Histogram: 2 0 0 1 0 3 0 0 0 2

Total # of neighbors = 139368
Ave neighs/atom = 60.489583
Ave special neighs/atom = 0.0000000
Neighbor list builds = 70
Dangerous builds = 0

    fix deforming all deform 10 x final -33 33 y final -33 33 z final -33 33 remap x
    run ${t_deform}
    run 50000
PPPM initialization ...
  using 12-bit tables for long-range coulomb (src/kspace.cpp:340)
  G vector (1/distance) = 0.11279571
  grid = 60 60 60
  stencil order = 5
  estimated absolute RMS force accuracy = 0.0003775628
  estimated relative force accuracy = 0.0003775628
  using double precision KISS FFT
  3d grid and FFT values/proc = 42875 28800
  generated 0 of 1 mixed pair_coeff terms from geometric mixing rule
Per MPI rank memory allocation (min/avg/max) = 11.95 | 12.05 | 12.16 Mbytes
Step PotEng Temp c_press Lx Ly Lz CPU 
   50000   -100736.54    1.4139939 -0.0042599172          160          160          160            0 
   55000      -107277    1.4121963 -0.0039799595        150.6        150.6        150.6    43.201499 
   60000   -114345.42    1.4198011 -0.0040813318        141.2        141.2        141.2    86.443884 
   65000   -121800.97    1.4425257 -0.0039021771        131.8        131.8        131.8    129.60995 
   70000   -129966.36    1.4586721 -0.0040423193        122.4        122.4        122.4     172.7384 
   75000   -138356.25    1.3836508 -0.0023436797          113          113          113    215.76555 
   80000      -146883    1.4245538 0.0018591616        103.6        103.6        103.6    258.92885 
   85000   -155449.93    1.4691165   0.01168954         94.2         94.2         94.2     302.1513 
   90000    -163913.5    1.4050329  0.032607633         84.8         84.8         84.8    345.51387 
   95000   -172224.87    1.4831991  0.075745689         75.4         75.4         75.4    389.07367 
  100000   -182650.75    1.4448053    0.1624512           66           66           66     432.9602 
Loop time of 432.96 on 8 procs for 50000 steps with 2304 atoms

Performance: 1995.564 tau/day, 115.484 timesteps/s
99.6% CPU use with 8 MPI tasks x 1 OpenMP threads

MPI task timing breakdown:
Section |  min time  |  avg time  |  max time  |%varavg| %total
---------------------------------------------------------------
Pair    | 9.7898     | 10.029     | 10.276     |   5.8 |  2.32
Bond    | 0.00724    | 0.0079529  | 0.0086422  |   0.5 |  0.00
Kspace  | 384.41     | 385.04     | 385.4      |   1.5 | 88.93
Neigh   | 0.87022    | 0.956      | 1.0288     |   6.0 |  0.22
Comm    | 3.6642     | 4.2375     | 4.8709     |  20.1 |  0.98
Output  | 0.00039528 | 0.0052175  | 0.011662   |   5.5 |  0.00
Modify  | 27.014     | 29.704     | 32.02      |  34.0 |  6.86
Other   |            | 2.984      |            |       |  0.69

Nlocal:        288.000 ave         305 max         268 min
Histogram: 2 0 0 1 0 1 0 2 1 1
Nghost:        6164.25 ave        6189 max        6131 min
Histogram: 1 0 0 2 1 0 1 0 1 2
Neighs:         0.00000 ave           0 max           0 min
Histogram: 8 0 0 0 0 0 0 0 0 0
FullNghs:      247106.0 ave      263437 max      229602 min
Histogram: 2 0 0 1 0 1 1 1 1 1

Total # of neighbors = 1976850
Ave neighs/atom = 858.00781
Ave special neighs/atom = 0.0000000
Neighbor list builds = 330
Dangerous builds = 0

    unfix 1
#    unfix 2
    unfix freeze
    unfix deforming

    timestep 0.002

    fix 1 all   nph	            tri ${ipress} ${ipress} 1.0
    fix 1 all   nph	            tri 0.1 ${ipress} 1.0
    fix 1 all   nph	            tri 0.1 0.1 1.0
    run ${t_pressed}
    run 50000
PPPM initialization ...
  using 12-bit tables for long-range coulomb (src/kspace.cpp:340)
  G vector (1/distance) = 0.11896362
  grid = 32 32 32
  stencil order = 5
  estimated absolute RMS force accuracy = 0.00045532445
  estimated relative force accuracy = 0.00045532445
  using double precision KISS FFT
  3d grid and FFT values/proc = 9261 4096
  generated 0 of 1 mixed pair_coeff terms from geometric mixing rule
Per MPI rank memory allocation (min/avg/max) = 9.322 | 9.338 | 9.384 Mbytes
Step PotEng Temp c_press Lx Ly Lz CPU 
  100000   -182613.36    1.4448053   0.16405231           66           66           66            0 
  105000   -200261.22    1.6303878  0.099784383    61.784146     62.08757    61.721154    15.376597 
  110000   -202203.72    1.5626651  0.098035243    60.925723    61.006347    60.686751    31.050303 
  115000    -203466.2    1.6456626  0.092669408    60.311489    60.596578    60.200654    46.941114 
  120000   -204407.87    1.6250946   0.10350924     60.06982    60.098004    59.969998    62.931519 
  125000   -204805.09    1.6042022  0.095434733    59.989447    60.016555    60.027502    79.005735 
  130000   -204866.43    1.6273421   0.10069349    60.330334    59.849375    59.808659    95.010287 
  135000   -205196.31    1.6293059  0.092619701    59.956299    59.948991    60.097545    111.15299 
  140000   -205238.82    1.6061721   0.10552099    59.602492    59.939959    60.040394    127.15452 
  145000   -205314.95    1.5965871   0.10284846    59.804375    60.030731     59.84347    143.12786 
  150000   -205320.43    1.5967933   0.10571242    59.998068    59.594418    59.877465     159.0915 
Loop time of 159.092 on 8 procs for 50000 steps with 2304 atoms

Performance: 54308.330 tau/day, 314.284 timesteps/s
96.9% CPU use with 8 MPI tasks x 1 OpenMP threads

MPI task timing breakdown:
Section |  min time  |  avg time  |  max time  |%varavg| %total
---------------------------------------------------------------
Pair    | 18.459     | 20.749     | 23.744     |  42.6 | 13.04
Bond    | 0.0039284  | 0.0043257  | 0.0048556  |   0.5 |  0.00
Kspace  | 66.568     | 67.178     | 67.98      |   6.1 | 42.23
Neigh   | 14.467     | 14.88      | 15.339     |   8.1 |  9.35
Comm    | 6.1706     | 6.293      | 6.4056     |   2.9 |  3.96
Output  | 0.00033397 | 0.0004769  | 0.0014499  |   0.0 |  0.00
Modify  | 45.294     | 48.081     | 51.007     |  25.3 | 30.22
Other   |            | 1.906      |            |       |  1.20

Nlocal:        288.000 ave         291 max         281 min
Histogram: 1 0 0 0 1 0 0 0 4 2
Nghost:        7291.50 ave        7319 max        7268 min
Histogram: 1 0 1 1 2 1 1 0 0 1
Neighs:         0.00000 ave           0 max           0 min
Histogram: 8 0 0 0 0 0 0 0 0 0
FullNghs:      334648.0 ave      338389 max      326257 min
Histogram: 1 0 0 1 0 0 0 2 2 2

Total # of neighbors = 2677186
Ave neighs/atom = 1161.9731
Ave special neighs/atom = 0.0000000
Neighbor list builds = 1380
Dangerous builds = 0
    unfix 1
    fix 1 all   nph	            tri ${ipress} ${ppress} 1.0
    fix 1 all   nph	            tri 0.1 ${ppress} 1.0
    fix 1 all   nph	            tri 0.1 0 1.0
    run ${t_relaxed}
    run 100000
PPPM initialization ...
  using 12-bit tables for long-range coulomb (src/kspace.cpp:340)
  G vector (1/distance) = 0.11977717
  grid = 30 30 30
  stencil order = 5
  estimated absolute RMS force accuracy = 0.00045180718
  estimated relative force accuracy = 0.00045180718
  using double precision KISS FFT
  3d grid and FFT values/proc = 8000 3600
  generated 0 of 1 mixed pair_coeff terms from geometric mixing rule
Per MPI rank memory allocation (min/avg/max) = 9.744 | 9.765 | 9.775 Mbytes
Step PotEng Temp c_press Lx Ly Lz CPU 
  150000   -205320.48    1.5967933   0.10571073    59.998068    59.594418    59.877465            0 
  155000   -205464.66    1.5396357  0.097822343    59.955546    60.125366     59.85174    15.506075 
  160000   -205766.48     1.632736   0.08534871    60.026596     60.02973    60.070056    30.963741 
  165000   -205366.78    1.5785878  0.089360194     60.06091    60.231037    59.901723    46.307889 
  170000   -205795.72    1.5637373  0.075535772    60.328469    60.026111    60.130469    61.727474 
  175000   -205852.08    1.6137634  0.077278787    60.108115    60.290147    60.048816     77.24083 
  180000   -205776.85    1.5869527  0.070168696    60.425177    60.192898    60.185944    92.819869 
  185000   -205786.12    1.5849408  0.073542676    60.342062     60.24307    60.182996    108.20838 
  190000   -205750.86    1.5999492    0.0561066    60.623271    60.282256    60.430927    123.53235 
  195000   -205803.12    1.5973124  0.051498185    60.466793    60.261129    60.613797    139.01422 
  200000   -205608.08    1.6036136  0.050319398    60.444829    60.633488    60.530282    154.42517 
  205000   -205710.09     1.636194  0.049314414    60.559755    60.595851    60.482684    169.92196 
  210000   -205790.59    1.5848251  0.035951269    60.841287    60.665683     60.45715    185.30576 
  215000   -205608.09    1.5934832  0.024058311    61.031501     60.63472    61.020792    200.68964 
  220000   -205611.41    1.5779181  0.025766049    61.105393    60.630913    61.041265    216.15884 
  225000   -205778.51     1.621464  0.025204958    60.716582    60.863002    60.971238    231.46747 
  230000   -205551.04    1.5785371  0.015472161    61.092813    61.085392    60.886769    246.78252 
  235000    -205374.8    1.5909754  0.016757392    61.181489    61.203464    60.793842    262.12755 
  240000   -205306.34    1.5734497 0.0099983254    61.205052    61.357446    61.158913    277.52485 
  245000   -205231.04    1.5925377   0.00268787    61.257276    61.437818    61.235627    292.84694 
  250000   -204748.87    1.5945953 -0.00090340493    61.638605    61.348079    61.582238    308.08266 
Loop time of 308.083 on 8 procs for 100000 steps with 2304 atoms

Performance: 56088.821 tau/day, 324.588 timesteps/s
93.9% CPU use with 8 MPI tasks x 1 OpenMP threads

MPI task timing breakdown:
Section |  min time  |  avg time  |  max time  |%varavg| %total
---------------------------------------------------------------
Pair    | 56.358     | 64.464     | 71.528     |  63.7 | 20.92
Bond    | 0.0070569  | 0.0086376  | 0.0098044  |   0.9 |  0.00
Kspace  | 109.32     | 110.21     | 111.97     |   7.6 | 35.77
Neigh   | 30.189     | 30.862     | 32.172     |   9.7 | 10.02
Comm    | 12.463     | 12.711     | 12.975     |   4.2 |  4.13
Output  | 0.00065265 | 0.0009498  | 0.0029728  |   0.0 |  0.00
Modify  | 66.997     | 82.197     | 94.089     | 111.2 | 26.68
Other   |            | 7.632      |            |       |  2.48

Nlocal:        288.000 ave         298 max         283 min
Histogram: 3 0 2 0 1 0 0 1 0 1
Nghost:        7219.62 ave        7231 max        7201 min
Histogram: 1 0 0 0 1 2 1 0 0 3
Neighs:         0.00000 ave           0 max           0 min
Histogram: 8 0 0 0 0 0 0 0 0 0
FullNghs:      307422.0 ave      318310 max      301700 min
Histogram: 3 0 2 0 1 0 0 1 0 1

Total # of neighbors = 2459376
Ave neighs/atom = 1067.4375
Ave special neighs/atom = 0.0000000
Neighbor list builds = 2855
Dangerous builds = 0
    unfix 1

    timestep 0.001
    dump moldump all custom 10000 ${xyzname} id type q x y z vx vy vz
    dump moldump all custom 10000 r8T1.6_coulombic_.8.lammpstrj id type q x y z vx vy vz
    fix 1 all   nph                 tri ${ppress} ${ppress} 1.0
    fix 1 all   nph                 tri 0 ${ppress} 1.0
    fix 1 all   nph                 tri 0 0 1.0
    run ${t_eq}
    run 5000000
PPPM initialization ...
  using 12-bit tables for long-range coulomb (src/kspace.cpp:340)
  G vector (1/distance) = 0.11913688
  grid = 30 30 30
  stencil order = 5
  estimated absolute RMS force accuracy = 0.00048977342
  estimated relative force accuracy = 0.00048977342
  using double precision KISS FFT
  3d grid and FFT values/proc = 8000 3600
  generated 0 of 1 mixed pair_coeff terms from geometric mixing rule
Per MPI rank memory allocation (min/avg/max) = 11.01 | 11.04 | 11.05 Mbytes
Step PotEng Temp c_press Lx Ly Lz CPU 
  250000   -204748.98    1.5945953 -0.0009071486    61.638605    61.348079    61.582238            0 
  255000   -205102.66    1.5738151 0.0021770575    61.236369    61.594855    61.498672    14.304847 
  260000   -205155.93    1.5953223 0.00047505316    61.376439    61.474792    61.385276    28.595914 
  265000   -204944.86     1.636995 8.4624523e-05    61.574657    61.367017    61.544392     42.93047 
  270000   -204825.81    1.6158625 -0.0018480351     61.63066    61.562021    61.613902    57.291061 
  275000   -204977.83    1.5689598 -0.0030408718    61.446828    61.558325    61.534685    71.695148 
  280000      -205057    1.6203802 -0.0033506164    61.390262    61.624197    61.428697    86.102549 
  285000   -205165.66    1.5969165 -0.0096170615    61.307967    61.486729    61.569074    100.45472 
  290000   -205142.66    1.5277596 0.0062784783    61.191182    61.414814    61.463678    114.83243 
  295000   -205160.42    1.5686454 0.0056450288    61.300602    61.284167    61.402903     129.1287 
  300000   -205217.59    1.6211586 0.0014916669    61.244569    61.414699    61.446814    143.35865 
  305000   -205145.32    1.6403717 -0.0038550155    61.455892    61.404913    61.600553    157.74575 
  310000   -204964.83    1.6300767 0.0032864321    61.305503    61.527148    61.398379    172.19718 
  315000   -205033.23    1.5791461 -0.00087429398    61.506012    61.217218    61.601873    186.64369 
  320000   -205026.08    1.5598072 -0.0012172866     61.35515    61.421587    61.446865     200.9863 
  325000   -204940.81    1.6084653 -0.0030867833     61.49874    61.498016     61.56108    215.28351 
  330000   -205058.25    1.5896698 0.00016973042    61.601773    61.255778    61.348507    229.66228 
  335000   -204633.19    1.6129958 0.0025469927    61.408219    61.557913    61.600149    243.96886 
  340000   -204808.51    1.5769885 -0.0069217377    61.536045      61.7968    61.493016    258.40432 
  345000    -204814.3    1.6066047 -0.004390618    61.812103    61.531423    61.544314    272.69792 
  350000   -205033.73    1.5825808 0.0022391022    61.436924     61.56984    61.406338     287.0886 
  355000   -204980.77    1.5639669 -0.00062572212    61.487522    61.646999    61.361501    301.46239 
  360000   -204965.23    1.5825519 -0.0028394036    61.456315    61.494426    61.544475    315.78788 
  365000   -204969.91     1.614061 0.00019546586    61.374026    61.651978    61.328007    330.09932 
  370000   -205093.31    1.5962912 0.0010521405    61.576247    61.278554    61.478573    344.44129 
  375000   -205273.07    1.5809179 0.0034963108    61.470535     61.25503    61.418472    358.87777 
  380000   -204947.83    1.6190425 -0.0042384439    61.412461    61.647949    61.617763    373.21893 
  385000   -204991.24    1.5920789 0.0011563889    61.430196    61.245862    61.676598    387.48083 
  390000   -205126.32    1.6068723 0.0035458017    61.378964    61.295052    61.516101    401.86503 
  395000    -205006.9    1.5727919 -0.0076007854       61.663    61.480298    61.483119    416.23835 
  400000   -205225.97    1.6140904 -0.0023591093    61.446598    61.410443    61.473202    430.63405 
  405000    -205113.1     1.578243 -0.0012599894    61.532292    61.341606    61.616155    445.10955 
  410000    -204911.6    1.6099186 -0.00056407325    61.556146     61.60576    61.426081    459.48248 
  415000   -204972.14    1.5889172 0.0020696228     61.28147    61.678147    61.539478    473.81468 
  420000   -204752.81    1.5661096 -0.0065380874    61.786409    61.540557    61.628005    488.16852 
  425000   -204861.06    1.6660909 0.0018859448    61.431209    61.674085    61.561213    502.49592 
  430000   -204839.26    1.6112868 0.0012912342    61.366535    61.266525     61.83045    516.86701 
  435000   -205163.66    1.5664193 -0.0031156675     61.45222    61.486137    61.488156    531.17778 
  440000   -205033.84    1.6369328 -0.0023523163    61.361862    61.392898    61.742595    545.59238 
  445000   -204892.97    1.6540987 0.0033542071    61.310336    61.550793    61.641769    559.93949 
  450000   -204731.54    1.5906129 0.0014194047    61.585374    61.492462    61.649789    574.26527 
  455000   -204806.94    1.6008785 -0.0025320286    61.618155    61.554955    61.663178    588.67126 
  460000   -204765.25    1.6813322 -0.002744295    61.416499    61.622277    61.817097    603.05211 
  465000   -204669.35    1.6168067 -0.0034956794    61.532516    61.640282    61.731047    617.38561 
  470000    -204920.5    1.5974495 -0.0033631288    61.540482     61.66815    61.554677     631.7018 
  475000   -204795.77    1.6053782 0.0064689265    61.606989    61.315492    61.732176    646.04915 
  480000   -204646.07    1.5825332 -0.0014402574    61.635438    61.531672    61.666289    660.49514 
  485000    -204814.3    1.6006171 -0.0061343912    61.485098    61.483017    61.770511    674.94954 
  490000    -204951.4      1.58044 0.0027122479    61.423738    61.393565    61.632444    689.35403 
  495000   -204792.11    1.5877945 -0.00097622134    61.398172    61.793619    61.648476    703.74662 
  500000   -204852.93    1.6326361 0.0036858951    61.407039    61.611268    61.585879    717.94952 
  505000   -204872.12    1.5862141 -0.00072415993    61.415841    61.443131    61.898357    732.27773 
  510000   -204789.12    1.5885921 -0.0027047888    61.642616    61.638802    61.659748    746.70757 
  515000   -204673.04    1.5901063 -0.0037895791    61.464449    61.841115    61.501602    761.08004 
  520000   -204944.56    1.6405798 -0.0020230304    61.746454    61.411675    61.439835    775.41546 
  525000   -204893.23    1.5923926 0.00069556251    61.506969    61.574508    61.533894    789.79594 
  530000   -204942.23    1.5719017 -0.0011744108    61.571171    61.583915    61.494123    804.14657 
  535000   -204910.88    1.6152688 -0.0032192585    61.405636    61.474033    61.752728    818.48843 
  540000   -204920.32    1.6432988 -0.0013732378    61.683407    61.675995    61.316185    832.88266 
  545000    -204728.4    1.5544184 -0.0061091521    61.705053    61.555841    61.616732    847.23483 
  550000   -204796.66    1.5866571 -0.00065508418     61.64969     61.40286    61.434236    861.51347 
  555000   -204827.03    1.5965214 -0.0042637998    61.631363    61.636068    61.460209    875.90713 
  560000   -205004.05     1.617495 0.0061174196    61.495203    61.379866    61.295548     890.2869 
  565000   -204819.36    1.6043461 -0.0039948839    61.590501    61.640656    61.402116    904.71138 
  570000   -204933.04    1.5564543 0.0024122596    61.456222    61.427798    61.540216    919.09332 
  575000   -204991.04    1.6090678 0.0017507109    61.458383    61.453691    61.435831    933.45695 
  580000   -204906.02    1.6273883 0.00076418108    61.703162    61.357741    61.391304    947.76799 
  585000   -204921.09    1.5656808 0.00014816969    61.533181    61.493438    61.492581    962.16725 
  590000    -204872.3    1.6053123 -0.0046951968    61.673389    61.265563     61.90731    976.44331 
  595000   -204882.95    1.5993295 0.0027817819     61.48737    61.634345    61.443108    990.70218 
  600000   -204991.83    1.5949846 -0.0059379923    61.723952    61.357746    61.478214    1005.0392 
  605000   -204955.37    1.6285487 -0.0040355372    61.731028     61.45621    61.406511    1019.3288 
  610000   -204701.32    1.6240003 9.2256732e-05    61.675694    61.318487    61.794275    1033.6446 
  615000   -204916.75    1.6162778 0.00048282137    61.755072    61.330344    61.291224    1047.9351 
  620000    -204916.6     1.548208 -0.0024092014    61.435243    61.397449    61.776641    1062.3551 
  625000   -204959.85    1.5939865 -0.0022682317    61.636198    61.530667    61.539325    1076.7842 
  630000   -204696.33    1.6090597 0.00084164345    61.438595    61.688972    61.528889    1091.1308 
  635000   -204796.17     1.604569 0.0034810457    61.797677     61.42629    61.387305    1105.3272 
  640000   -204974.94    1.6153168 0.0016160349    61.528327    61.454261    61.379065    1119.6418 
  645000   -204614.59    1.6271188 -0.0036033855    61.692189    61.502093    61.573771    1134.0105 
  650000    -205172.8    1.6313205 -0.00082730526    61.606075    61.420915    61.289873    1148.4404 
  655000   -204999.74    1.6149064 0.0018058141    61.284274     61.70709    61.473966    1162.8352 
  660000   -205019.25    1.5843169 0.0013416714    61.558943    61.606575    61.235854    1177.1895 
  665000   -204985.18    1.6059326 -0.0020432678    61.457664    61.489964    61.559732    1191.4833 
  670000   -205063.56     1.585606 0.0076792488     61.11263    61.412679    61.561419    1205.7936 
  675000   -204932.69    1.5774073 0.0030605348     61.28066    61.729594    61.348525     1220.102 
  680000   -205122.27    1.5782879 -0.00088020098    61.504338    61.454847    61.284578    1234.4247 
  685000   -205010.85    1.5700421 -0.001493498    61.585929    61.354746    61.549872    1248.8416 
  690000    -204984.7    1.6272106 -0.0025623849      61.6505    61.442451    61.390069    1263.2558 
  695000   -204860.81    1.6009247 -0.0056105381    61.554955    61.620309    61.568605    1277.6778 
  700000   -205055.26    1.6166237 0.0017056776    61.180991    61.509359    61.735703    1292.0737 
  705000   -205089.91    1.5565863 0.0059639774    61.483173    61.307373    61.474043    1306.3528 
  710000   -205180.99    1.6085621 0.0035222365    61.436541     61.33663    61.495901    1320.6806 
  715000   -205177.81    1.5742132 -0.0059689431    61.519953    61.442545    61.617303    1335.0121 
  720000   -205116.99    1.6053941 -0.0020702332    61.586776    61.418774    61.569509    1349.4367 
  725000   -205225.65    1.5949598 0.0013765636    61.382392    61.250229    61.658024    1363.8445 
  730000   -205082.43    1.5994291 -0.0033832204    61.373685    61.486721    61.692829    1378.2682 
  735000   -204971.26    1.5992799 -0.0036866334    61.664186    61.501742     61.48727    1392.6166 
  740000   -204991.61     1.638423 0.0016928475    61.517495    61.488865    61.394829    1406.9405 
  745000    -205105.8    1.5836791 0.0021242097    61.312554    61.484859    61.531435    1421.2672 
  750000   -204976.27    1.6102726 -0.0019680911    61.459688     61.61255    61.499687    1435.5289 
  755000    -204902.7    1.6125064 0.0050377607     61.35258    61.644733    61.501612    1449.8632 
  760000   -205031.67    1.6486875 -0.0027007329    61.500254    61.525763     61.51339    1464.2395 
  765000   -204946.07    1.6098626 -0.0066721657    61.735171     61.61908    61.535553     1478.558 
  770000   -205015.22     1.613253 -0.0001790971    61.615196    61.333815    61.664238    1492.9166 
  775000   -204837.97    1.6113435 -0.002461624    61.664801    61.594541    61.475339    1507.3025 
  780000   -204871.26    1.6325601 -0.0044206468    61.754323    61.149059    61.666058    1521.6195 
  785000    -204854.2    1.5617678 0.0005060342    61.357086    61.507393    61.651582     1535.835 
  790000   -204904.51    1.5763666 0.0025102713    61.516252    61.370248    61.511207    1550.1992 
  795000   -204754.93    1.5925218  0.001053227    61.561577    61.488062    61.452619    1564.4812 
  800000   -204959.69    1.5839279 0.0022883108    61.311431    61.527117    61.466982    1578.8728 
  805000   -204971.01    1.5801168 0.0011610986    61.376774     61.55758    61.500694    1593.1748 
  810000   -204723.12    1.5761388 -0.00039629235    61.785224    61.386732    61.429051    1607.6409 
  815000   -204723.04    1.5865655 -0.0015903711    61.419014    61.568907    61.648739    1622.0407 
  820000   -205016.54    1.5837864 1.4518881e-05    61.425151    61.575533    61.547825    1636.3459 
  825000   -205097.69    1.6191957 -3.7819634e-05    61.349731    61.479656    61.502742    1650.6794 
  830000   -205002.95    1.5756107 -0.0015020806    61.568876    61.417401     61.41939     1665.127 
  835000   -205003.01    1.6418624 -4.9733301e-05    61.512449    61.533515    61.391254    1679.4904 
  840000   -204922.92    1.6125754 -0.0020659262    61.625686    61.504438    61.416361    1693.9169 
  845000   -204969.59    1.6062903 0.0037906286    61.570477    61.493488     61.24514    1708.2297 
  850000   -205009.18    1.5731975 0.00031947131    61.470448     61.48606    61.529717    1722.5672 
  855000   -205032.67    1.6081445 0.0010593883    61.461757    61.434542    61.415604    1736.8146 
  860000   -205365.74    1.5329752 -0.0070666297    61.493386    61.601036    61.213019    1751.1186 
  865000   -205035.74    1.5865634 0.0015862028     61.30524    61.358789    61.524294    1765.4228 
  870000   -205039.59    1.5707069 -0.0017379705    61.456424    61.521164    61.372575    1779.7453 
  875000   -205144.68    1.6237606 0.0015981691    61.429586    61.233051    61.738603    1794.0004 
  880000   -204900.25    1.5496431 -0.0017428936     61.35431    61.738646    61.614477    1808.3646 
  885000   -204960.76    1.6039944 0.0070995737    61.495598    61.554196    61.266937    1822.6966 
  890000   -205066.32    1.6193952 -0.001318247    61.643225    61.440937    61.328406    1837.0121 
  895000   -205054.15    1.6225799 -6.5549812e-05    61.435073    61.439948    61.589505    1851.4001 
  900000   -205000.35    1.5905051 -0.00011826407    61.340604    61.401623    61.611942     1865.709 
  905000   -205199.28    1.5884561 0.0094634951    61.152153    61.412971    61.321369    1879.9849 
  910000   -205034.22    1.6399172  0.004346069    61.533402    61.541009    61.197085    1894.3257 
  915000    -205028.6    1.6324582 -0.0025032874    61.417097    61.587045    61.448434    1908.6743 
  920000    -204959.4    1.6125881 0.0050506855    61.424695    61.479001    61.514641    1922.9909 
  925000   -205037.06    1.5897897 -0.005312317    61.476767    61.409859    61.663974    1937.3495 
  930000   -204988.94    1.5441719 0.0030644062    61.420778    61.443806    61.496186    1951.6954 
  935000   -204810.81    1.6335943 0.0039007823    61.414319     61.36615    61.548284    1965.9773 
  940000   -204990.35    1.5673785 0.0066083538    61.328133    61.587652    61.117724    1980.3109 
  945000   -204924.47     1.546961 0.00035343344    61.495531     61.45338    61.616148     1994.671 
  950000   -204851.08    1.5882445 -0.00014601487    61.380984    61.711823    61.564407    2009.0454 
  955000   -204825.24    1.6009836 -0.0020388273    61.697931     61.37724    61.580561    2023.3526 
  960000   -204945.38    1.5890712 -0.0012034088    61.480572    61.563782    61.572665    2037.6486 
  965000   -204743.09    1.5824771 0.0031847344    61.650116    61.487783    61.508697    2051.9479 
  970000   -204851.37    1.5843184 -0.00069532073    61.625264    61.658481    61.314908     2066.269 
  975000   -204951.45    1.6132493 0.00010118614    61.479227    61.557773    61.452948    2080.6249 
  980000    -205061.7    1.5477759 -0.0014769441    61.474422    61.390171    61.430168    2094.9459 
  985000   -204987.74    1.6234495 0.00013817047    61.383117    61.500586    61.513087    2109.3376 
  990000   -204815.63    1.5738319 -0.00023790469    61.531773    61.414536    61.598558    2123.6475 
  995000   -204651.31    1.6191318 -0.0003529022     61.41498    61.582498     61.72277    2138.0533 
 1000000   -204863.57    1.5873915 0.0067367828    61.665443    61.090384    61.517566    2152.3536 
 1005000   -204475.31    1.5597864 -0.0010178447    61.871271    61.424508    61.589519    2166.6427 
 1010000   -204681.41    1.5978189 0.0038197349    61.472562    61.577855    61.521682    2181.0463 
 1015000   -204778.24    1.5880847 0.0015940875    61.385682       61.405    61.729586    2195.3872 
 1020000   -204824.71    1.5815888 -0.0043989961    61.368809    61.631564    61.624407    2209.6573 
 1025000    -204675.5    1.5975828 0.0027122698    61.474731    61.436403     61.55221    2223.9325 
 1030000   -204888.92    1.5478596 0.0042239308    61.712095    61.261105    61.305558    2238.2739 
 1035000    -205020.6     1.560344 0.0017970169    61.204877    61.573384    61.357914    2252.5628 
 1040000   -204713.83    1.6602949 0.00098551575    61.327605    61.593392    61.593435    2266.9106 
 1045000   -204930.53    1.6382042 0.0010421454    61.381485    61.572665    61.494279    2281.2554 
 1050000   -204837.13    1.6286133 -0.00082247296    61.478224    61.447779    61.611765    2295.6468 
 1055000   -205024.34    1.5751105 -0.0011736995    61.431666    61.636934    61.216158    2309.9268 
 1060000   -204784.74    1.5701721 -0.0077276601      61.8257    61.567196    61.515693    2324.2848 
 1065000   -204763.44    1.6168113 0.0042645828    61.642175    61.487378    61.338312    2338.6072 
 1070000    -204648.8    1.5632204 -0.0012419791    61.521198    61.365817    61.734582    2352.8939 
 1075000   -205006.05    1.6363687 0.00095031239     61.45094     61.43058    61.383855    2367.1775 
 1080000   -204900.09    1.5937427 0.00061817799    61.688102     61.58969    61.284871    2381.4448 
 1085000   -204744.35    1.6076254 0.0015984604     61.65088    61.471966    61.537665     2395.823 
 1090000   -204765.65    1.5627885 -0.0049940387    61.511534    61.615667    61.755792    2410.1207 
 1095000   -204788.93    1.5802209 0.0024326897     61.68851    61.456787    61.558794    2424.3536 
 1100000   -204568.45    1.5956219 -0.0027095884    61.760734    61.518806    61.715232    2438.6532 
 1105000   -204585.03    1.5953022 0.0011171931     61.82038    61.599103    61.454259     2453.003 
 1110000   -204718.84    1.5987527 -0.00053734052    61.637462    61.578424    61.648295    2467.2488 
 1115000   -204826.55    1.6213546 0.00044580648    61.585305    61.474552    61.601467    2481.6136 
 1120000   -204944.41    1.5623005 -0.0027310331    61.449599    61.430493    61.739002    2495.9431 
 1125000   -204748.75    1.5918879 -0.0085937197    61.614339    61.614726    61.616798     2510.184 
 1130000   -204917.85    1.5798594 0.0021768238    61.454495    61.375509    61.398489    2524.4856 
 1135000   -204742.02    1.5837422 -0.0023638311    61.736524    61.250642    61.535785    2538.9216 
 1140000   -204872.93      1.60265  0.005709582    61.297718    61.184904    61.705772     2553.192 
 1145000   -204773.38    1.6504301 -0.0041048856    61.732216    61.394633    61.736996     2567.448 
 1150000   -204645.11    1.5667243 0.0042843458    61.670998    61.299447    61.396436    2581.7078 
 1155000   -204716.43    1.6213276 0.00092674047    61.590742    61.244779    61.608654    2596.0094 
 1160000   -204877.12    1.6110052 -0.001638146    61.668826    61.188229    61.639295    2610.3224 
 1165000   -204935.59    1.5825195  0.006256128    61.660816    61.317052     61.21727    2624.7044 
 1170000   -204905.63    1.6027002 0.0005115501    61.459989    61.580812    61.444189    2639.0692 
 1175000   -204842.04    1.5809136 0.0012150318    61.303359     61.45153    61.762468    2653.4925 
 1180000   -204894.68    1.5969349 0.0001058129    61.575307    61.399913    61.482287    2667.8283 
 1185000   -204869.63    1.6039796 0.0010172144    61.408448    61.562302    61.450901    2682.1465 
 1190000    -204872.2    1.5667586 0.0011056175    61.378171    61.536759    61.514764    2696.4624 
 1195000   -204996.45    1.6135133 0.00081092288    61.397719    61.216896    61.766356    2710.7572 
 1200000   -205113.72    1.6397601 0.0054209961    61.257816    61.239288    61.567335    2725.0735 
 1205000   -204902.85    1.6124526 -0.00010696312    61.300402    61.483174     61.59435    2739.3946 
 1210000   -204916.89    1.6049116 0.00053774696    61.392577    61.524601    61.653503    2753.6656 
 1215000   -204847.91    1.6632807 0.00074121924    61.675616     61.27643    61.597112    2767.9435 
 1220000   -204799.33     1.572887 -0.0013572618    61.516624    61.783682    61.396888    2782.2147 
 1225000   -204799.66    1.6380145 0.0048858699    61.471511    61.611369    61.364312    2796.4925 
 1230000    -204676.6    1.6025797 0.0065635527    61.447676    61.398976    61.673005    2810.7438 
 1235000   -204814.57    1.6442825 -0.00089620085    61.532449    61.423417     61.78347    2825.1402 
 1240000   -204733.49    1.5997833 0.00068188807    61.382924    61.627135    61.626853    2839.3784 
 1245000   -204663.14    1.6778495 0.0042875077    61.697695     61.29163    61.560134    2853.8338 
 1250000   -204992.77    1.6000041 0.0067782142    61.337287    61.367889    61.505097    2868.1777 
 1255000   -204896.29    1.6062053 0.0025922699    61.307846    61.700689    61.372222    2882.5185 
 1260000   -205097.52    1.5911024 -0.0012906871    61.707336    61.349106    61.292107    2896.8931 
 1265000   -204835.04    1.6561453 0.00010348651    61.576725    61.357158    61.625485    2911.2514 
 1270000   -204672.61    1.5844314 -0.0012985516    61.327018      61.8035     61.54951    2925.6511 
 1275000   -204958.95    1.5824847 0.0030051736    61.282319    61.573954    61.510926    2939.9662 
 1280000   -205207.35    1.5894201  0.004026775    61.546589    61.211051    61.403277    2954.3282 
 1285000   -205161.84    1.6034631 -0.0043790637    61.660322    61.294467    61.474737    2968.6929 
 1290000   -205072.41    1.6117163 -0.00049870687    61.446814    61.680617    61.392505    2983.0213 
 1295000   -205114.94    1.6341091 0.00097319215    61.524176    61.574501    61.260557    2997.3294 
 1300000   -205156.93    1.6090739 0.0039991866    61.496722    61.184493    61.311258    3011.7805 
 1305000    -205033.5    1.6176056 -0.0018821057      61.3884    61.578111    61.458736    3026.0812 
 1310000   -205111.15     1.540052 0.0021035464    61.450724    61.265535    61.415683    3040.3984 
 1315000   -205168.48    1.6018373 -0.00057678333    61.523659    61.152282     61.62318    3054.7291 
 1320000   -204930.88    1.6179723 -0.00050145093     61.37594    61.453547    61.547608    3069.0316 
 1325000    -204975.2    1.5844173 0.0063100452     61.47429    61.471096     61.40727     3083.359 
 1330000   -205089.89    1.6126008 0.0029142111    61.461631    61.266672    61.656574    3097.7511 
 1335000   -204902.36    1.5999134 -0.0038089035    61.425834     61.80989    61.394768     3112.036 
 1340000   -204835.82     1.615578 -0.00082008029    61.462775    61.527964    61.555921    3126.3486 
 1345000   -204999.09    1.5896591 -0.0019328926    61.521892    61.479433    61.445572    3140.6272 
 1350000   -205046.42    1.5899483 0.00095514834    61.541435    61.455006     61.36267    3154.9914 
 1355000   -205303.38    1.6364589 0.0021305587    61.265088    61.317766    61.482409    3169.3106 
 1360000   -205276.45    1.6410568 -0.0053076394    61.527994    61.492974    61.443699    3183.7423 
 1365000   -205209.69    1.5766646 0.0054851687    61.323825    61.467535    61.111785    3198.1488 
 1370000   -205089.79    1.5372325 -0.0084585284    61.327455     61.49595    61.648886    3212.4611 
 1375000    -205008.2    1.5570511 0.0021927988    61.365026    61.302333     61.65988    3226.8351 
 1380000   -205083.48    1.5805993  0.004816033    61.283906    61.525782     61.39702     3241.194 
 1385000   -204918.34    1.6368089 -0.0097876866    61.803975    61.502019    61.543918    3255.5013 
 1390000    -205012.7    1.6097865 0.0033689423    61.569713    61.359454    61.404972     3269.729 
 1395000   -205027.37    1.6206447 0.0035965791    61.332486    61.376265     61.52491    3284.0049 
 1400000   -205012.63    1.6196473 -0.0032736271    61.526477    61.609935    61.377634    3298.3749 
 1405000   -205122.37    1.5991278 0.0023703087    61.465595    61.394018    61.334628    3312.6881 
 1410000   -204953.79    1.6287582 0.0027337627    61.365522    61.462896    61.503342    3327.0514 
 1415000   -205173.04    1.5836098 0.0053585305    61.211729    61.328004    61.394275    3341.4001 
 1420000   -205225.24    1.5756173 0.0013156913    61.106856    61.573287    61.406182    3355.6903 
 1425000   -205037.95    1.5704947   0.00396277    61.334532    61.258431    61.525816    3370.0529 
 1430000    -205076.7    1.6065402 -1.5674413e-06    61.433755    61.302613    61.528173    3384.4675 
 1435000    -204998.7    1.5534792 -0.0045395678     61.61026    61.512873     61.45246    3398.8783 
 1440000    -204885.1    1.6372293 0.0051009534    61.543006    61.541861     61.38947    3413.1569 
 1445000   -205043.39    1.5904375 0.00086598904    61.653369    61.239244    61.334907    3427.5062 
 1450000   -204762.29    1.5891188 -0.0016052844    61.554589    61.634904    61.512117    3441.8219 
 1455000   -204913.52    1.5818171 0.0018483528    61.243426    61.603311    61.692154    3456.1149 
 1460000   -205085.72    1.6292175 -0.00075292172    61.457463    61.535339    61.503785    3470.4965 
 1465000   -204964.17    1.6192716 -0.0024752004    61.555278    61.575224    61.634558    3484.8173 
 1470000   -204908.32    1.5706232 -0.00072404281     61.50619    61.501406    61.592584    3499.0824 
 1475000   -205032.15    1.5880577 0.00067014753    61.556429    61.495428    61.389284    3513.4318 
 1480000   -204952.63     1.608174 0.0052092508    61.429881    61.422948    61.320065    3527.7427 
 1485000   -204975.22    1.6245338 0.00074237932    61.450513    61.225527     61.73122    3542.0797 
 1490000   -205004.79    1.6183915 -0.0016544082    61.562096    61.629004    61.353756    3556.3898 
 1495000   -204986.04    1.5603158  0.002719761    61.426993    61.466439     61.45546    3570.6748 
 1500000   -205164.03    1.6438056 6.7371813e-05    61.182518    61.550532    61.707924    3585.0053 
 1505000   -204843.51    1.5999334 -0.0044819357    61.828235    61.467699    61.523498    3599.2966 
 1510000   -204873.44    1.6088159 -0.0013115688    61.568472    61.457962    61.598289    3613.6863 
 1515000   -204884.74    1.5564911 0.0020470153    61.517689    61.526389    61.431248    3628.0732 
 1520000   -204954.18     1.584728 0.0024282913    61.483435    61.640348    61.440858    3642.3361 
 1525000    -204911.1    1.5950533 -0.0041811923    61.559433    61.420503    61.651135    3656.5501 
 1530000   -204929.49    1.6079698 -2.401052e-06    61.671237    61.277847    61.564689    3670.8887 
 1535000   -204981.38    1.5933738 0.0040344242    61.227713    61.278854    61.769781    3685.2336 
 1540000   -205079.32    1.6185338 0.0033350799    61.346534    61.176751    61.481494    3699.5615 
 1545000   -205070.32     1.574931 -0.0012901716    61.653339    61.323325    61.438992    3713.8464 
 1550000   -205054.62    1.6440061 -0.00032304824     61.55918    61.450185    61.430148    3728.2821 
 1555000   -204902.15    1.5865852 0.00047879398    61.766576    61.473542    61.396575    3742.6753 
 1560000    -205024.4    1.6263522 -0.0034099203    61.516098    61.639278    61.486967      3756.97 
 1565000   -204951.88    1.5602844 0.00084347464    61.681329    61.601287     61.27233     3771.315 
 1570000   -204717.51    1.6519455 0.0036499301    61.417533    61.646252    61.587453    3785.6871 
 1575000   -204780.79    1.5984808 0.0069152022    61.475799    61.615416    61.480036    3800.0115 
 1580000   -204713.82    1.5878467 -0.0028836556    61.652674    61.715192    61.531604    3814.3085 
 1585000   -204779.78    1.5761082 0.0088299409    61.407997    61.457486    61.569022    3828.6127 
 1590000    -204954.3    1.5974251 0.0022079312    61.495494    61.416275    61.466793     3842.889 
 1595000    -204977.5     1.564524 -0.0042138079    61.557156    61.665326    61.199371    3857.2262 
 1600000   -204738.15    1.6388805 0.00057598353    61.356233    61.572277    61.431959    3871.4922 
 1605000    -204925.6     1.540092 -0.004975093    61.654151    61.424315    61.398374    3885.8283 
 1610000   -204660.81    1.6288501 -0.0038827418    61.644809    61.579679    61.538601    3900.2154 
 1615000   -204899.97    1.6063758 -0.00033638421    61.540291    61.702956    61.462943    3914.5234 
 1620000   -204723.01    1.6299612   0.00240784    61.490714    61.661012    61.407878    3928.8676 
 1625000   -204762.04    1.5868066 -4.2380764e-05    61.254047    61.628299    61.637786    3943.1356 
 1630000   -204773.79    1.6081344 0.0019222463    61.549593    61.482251    61.464972    3957.4811 
 1635000   -204559.92    1.6265325 0.00018673873    61.558309    61.515673    61.634662    3971.8959 
 1640000   -204691.45    1.6252658 -0.0041467519    61.669566    61.668957    61.460568    3986.2371 
 1645000   -204625.43    1.6093469 0.0054372709    61.519019    61.370521    61.560597     4000.603 
 1650000   -204761.77    1.6149405 0.0073277522    61.335788    61.453788     61.55484    4014.8708 
 1655000   -204694.43    1.5324536 0.00043468757    61.412204     61.70331    61.500362    4029.1001 
 1660000   -204665.93     1.585761 0.0049892014    61.531218    61.388415    61.652432    4043.3681 
 1665000   -204718.49    1.5848351 -0.0031656513    61.516949    61.425034    61.911237    4057.6251 
 1670000   -204905.01    1.5963091 0.0018786209    61.468668    61.446005    61.640527    4071.8965 
 1675000    -204904.9    1.5940274 0.0064900803    61.454503    61.560736    61.425661    4086.1725 
 1680000   -205125.01    1.6328324 3.2379678e-05    61.433116    61.228263    61.576204      4100.51 
 1685000    -205032.4    1.6116612 -0.001641694    61.423475    61.329653    61.669776    4114.8097 
 1690000   -205082.93    1.5307644 0.00032824152    61.321879    61.343848    61.662442    4129.1347 
 1695000   -204879.12    1.5826154 -0.0029292378    61.559767    61.736531    61.276017    4143.5819 
 1700000   -205053.42    1.6059509 -6.1347342e-05    61.433525    61.567076    61.408877    4157.9589 
 1705000   -204885.28    1.5646664 -0.0029927558    61.543716    61.440473    61.567898    4172.3401 
 1710000      -204785    1.6077327 -0.0077203463    61.604095    61.726141    61.600594    4186.7318 
 1715000   -205026.15    1.6076914 0.0035824711      61.6378    61.499494    61.283388    4201.0709 
 1720000    -204830.5    1.5901738 0.0025903879    61.479158    61.548742    61.546196     4215.414 
 1725000   -204891.55    1.5949463 0.00028751892    61.109237    61.857914    61.631288    4229.6869 
 1730000   -204863.06      1.59819 0.00036114514    61.387547    61.689589    61.401398    4244.0552 
 1735000   -204848.74    1.6225914  0.002451625    61.377921    61.463836    61.558288    4258.3374 
 1740000   -204919.32    1.5677223 0.0033912406    61.333376    61.552752    61.437069    4272.5977 
 1745000   -204941.66     1.611858 0.0020860263    61.566438    61.444317    61.316018    4286.8915 
 1750000   -204975.18    1.5740357 -0.0054062145     61.55189    61.540933    61.444476    4301.2216 
 1755000   -204748.87    1.6074846 0.0034010293    61.444767    61.707125    61.338552    4315.5179 
 1760000   -204939.89    1.5651795 -0.0013882402    61.480588     61.43066    61.456673    4329.8124 
 1765000   -204961.24    1.6060582 0.0032811581    61.517649     61.65948    61.264367    4344.0856 
 1770000   -204742.18    1.6273058 0.0010359851     61.92478    61.681174    61.039922    4358.2863 
 1775000   -204791.07    1.6281495 0.00055527774    61.678757    61.633785    61.335184    4372.5767 
 1780000   -204942.05    1.6534213 0.00059695734    61.656432    61.430298    61.449642     4386.808 
 1785000   -205062.46    1.6372262 0.00059821108     61.47998    61.497765    61.583816    4401.1393 
 1790000   -205016.18    1.6107654 3.4024629e-05    61.603489    61.482607    61.396884    4415.4388 
 1795000   -204824.33    1.5543491 -0.0028782506    61.413591    61.591635    61.692709    4429.7555 
 1800000    -204846.3    1.5957438 -0.00077307985      61.5408    61.550073    61.553847    4444.0388 
 1805000   -204941.39    1.5536214 0.0049089663    61.377408    61.448302    61.386923    4458.3253 
 1810000   -204955.65    1.5884864 -0.0018415432    61.261615    61.580942    61.518601    4472.6544 
 1815000   -205059.51    1.5751875 0.00094560506    61.518101     61.25288    61.399465    4486.9725 
 1820000   -204989.95     1.563368 0.0021794865    61.563594    61.284576    61.462902     4501.371 
 1825000   -205253.82    1.6102504 0.0077222582    61.314948    61.206489    61.316971    4515.7596 
 1830000   -204860.07    1.6137741 0.0023609567    61.531942    61.383593    61.524541    4530.1514 
 1835000   -204860.21     1.611927 0.0039591977    61.925133    61.367845    61.137571    4544.4696 
 1840000   -204907.25    1.6334973 0.0020660072    61.539756    61.430022    61.466482    4558.8835 
 1845000   -204730.52    1.6222531 0.00092774105    61.514566    61.666083    61.559304    4573.2051 
 1850000   -204736.54    1.6276314 -0.00041131775    61.424969    61.637595    61.633599     4587.504 
 1855000   -204399.27    1.6401499 0.0018679861    61.547437    61.649359    61.754914    4601.7368 
 1860000   -204653.49     1.601749 0.0052794386    61.651351    61.391539    61.731619    4616.0523 
 1865000   -204616.73    1.5777249 -0.0060237999    61.610058    61.655526    61.623939    4630.2776 
 1870000   -204798.59    1.5796263 -0.0022897029    61.434454    61.446612    61.771854    4644.6834 
 1875000   -204608.38    1.5896859 -0.0052478334    61.697358    61.618951    61.703657    4658.9654 
 1880000   -204758.54    1.5909584 -1.3467681e-05     61.76434    61.346321    61.529734     4673.432 
 1885000    -205048.2    1.5958902 0.0038389194    61.376122    61.559578    61.428341     4687.827 
 1890000   -204869.64    1.6113235 -0.0022506683     61.34097    61.848105    61.377075    4702.1816 
 1895000   -205051.45    1.5670983 -0.0013105082    61.603857     61.35931    61.435308    4716.4664 
 1900000   -204924.96    1.6320062 0.0046900503     61.42523    61.449516    61.482826    4730.7888 
 1905000   -204850.46    1.5798899 0.0013329857    61.685035    61.334224    61.437309    4745.0429 
 1910000   -204910.89    1.6374384 -0.0018533658    61.319259    61.535287     61.56986    4759.3345 
 1915000   -204876.45    1.5867782 -0.0016682356    61.812405    61.232539    61.620434    4773.7909 
 1920000   -204920.53    1.6058287 0.0044469729    61.658027    61.434781    61.325952    4788.1999 
 1925000   -204864.94    1.6142651 0.0024271792    61.495927    61.652141    61.496855    4802.5329 
 1930000   -204945.97    1.6033302 -0.0012178083      61.5188    61.380315    61.728945    4816.8885 
 1935000   -204986.59     1.558342 -0.0034951613    61.296867    61.533184    61.636454    4831.1475 
 1940000    -204780.3    1.5764904 -0.0026240667    61.455351    61.812966    61.450727    4845.4859 
 1945000   -204943.95    1.6041998 -0.0017626839    61.632823    61.550181    61.406445    4859.8021 
 1950000   -204861.32     1.593226 0.0045897119     61.73748    61.453714    61.405246    4874.1204 
 1955000   -205060.63    1.6586232 0.0030094746    61.531275    61.235926    61.573727    4888.3805 
 1960000   -204885.72    1.6204399 -0.0026116287    61.687252    61.301069    61.590147    4902.7255 
 1965000   -204909.38    1.6017261 -0.0019459257    61.780634    61.351344    61.519765    4917.1366 
 1970000   -204931.75    1.5823764 -0.0029182267    61.655279    61.352776    61.602405    4931.4178 
 1975000   -205115.67    1.6467891  0.004102558     61.38674    61.359672    61.375367    4945.7217 
 1980000    -205105.9     1.590157 0.0021737021    61.430066    61.343499    61.454914    4960.1095 
 1985000   -204945.35    1.5770317  -0.00595301    61.474567     61.39628    61.618778    4974.4453 
 1990000   -205006.95    1.6585307 0.0022672227    61.500095    61.273642    61.588614    4988.7714 
 1995000   -205073.33    1.6098923 0.00046982679    61.332561    61.467155    61.584422     5003.151 
 2000000   -204991.42    1.5826363 -0.0030439918    61.601103     61.43973    61.367565    5017.4019 
 2005000   -204985.59     1.616519 -0.0042400152    61.649068    61.535664    61.571055    5031.7302 
 2010000   -204922.17    1.6215759 -0.00032806236    61.524825    61.307601    61.601236    5045.9731 
 2015000   -204974.62    1.5983286 0.0052244443    61.397907    61.402095    61.369465    5060.2787 
 2020000   -204873.64    1.6043906 0.0039376239    61.333031    61.420095    61.688836    5074.6705 
 2025000   -204838.85    1.5745776 -0.003071142    61.467476    61.579031    61.508038    5088.9624 
 2030000   -204941.48    1.5936896 0.0012744843    61.492614    61.576528    61.402116    5103.2352 
 2035000   -204816.23    1.6194201 -0.00067708754     61.58257    61.300769     61.78325    5117.5501 
 2040000   -204720.33    1.5589802 -0.0016370311    61.505072    61.475586    61.713892    5131.8135 
 2045000   -205186.53     1.547902 -0.0042892266    61.399779    61.552657    61.525722    5146.1913 
 2050000   -204994.14    1.6252888 -0.0025964324    61.637433    61.218073    61.593705    5160.5887 
 2055000   -205130.43    1.6019158 -0.0018077497    61.316642    61.745116    61.405082    5174.9236 
 2060000   -205060.01    1.6003312 -0.00022596102    61.431642    61.424487    61.522878     5189.244 
 2065000   -205073.38    1.6392844 -0.00086596907    61.350698    61.456366    61.590868    5203.6638 
 2070000   -205038.13    1.6116457 0.0033942185    61.446215    61.469429    61.353122    5218.0094 
 2075000   -205050.49    1.6135814 0.0029880498    61.491022    61.526946     61.36878    5232.3455 
 2080000   -204877.43    1.5438458 0.0012629867    61.313944    61.465039    61.752294    5246.7452 
 2085000   -205072.26    1.6488285 0.0038239305    61.280571    61.556424    61.395334    5261.0966 
 2090000   -204879.96    1.5878241 -0.0024816186    61.461975    61.405693    61.678919    5275.4263 
 2095000   -204885.83    1.5861227 0.0027808959    61.500717    61.467871    61.390896    5289.7827 
 2100000   -204888.14    1.5854185 0.0038884676    61.485423    61.656607    61.490848    5304.0457 
 2105000   -204953.97    1.5749127 -7.0808467e-05    61.636782    61.521188     61.32567    5318.2634 
 2110000   -204825.24      1.61959 -0.0024614551    61.477471    61.564635    61.690151    5332.5143 
 2115000   -204771.82    1.5815323 -0.00016341706    61.352793    61.702484    61.618044    5346.8576 
 2120000   -204897.53    1.6584927 0.0047581621    61.433901     61.41548    61.540558    5361.1486 
 2125000   -204777.36     1.572012 -0.0044124872    61.470235    61.832797    61.521596    5375.5388 
 2130000   -204825.05    1.6119477 0.0064705301    61.597932    61.380363    61.439029     5389.893 
 2135000    -204650.9    1.5995225 -0.0086744241    61.719923    61.808133    61.547679    5404.1806 
 2140000   -204902.74    1.6521407 0.0014478927    61.720727    61.517972    61.467868    5418.4336 
 2145000   -204768.71    1.5886151 0.0018227929    61.585408    61.357099    61.712249    5432.8378 
 2150000   -204826.78    1.5894253 -0.0015358609    61.556083    61.633819    61.515166    5447.1784 
 2155000   -204877.73    1.6342639 -0.0020011117    61.411495     61.56982    61.457213    5461.5101 
 2160000   -204852.01    1.6075937 0.0062597404    61.619513    61.391002    61.467964    5475.9268 
 2165000   -205094.77     1.593719 0.0037994869    61.492487    61.461232    61.377595    5490.2714 
 2170000   -205049.39    1.6125074 -0.00078215391     61.64112    61.628079    61.355848    5504.6461 
 2175000    -205030.4    1.6300847 0.0017709413    61.596918    61.480132     61.41747    5519.0282 
 2180000   -204859.79    1.5708057 -0.00020116591    61.436004    61.853579    61.443347    5533.3808 
 2185000   -204874.16    1.6166388 0.0029525186    61.662012    61.446204    61.469607    5547.7552 
 2190000   -204890.58     1.570854 -0.0019355644    61.647707    61.362027    61.772738    5562.0433 
 2195000   -204847.76    1.5704171 -0.0009065531    61.763724    61.754236    61.261509    5576.3504 
 2200000   -204916.11    1.6115405 0.0033270701    61.647929    61.474165    61.381653    5590.6233 
 2205000   -204965.75    1.6015768 -0.0053477855    61.810907    61.807348    61.186691    5604.9131 
 2210000   -204880.16    1.5859972 -0.00032006795    61.702977    61.517577    61.357861    5619.2441 
 2215000    -204919.7    1.5645901 0.0019805151    61.537692    61.510441    61.434855    5633.6389 
 2220000   -205054.12    1.6242831 -0.0018364894    61.146169    61.729732    61.662503    5647.9748 
 2225000   -205092.17    1.6464807 3.7260935e-05    61.503939    61.417935    61.482264    5662.3841 
 2230000   -204911.87      1.64336 0.0035299238    61.144778    61.825781    61.611852    5676.8528 
 2235000   -204793.34    1.6040777 0.0033167396    61.498552    61.655432     61.40312    5691.1936 
 2240000   -204904.95    1.6074582 0.0023984272    61.625865    61.503669     61.28038    5705.5427 
 2245000   -204802.32    1.6409654 -0.00074314652    61.663776    61.493629     61.55435    5719.8849 
 2250000   -205074.75    1.6086381 -9.4937731e-05    61.470036    61.255494    61.760476    5734.3179 
 2255000   -205033.38    1.6059802 -0.0020122047    61.419153    61.639863    61.400113    5748.6451 
 2260000   -205066.88    1.5953722 0.00021178677    61.599781    61.384544    61.387142    5763.0105 
 2265000   -204948.65    1.6278416 0.0005565398    61.641295    61.519555    61.277761    5777.4664 
 2270000   -204965.97    1.5792607  0.004238631    61.464871    61.267454    61.549309    5791.7989 
 2275000   -205070.19    1.5748554 -0.0072251867    61.498337    61.509442    61.564585     5806.071 
 2280000   -204910.18    1.5806511 0.0010439218    61.808977    61.237172    61.513522    5820.3325 
 2285000   -205001.76    1.5799106 0.0030139291    61.641609     61.52687      61.3477    5834.6462 
 2290000   -204908.03    1.5726078 0.00080048631      61.4228     61.45533    61.631973    5849.0066 
 2295000   -205128.37    1.6383882 0.0016281391    61.376054    61.615474    61.441827    5863.3932 
 2300000   -205166.74    1.5761036 0.0036360192    61.546672    61.116768    61.630986    5877.7471 
 2305000   -204915.95     1.633242   0.00348581    61.543662    61.466294    61.507986    5892.0164 
 2310000   -205078.25    1.5845091 0.0015774831     61.45263    61.594381    61.280576    5906.3609 
 2315000   -204815.18    1.5679985 0.0043325051    61.723414    61.505988    61.299668    5920.6616 
 2320000    -204906.9    1.6353528 -0.0041748389    61.587626    61.600232    61.399611    5934.9367 
 2325000   -204745.44    1.6229416  -0.00153261    61.674768      61.3019    61.688489     5949.271 
 2330000   -205008.17      1.55556 0.00050757866    61.473209    61.629365    61.243267    5963.6451 
 2335000   -204883.39    1.5838769 0.0018724217    61.360882    61.726089    61.415126    5977.9708 
 2340000   -204846.55    1.6555067 0.0027317972    61.479014    61.526056    61.445038    5992.3817 
 2345000   -204737.17    1.5786334 -0.0021906928    61.593305    61.552171     61.48748    6006.6715 
 2350000   -205042.17     1.585538 -0.0036247551    61.573899    61.406591     61.50438    6021.0082 
 2355000   -205148.93     1.633921 -0.0018131339    61.426405    61.576313    61.426499    6035.2985 
 2360000   -205001.47    1.6793912 0.0016276511    61.378775    61.539955    61.319444    6049.6522 
 2365000   -205360.54    1.6182608 -0.0011967179    61.412562    61.473362    61.312108    6063.9144 
 2370000   -205074.52    1.5749472 6.3625903e-05    61.323605    61.556933    61.483156    6078.2369 
 2375000   -204986.29    1.6391055 0.0067306018    61.564329    61.441457    61.009071    6092.6065 
 2380000   -205148.67     1.643459 -0.0016870907    61.518085    61.528454     61.38468    6106.9798 
 2385000   -205060.44    1.5537633 -0.0011690843    61.623941    61.442271    61.218335    6121.3342 
 2390000   -205045.21    1.6078148 0.0050261577     61.37936    61.522975    61.407004    6135.6945 
 2395000   -204912.51    1.5699377 0.0028361762    61.344043    61.576879     61.44962    6150.0535 
 2400000   -205060.35    1.6076761 -0.0023980175     61.36483    61.664612    61.448557     6164.298 
 2405000   -204880.14    1.5843152  0.001171113    61.430833    61.566259     61.48735    6178.7119 
 2410000   -204897.15    1.5920951 0.0056180116    61.688172    61.425569    61.298463    6193.0556 
 2415000   -204827.57    1.6382622 -0.00054980872    61.623564    61.581373    61.460121    6207.4233 
 2420000   -204889.48    1.5950719 0.0015545338     61.50857    61.352689    61.635935    6221.7905 
 2425000   -204951.86    1.6269198 0.0013976067    61.391695    61.441051    61.557743    6236.0573 
 2430000   -205115.47    1.6121419 -0.0061802183    61.490105    61.685057      61.3071    6250.3361 
 2435000   -204917.15    1.6005898  0.000346617    61.404689    61.555702    61.484077    6264.5966 
 2440000   -205084.17    1.6157219  0.004314921    61.569118    61.147924    61.370529     6278.906 
 2445000   -204714.02    1.5734174 -0.0029561279    61.511068    61.579679    61.558946    6293.2432 
 2450000   -204977.46    1.5966964 -0.0017359582    61.694484    61.477165    61.320726    6307.5428 
 2455000   -204965.86    1.6474355 0.00038038927     61.48623    61.667782    61.409807    6321.9356 
 2460000   -204894.83    1.6439588 0.0093959163    61.202427    61.447967    61.624978    6336.2824 
 2465000   -204993.03    1.5580337 -0.0034228712    61.374152    61.697942     61.47211    6350.6378 
 2470000   -204835.64    1.5937355 -0.0043109704    61.732874    61.650737    61.464707    6364.9514 
 2475000   -204938.97     1.533187 0.0029248685    61.541832    61.252828     61.52899    6379.2797 
 2480000   -205057.96    1.6235803 -0.0023230974    61.470414    61.554347    61.383455    6393.6407 
 2485000   -204887.06    1.5999612 -0.0009960114    61.391809    61.611773    61.537737    6407.8847 
 2490000   -204998.68    1.6334178 -0.0022698818    61.596152    61.481466    61.557174    6422.2716 
 2495000   -205093.81    1.5823377 -0.0010771174    61.488729     61.47208    61.522296    6436.6787 
 2500000   -205164.32    1.6413234 -0.0013840921    61.324807    61.697419     61.36385    6450.9367 
 2505000   -205003.38    1.6203396 -0.0031064178    61.495106     61.56466    61.412142     6465.225 
 2510000   -204965.28    1.5656911 0.00030397107    61.593234    61.118341    61.570256    6479.4875 
 2515000   -205119.51    1.6197752  0.002136123    61.333672    61.190197    61.675353    6493.8485 
 2520000   -204864.99    1.6167198 0.0011869832    61.237324    61.633859     61.49619    6508.2683 
 2525000   -205122.82     1.623311 -0.0026474807    61.381448    61.565736    61.435201    6522.5655 
 2530000   -205187.52    1.5898445 -0.00055423906    61.398403    61.452448    61.402107    6536.9222 
 2535000   -205054.19    1.5780265 -0.0023806569    61.097879    61.667112    61.640339    6551.2895 
 2540000   -205107.57      1.63143 -0.0017862865    61.232557    61.391659    61.708805    6565.7013 
 2545000    -205154.1    1.5953807 0.0010040778    61.293719    61.502112     61.37026    6580.0749 
 2550000   -205333.49    1.5888589 -0.00079955957    61.529525    61.637226    61.186442    6594.4629 
 2555000   -205123.36    1.6094688 0.0029536813    61.476542    61.368872    61.463544    6608.7329 
 2560000    -205070.4    1.6188651 -0.0013983663    61.580951    61.416984    61.416733    6623.1177 
 2565000   -205018.35     1.586184 -0.0015438863    61.630792    61.613233    61.365353    6637.4105 
 2570000   -204986.47    1.6345997 0.0030997573    61.466993     61.51789    61.414972    6651.7768 
 2575000   -204845.18    1.6042188 0.0023981864    61.393901    61.563799     61.49543    6666.0492 
 2580000   -204911.36    1.6174681 0.0016191139    61.468953    61.598899      61.2439    6680.3563 
 2585000   -204891.99    1.5380426 1.851432e-05     61.21627    61.438363    61.543839    6694.6728 
 2590000   -205058.68    1.6059398 0.0015982422     61.26928    61.436509    61.594715    6709.0402 
 2595000   -204964.13    1.6346398 -0.00019058518    61.388908    61.563572    61.541479    6723.4733 
 2600000   -205107.79      1.64029 -0.0070210957    61.374786    61.637929    61.432892    6737.7824 
 2605000   -205189.38    1.6208984 0.0047577139    61.439122    61.025493    61.590968    6752.0747 
 2610000   -205172.46    1.5824867 0.0057892935    61.044585    61.366069    61.480715    6766.3939 
 2615000   -205036.99    1.5970863 -0.0073815906     61.95914    61.465725    61.435705    6780.7049 
 2620000   -204862.65    1.5873055 0.00079222413    61.649597    61.455396    61.445836    6795.0795 
 2625000   -204852.45    1.6021842 -0.00020400684    61.424323    61.644185    61.440732    6809.3515 
 2630000   -204823.36     1.576056 -0.0027349726    61.549367    61.389006    61.671389    6823.5923 
 2635000   -205089.68    1.6183621 0.0022687841    61.464583    61.546632    61.361645    6837.8435 
 2640000   -205057.16    1.6054191 0.00029416634    61.459119    61.415818    61.484221    6852.2139 
 2645000   -204827.95    1.6134061 -0.0040056461    61.485048    61.576967    61.649866    6866.5551 
 2650000   -205137.82    1.6175863 0.0025818713    61.460716    61.262321    61.512946    6881.0555 
 2655000   -205103.73     1.615266 -0.0044029793    61.490924    61.275175    61.658398     6895.446 
 2660000   -204958.42    1.5991382 0.0019975244    61.505534    61.645582    61.328654    6909.9131 
 2665000   -205044.18     1.600231 0.0014505177    61.435881    61.269691    61.662751    6924.2594 
 2670000   -205159.01    1.5704618 -0.00029052817    61.773274    61.116572    61.246581    6938.6119 
 2675000   -205039.38    1.5644664 0.0055927372    61.284821    61.402347    61.453523    6952.9639 
 2680000   -205033.32    1.6437459 -0.0012537033     61.35925    61.610083    61.400357    6967.2955 
 2685000   -204799.13    1.5995267 0.0050258479    61.466399     61.45624     61.48455    6981.5547 
 2690000   -204665.94    1.6193507 -0.00018113211    61.638485     61.72413    61.391465    6995.8193 
 2695000   -204794.69     1.592798 0.0018602315    61.672593    61.440841    61.535951    7010.1483 
 2700000   -204887.99    1.5658645  0.001823866    61.771059    61.463944    61.333327    7024.4427 
 2705000   -204784.92    1.6009952 -0.0066083184    61.511198    61.620588    61.778549    7038.7888 
 2710000   -204845.26    1.5656639 0.0025308671     61.57944    61.303591    61.681015    7053.1402 
 2715000   -204703.52     1.621902 0.0023947489    61.442025    61.742953    61.542985    7067.5162 
 2720000   -204739.81    1.5813343 -0.0014775031     61.56866    61.726883    61.447869    7081.7657 
 2725000   -204901.58    1.5573826 -0.0011442524    61.542634    61.448017    61.696458    7096.0963 
 2730000   -204919.19    1.6066336 0.00019331347    61.528588     61.28162    61.662457    7110.4238 
 2735000   -204875.23     1.628032 -0.0021038105    61.518111    61.585087    61.469863    7124.7187 
 2740000   -205120.23    1.6098905 -0.0033210966    61.585422    61.566902    61.343109    7139.0629 
 2745000   -205053.86    1.6351704  0.010051577      61.3199    61.344708    61.278388    7153.3576 
 2750000   -205019.53    1.6059151 0.0031914632    61.446643    61.457869    61.363598    7167.7539 
 2755000   -204874.92    1.6255749 -0.0037381734     61.72311    61.501622    61.475004    7182.0944 
 2760000   -204693.22    1.5532787 -8.3904973e-05    61.500662    61.490907    61.737048    7196.4684 
 2765000   -204715.32    1.5379198 8.7242975e-05     61.41997    61.583242     61.50576     7210.805 
 2770000   -204727.26    1.5582797 0.0066460094    61.346333    61.434583    61.488301    7225.0953 
 2775000   -204897.37    1.6188613 0.0028180269    61.607266    61.259326    61.549275    7239.3935 
 2780000   -204950.71     1.621667  0.002441403    61.361069    61.475893    61.641475    7253.7364 
 2785000   -204746.83    1.6074119 -0.001349349    61.445791    61.537123    61.663728     7268.019 
 2790000   -205181.64    1.5519299 -0.0039655719    61.613411    61.444319    61.320706    7282.3381 
 2795000   -204821.32    1.6285366 0.0010286573    61.627712    61.425275    61.415825    7296.6841 
 2800000   -204872.07      1.57498 0.0043912659    61.627151    61.411499    61.288326    7311.0426 
 2805000    -204769.8    1.5929806 8.7959045e-05    61.679775     61.67942    61.298992    7325.3637 
 2810000   -204939.19     1.617042 -0.0038333957    61.352718    61.428153    61.678858    7339.7445 
 2815000   -205136.51     1.668564 -0.00029262839    61.554036    61.422502    61.406139     7354.034 
 2820000   -204993.13    1.6028598 0.0044674724    61.618728    61.514972    61.287116    7368.3482 
 2825000   -204816.71    1.6137797 0.0053447311    61.431445    61.381182    61.659235    7382.6155 
 2830000   -204770.62    1.5851552 0.0068208107    61.531769    61.502817     61.48774    7396.8797 
 2835000   -204949.76    1.6200479 -0.0011964465    61.332976    61.693512    61.577152    7411.2879 
 2840000   -204952.75    1.5939915 0.0036466168    61.149871    61.740166    61.324595    7425.5953 
 2845000   -205039.41    1.5777203 -0.0041689654    61.507345    61.459406    61.623785    7439.8943 
 2850000   -205100.56    1.6151372 0.0032025667    61.646716    61.387385    61.380868    7454.2178 
 2855000   -204947.93     1.543882 -0.0035061162    61.459383    61.683037    61.585802    7468.6252 
 2860000   -204748.85    1.5722921 -0.001459303    61.646614     61.51039    61.490061    7482.8855 
 2865000   -204889.74    1.5917832 0.00095732012    61.593506    61.433247    61.478449    7497.3192 
 2870000   -204747.79    1.5535291 -0.0014753287    61.383186    61.598393    61.699427     7511.615 
 2875000      -204932    1.6536928 0.0033622022     61.87393    61.416744    61.224822    7525.9218 
 2880000    -204740.4    1.5917204 0.00077127637    61.442886    61.627544    61.551969    7540.2219 
 2885000   -204798.27    1.5955825 -0.0065270016    61.513645    61.773131    61.542084    7554.5506 
 2890000   -204796.82    1.6110557 0.0017592424    61.541225      61.4018    61.568667    7568.9544 
 2895000   -204797.56    1.6209928 -0.00053297764    61.478175    61.593435    61.541281    7583.2969 
 2900000   -204678.58    1.5757631 -0.0074203479    61.319783    61.856546    61.736587    7597.5772 
 2905000   -204753.46    1.6059186 -0.00099183986    61.282153    61.669392      61.5905    7611.8495 
 2910000   -204652.98    1.5511978 -0.0011770296    61.621133    61.367739    61.625458    7626.0475 
 2915000   -204676.83    1.6208842 -0.00021564378    61.667326     61.46872    61.627666     7640.309 
 2920000   -204539.92    1.6426909 -0.0052089569    61.864247    61.775939     61.43775    7654.5441 
 2925000   -204471.86    1.5923022 -0.0016367648    61.601914    61.466378    61.867467    7668.8195 
 2930000   -204683.89    1.5557388 -0.0028025832    61.500078    61.715737    61.519559     7683.124 
 2935000   -204763.84    1.5988792 0.0037435091    61.627634    61.422567    61.321762    7697.3961 
 2940000   -204682.89    1.5891384 -0.00043436453    61.483323    61.319915    61.786424    7711.6169 
 2945000   -204870.41     1.605369 0.0022693869    61.483823    61.434196    61.574782    7725.8994 
 2950000   -204881.77    1.5855235 0.0093102472     61.44569    61.172218    61.566713     7740.205 
 2955000   -204898.11    1.5835688 -0.0014021495    61.682402    61.668749    61.226863    7754.4174 
 2960000   -204837.94     1.573039 -0.0021645439    61.570129    61.786653    61.490252    7768.7337 
 2965000   -204808.87    1.6394086 -0.00031326736    61.669982     61.72575    61.307479    7782.9891 
 2970000   -204975.25    1.5814982 0.0040155891    61.356278    61.600607    61.485787    7797.2506 
 2975000   -205197.52    1.5734878 0.00028027984    61.265126    61.601239    61.447031    7811.4876 
 2980000    -205047.7    1.6137502 0.0048505655     61.51381    61.440329    61.315169    7825.8214 
 2985000   -204813.86    1.5530161 0.0038120853    61.269023    61.554047    61.714364    7840.3024 
 2990000   -205071.53     1.587139 0.0046552836    61.451875     61.48086    61.307584    7854.6163 
 2995000   -204874.02    1.5970681 -0.0010567422    61.632153     61.61937     61.42811    7868.9119 
 3000000   -204765.61    1.5979845 0.0015622309    61.607791    61.485354    61.524002    7883.2567 
 3005000   -204646.35    1.5905995 -0.0015849074    61.810067    61.487907    61.553974    7897.6281 
 3010000   -204619.61    1.6007949 -0.0024936012    61.697886    61.822398    61.378195    7911.8834 
 3015000   -204550.94    1.6069625 -0.0039885577    61.605253     61.58724    61.903822    7926.1258 
 3020000   -204650.01    1.6003658 0.0025695977      61.6551    61.751673    61.370823    7940.5211 
 3025000   -204764.21    1.5944948 0.0053969181    61.563485    61.404523    61.523878    7954.8948 
 3030000   -205031.75    1.6150615 -0.0026683175    61.495389    61.318671    61.719727      7969.21 
 3035000   -204924.87    1.6249501 0.00065586281    61.351377    61.701922    61.476946    7983.5154 
 3040000   -204901.83    1.5709101 0.00050027603    61.532485    61.449756    61.488999    7997.9197 
 3045000   -204787.45    1.5913833 0.00024642568     61.56737    61.511997    61.562213    8012.3345 
 3050000   -204847.44    1.5829806 -0.00096281158    61.799378    61.585662     61.34625    8026.7729 
 3055000   -204705.22    1.6324372 -0.0054798949    61.703207    61.609957     61.57186    8041.0697 
 3060000   -204834.47    1.6121768 -3.4704941e-05    61.412746    61.672749    61.534529    8055.3971 
 3065000   -204624.71    1.6149772 0.0032170396    61.713342    61.484581    61.504501    8069.8209 
 3070000   -204700.28    1.5779496 -0.001392255    61.407409    61.790564    61.533129    8084.2167 
 3075000   -204726.66    1.5717413 0.00040772991    61.329232    61.708386    61.559337    8098.5757 
 3080000   -204720.99    1.6207043  0.001357253    61.562302    61.652252    61.542205     8112.766 
 3085000    -205062.4    1.5991368 0.0037495033    61.353133    61.482758    61.483307    8127.1581 
 3090000    -204955.7    1.5664614 0.0021664454    61.556614    61.397027    61.455774    8141.4027 
 3095000   -204983.32     1.607883 0.0061038071    61.282113    61.635412    61.407537    8155.7046 
 3100000   -204907.69    1.6521133 0.0041950303    61.520388    61.628394    61.280154    8170.0405 
 3105000   -204820.18    1.6198798 -0.0043437666    61.492906    61.720651    61.451867    8184.3755 
 3110000   -205027.87    1.6464844 -0.0023434202    61.522043     61.35798    61.523008     8198.789 
 3115000   -205006.85    1.5831624 -0.0037141762    61.450119    61.437037    61.512512    8213.1708 
 3120000   -204961.56    1.6164733 -0.0014750113    61.451479    61.549835    61.446252    8227.4631 
 3125000   -204877.62    1.6316238 -0.0023568541    61.534625    61.606797    61.400163    8241.7245 
 3130000   -204963.19    1.5704409 -0.0050858343    61.569093    61.346314    61.681889    8256.0079 
 3135000    -204810.4     1.603927 0.0018599642    61.565917     61.33763    61.574748      8270.37 
 3140000   -204970.16    1.5858632 0.0018979971    61.448984    61.399255    61.559449    8284.7179 
 3145000   -204957.42    1.6109546 0.00041728563     61.77245    61.236707    61.400159    8299.0374 
 3150000    -204835.5    1.5596183 -0.0023339126    61.639303    61.419691    61.539304    8313.3739 
 3155000   -204979.55    1.6134803 -0.0075845038    61.475284    61.508283    61.685989    8327.7752 
 3160000   -205043.98     1.596548 -0.0041494308    61.328067    61.608429    61.538466    8342.1259 
 3165000    -204959.7    1.5890459 0.0014381327    61.295389    61.704882    61.374682    8356.5534 
 3170000   -204833.29     1.547502 -0.0022695295    61.607977    61.607874    61.316539    8370.8271 
 3175000   -204907.84    1.5991089 0.0021733095    61.371563    61.682508    61.441834    8385.1146 
 3180000   -205008.36    1.5912137 0.0033955816    61.485532    61.279102     61.50716    8399.4749 
 3185000   -205084.45    1.6071164 -0.0038125852    61.267389    61.715181    61.453687     8413.812 
 3190000   -205022.49    1.5872151 0.0034445456    61.418596    61.455573    61.395229    8428.2435 
 3195000    -204891.6    1.6185308  0.001345557    61.564911    61.339902    61.441348    8442.7008 
 3200000   -204999.42    1.6314329 0.0034873702    61.310684    61.507001    61.532604    8457.0804 
 3205000   -204978.86    1.5938395 0.0054070537    61.306658    61.450776    61.465844    8471.3415 
 3210000   -204905.22    1.5770736  0.004646174    61.674182    61.355985    61.423786    8485.6499 
 3215000   -205025.03    1.5585069 0.0012648391    61.165143    61.687901    61.706374    8499.9781 
 3220000    -205016.5    1.6554992 0.0066402312     61.22439     61.56804    61.561554     8514.217 
 3225000   -205023.65    1.5524468 0.00044733106     61.39421    61.499445    61.495164    8528.5443 
 3230000   -204718.36     1.606829 0.0007560679    61.756973     61.42657    61.368832     8542.935 
 3235000   -204822.17    1.5755909 0.0012584288     61.25704    61.422136    61.672511    8557.3856 
 3240000   -204829.71     1.647687 0.0073234146      61.3811    61.470076    61.633447     8571.696 
 3245000    -204768.3    1.6046421 -0.0026871661    61.697885    61.702587    61.402594    8586.0454 
 3250000   -204956.31    1.6032067 0.0058925796    61.246521    61.422009    61.691988    8600.3135 
 3255000   -204942.24    1.6300606 -0.0018377668     61.35039    61.378345    61.746693    8614.6459 
 3260000      -205013    1.5788537 -0.0018001742    61.336192    61.459511    61.673314    8628.9738 
 3265000   -204855.56    1.6111347 -0.0015901163    61.644543    61.598622    61.245578    8643.2955 
 3270000   -204981.23    1.5708249 0.00041593707    61.564525      61.4798    61.526784     8657.647 
 3275000   -205047.25    1.6368454 -0.0031690766    61.906577    61.319529    61.494012    8671.9853 
 3280000   -204825.65    1.5909261 -0.0033544619    61.530743    61.542641    61.721904    8686.3302 
 3285000   -204964.75    1.5824138 0.0013830908    61.615587    61.655243    61.200844    8700.5859 
 3290000   -204791.66    1.5706701 -0.0070370026    61.458853    61.793175    61.685674    8714.8956 
 3295000   -204975.17    1.5835073 0.00061282986    61.587682    61.282745    61.598988     8729.139 
 3300000   -205028.26    1.5942977 0.0016768991    61.426251    61.632439    61.299357    8743.4409 
 3305000    -205080.4    1.5515712 -0.002282725    61.196738     61.74059     61.42808    8757.8513 
 3310000    -205121.7     1.630866 -0.0040928651     61.65685    61.518032    61.386826    8772.2158 
 3315000   -204986.25    1.6553435 -0.0029533998    61.613702    61.643199      61.4082    8786.5501 
 3320000   -204947.78    1.5725333 0.00069014101    61.313635    61.365233    61.763101    8801.0078 
 3325000   -204945.74    1.5832945 -0.0026126065    61.583612    61.304072    61.750531    8815.3345 
 3330000   -204850.96    1.5870054 -0.0026353049    61.611273    61.707522    61.432826    8829.7378 
 3335000    -204897.7    1.5534043 -0.0037939106    61.458434    61.418544    61.808804    8844.0632 
 3340000   -204717.56    1.5785528 -0.0025211535    61.678136    61.489748    61.535094    8858.4089 
 3345000   -204587.63    1.6215439 0.0050986259     61.64447    61.545504    61.566671    8872.7425 
 3350000   -204697.69    1.6067717 0.0067572845    61.400562    61.603254    61.546101    8887.0989 
 3355000   -204844.54    1.6096269 0.0018890235    61.600416    61.366862    61.606724    8901.4875 
 3360000    -204885.5    1.6427755 -0.00048824092    61.664035    61.206969    61.766419    8915.8022 
 3365000   -205047.43    1.5553978 -0.0027163023    61.326809    61.460181    61.735911    8930.2079 
 3370000   -204868.32    1.6131327 7.1999659e-05    61.560975    61.407518    61.615081     8944.523 
 3375000   -204999.98    1.5572916 0.0080856834     61.33918    61.360838    61.513876    8958.8569 
 3380000   -205023.05    1.5862964 0.0047273566    61.624348    61.368849    61.360802    8973.2446 
 3385000   -204877.68    1.5964381 -0.00026274285    61.279591     61.50271    61.883238    8987.5285 
 3390000   -204789.21    1.5867898 0.0046806659     61.71806    61.416934    61.461772    9001.7542 
 3395000   -204832.21    1.6072004  0.002513893    61.329789    61.515526    61.609987    9016.0035 
 3400000   -204997.25    1.5504583 0.0059924892    61.503283    61.089603    61.725149    9030.3685 
 3405000   -204849.88    1.6421126 0.00072023008    61.428203    61.389114    61.642613    9044.7443 
 3410000   -204914.73    1.5879409 -0.0016114498    61.412932    61.506952    61.724348    9059.1129 
 3415000    -204798.4    1.6126378 -0.0021790801    61.346015    61.730022    61.656769     9073.378 
 3420000   -204990.95    1.5995623 0.0043478702    61.163236    61.679885    61.425007    9087.7069 
 3425000   -204998.14    1.5900785 -0.001090791    61.682655    61.314509    61.488886    9102.0659 
 3430000   -204903.02    1.6444581 0.0028914603    61.349371    61.512337    61.458545    9116.4167 
 3435000   -204789.27    1.6199044  0.002709691     61.53134    61.449106    61.388746    9130.7783 
 3440000   -204762.34    1.5870199 -0.0053752163    61.449819    61.671835    61.743614    9145.2148 
 3445000   -205045.68    1.5575769 0.0018822977    61.544449     61.17699    61.659969    9159.4794 
 3450000   -205053.97    1.5994802 0.0017521412    61.580505    61.431203    61.460195    9173.7435 
 3455000   -204967.84    1.5914941 -0.0036582164    61.544588    61.683154    61.421275    9188.0276 
 3460000   -204876.32    1.6347646 0.0066266202    61.314669    61.520932    61.557286    9202.3277 
 3465000   -204844.46    1.5900251 -0.0041767192    61.785709    61.392458    61.608291    9216.6787 
 3470000   -204816.18    1.5645449 -0.0043653097    61.725958    61.460263    61.629914     9231.087 
 3475000   -204861.88    1.6022365 0.0010631881    61.599984    61.278655    61.658644    9245.4062 
 3480000   -204699.16    1.6026604 0.00022167015    61.731034    61.565816    61.605187    9259.7735 
 3485000   -204666.21    1.5950934 0.0013774033    61.578229    61.546681     61.80957    9274.0912 
 3490000   -204763.31     1.617197 -0.0012283304    61.480261    61.422236    61.823414     9288.448 
 3495000   -204781.47     1.568662 -0.0038348675    61.680969    61.469556    61.612412    9302.8195 
 3500000    -204646.2    1.6331314 0.0036894474    61.550348    61.508806    61.693338     9317.246 
 3505000   -204736.43    1.6183306 -0.0063288412    61.768102    61.655669     61.59497    9331.5312 
 3510000   -204705.42    1.6139314 0.0024798402     61.68988    61.475151    61.502643    9345.7649 
 3515000   -205016.88     1.593863 0.0055233349    61.490681    61.275969    61.430921    9360.1105 
 3520000   -204908.72    1.6097157  0.001944879    61.486572    61.568332    61.597583    9374.4808 
 3525000   -204799.68    1.5587809 -0.002574079    61.466039    61.561297    61.691354    9388.7895 
 3530000   -204983.18    1.5302908 -0.0017909315     61.62631    61.439861    61.424978     9403.089 
 3535000   -204823.92    1.5649642  0.001492461    61.530958    61.521235    61.507172    9417.3497 
 3540000    -204831.6    1.5720188  0.005698591    61.420097    61.447548    61.560184    9431.6116 
 3545000   -204839.46    1.6173193 -0.0025424848    61.551104    61.416911    61.741531    9445.9623 
 3550000    -204998.4    1.5882513 -0.0020124953    61.512888    61.653256    61.462222    9460.2546 
 3555000   -205025.37     1.602428 0.00016726474    61.665303    61.401758      61.3724    9474.6084 
 3560000   -204771.16    1.6148906 -0.00027671776    61.606306    61.395852    61.512891    9489.0407 
 3565000   -205002.91    1.5724026 0.00035576157     61.57727    61.456073    61.351832    9503.2898 
 3570000   -205128.02    1.5937713 0.0040453046    61.512037    61.375311    61.291568    9517.5797 
 3575000   -204927.21    1.6127546 -0.0092631512    61.806212    61.509626    61.296262    9531.9163 
 3580000    -205061.3    1.5955313 0.0067904694    61.389253    61.372585    61.344441    9546.2757 
 3585000   -205009.79    1.6123503 -0.0002855038    61.639085    61.296741     61.51966    9560.6537 
 3590000   -205019.64    1.6040569 -0.00069715008    61.597096    61.356423    61.553426    9575.0005 
 3595000   -204918.34    1.6108836 -0.0012187973    61.379028    61.773572    61.449216    9589.2804 
 3600000   -204796.04    1.5962425 -0.00059512151    61.498687    61.532581    61.613707    9603.6032 
 3605000   -204801.79    1.6278184 -0.0045388358    61.419789    61.555095    61.739314    9617.8725 
 3610000   -204779.66    1.5939239 -0.0020326594    61.476094     61.53892    61.471275    9632.1767 
 3615000   -204953.05    1.5433128 -0.0043552564    61.743302    61.385041    61.457437    9646.5101 
 3620000   -204991.89    1.5912153 -0.0018912753    61.727557    61.463021      61.2854     9660.836 
 3625000   -205046.56    1.6100495 0.0055863029    61.495247    61.382736    61.422162    9675.1324 
 3630000   -204977.27    1.6117962  9.24938e-05    61.682615    61.401418    61.547763    9689.5221 
 3635000   -204716.55    1.6133781 -0.0021778352    61.494722    61.454616    61.734672    9704.6825 
 3640000    -204960.4    1.5883139 8.7248537e-05    61.514326    61.473479    61.376283    9719.0264 
 3645000   -204830.39    1.6211123 -0.001594108    61.448847    61.574265    61.593634    9733.4175 
 3650000   -204913.02    1.6150378 0.0002265391    61.444269    61.558269     61.46539    9747.7952 
 3655000    -204922.8    1.6106141 0.0011818955    61.556839    61.511266    61.424162    9762.1679 
 3660000   -204666.18    1.6214984 -0.0012616032    61.709336    61.718584    61.449315    9776.5757 
 3665000   -204810.61    1.6116244 0.0022627048    61.770313    61.370776     61.36554    9790.9707 
 3670000   -205026.67    1.5768347 0.0056605971    61.626905    61.264896    61.338305    9805.2758 
 3675000   -205056.39    1.5666116 -0.0016564867    61.480148    61.260731    61.589451    9819.5608 
 3680000   -204835.31    1.5797161 0.0026415765    61.333077    61.451142    61.793804    9833.8377 
 3685000   -204926.53    1.6021009 0.0060616404    61.444573    61.395736    61.544451    9848.1539 
 3690000   -204853.42    1.5731684 -0.0024390369    61.519505    61.633736    61.607121    9862.4295 
 3695000   -204844.52    1.6047287 0.0022202246    61.565896    61.444511    61.601424    9876.8834 
 3700000   -204949.08     1.595697 -0.00077428107    61.393211    61.639001    61.538131     9891.234 
 3705000    -204857.2    1.5766508 0.0023252547    61.515268    61.602025    61.438094    9905.5445 
 3710000   -205008.37     1.597155 -0.00072209808     61.63639     61.45539     61.43777    9919.8501 
 3715000   -204792.52    1.6126929 0.0019252267    61.608087    61.318525    61.610792    9934.3106 
 3720000   -204897.55    1.6439625 0.0044243758    61.644354    61.326684    61.473954    9948.7328 
 3725000   -204934.73    1.6175679 -0.0010988188    61.489733    61.617835    61.565777    9963.1074 
 3730000   -204989.17    1.6054801 0.00059982982    61.710566     61.54827    61.384055    9977.4916 
 3735000    -204997.5    1.6239453 0.0022822954    61.383904    61.573328    61.485284    9991.8129 
 3740000   -205050.05    1.6360958 -0.0026846982    61.377758     61.76879    61.552672    10006.141 
 3745000   -205109.89    1.5759598 -0.003539597    61.357156    61.565536    61.679496    10020.469 
 3750000   -205035.92    1.6292648 0.0010663298    61.639055    61.541736    61.362059    10034.885 
 3755000   -204965.62    1.5385478 -0.00019982244     61.46909    61.554642    61.537586    10049.346 
 3760000   -204936.78    1.6026242 -0.0033100228    61.319249    61.679096    61.870159    10063.772 
 3765000   -205197.96    1.5656888 0.0099174883    61.255008    61.331655     61.44763    10078.086 
 3770000   -205019.37    1.5888825 0.00067199015    61.301996    61.563189    61.735099    10092.378 
 3775000   -205000.91    1.5713643 0.0014345938     61.35324    61.537503    61.539294    10106.689 
 3780000   -205139.48    1.5713533 -0.0025519161    61.339737    61.664671    61.398563    10120.978 
 3785000   -204998.12    1.5664872 -0.00024545042    61.683583    61.290454    61.591405    10135.342 
 3790000   -204948.79    1.6120913 0.00060371843    61.379234    61.540228    61.595312    10149.636 
 3795000   -204766.09    1.5427996 -0.0031497395    61.489645    61.460976    61.618112    10164.017 
 3800000   -205154.86    1.5603352 0.0054321995    61.312078    61.507364    61.167484    10178.297 
 3805000   -205120.73    1.5805012 -0.0075207902    61.189762    61.547424    61.717177    10192.565 
 3810000   -205034.35    1.6281413 0.0068228975    61.300538    61.467298     61.43303    10206.861 
 3815000   -204882.96     1.592807 -0.0016969061    61.697523    61.481393    61.376503    10221.157 
 3820000   -205072.57    1.6026737  -0.00270068    61.675575    61.529615    61.316994    10235.505 
 3825000   -204949.72    1.6247768 -0.00091840745    61.549144    61.323169     61.60055    10249.847 
 3830000    -204918.6    1.6062338 0.0016295943     61.55096    61.576109    61.496036    10264.193 
 3835000   -204819.67    1.5897532 0.00019177399     61.34864    61.637519    61.473058     10278.62 
 3840000   -205009.64    1.5677741 -0.002698104    61.479964    61.354674    61.659397    10293.031 
 3845000   -205118.91    1.5951783 0.0030860405    61.624825    61.342989    61.331705    10307.396 
 3850000   -204883.86    1.6003833 0.0029391036    61.398445    61.500212    61.639546    10321.708 
 3855000   -205010.84    1.5752483 -0.0064625112     61.62243    61.688985    61.448478    10336.136 
 3860000   -204886.92    1.5750361 0.00061774297    61.277764    61.673506    61.573472    10350.521 
 3865000    -204901.2    1.5963419 0.0013017305    61.433608    61.511792    61.569751    10364.782 
 3870000   -204991.09    1.6106358 0.0019146639    61.314434     61.50536    61.675077    10379.146 
 3875000   -204957.92    1.6001518 -0.0012208206    61.369713    61.723746    61.344852    10393.464 
 3880000   -204917.18    1.6102686 -0.0002958775    61.602315    61.550527    61.379548    10407.764 
 3885000   -204745.42    1.5956583 -0.001831765    61.523165    61.781515    61.361407     10422.03 
 3890000    -204821.8    1.6188493 0.0020557791    61.327406    61.523503     61.56095    10436.264 
 3895000   -204931.84    1.5924953 0.0021365491    61.227692    61.566468    61.614679    10450.581 
 3900000   -204820.03    1.5826602 -0.00059090674    61.438465     61.64968    61.341989    10464.888 
 3905000   -204953.02    1.6226062 -0.0004395263    61.536414    61.496044    61.580894    10479.218 
 3910000    -205146.9     1.642467 -0.0016662818    61.654192    61.643027    61.183362    10493.518 
 3915000   -205003.57    1.6101313 -0.00061396079    61.306918     61.47383    61.581736    10507.886 
 3920000   -204859.52    1.6139284 -0.0043064728    61.444756    61.650412    61.645044    10522.212 
 3925000   -204923.83    1.5766054 -0.0010584643    61.647946    61.423918    61.465681    10536.461 
 3930000   -204883.55    1.6004168 -0.00070733555    61.395341    61.509304    61.561617    10550.725 
 3935000    -205057.5    1.6211615 -0.003381498    61.324552     61.51926    61.545982    10565.049 
 3940000   -204809.85    1.5875133 0.0032801815    61.445882    61.712754    61.346138    10579.385 
 3945000   -205009.41     1.598471 0.00047731979    61.500467    61.601831    61.341217    10593.686 
 3950000   -204903.93    1.6202733  0.004041608    61.356378    61.618201    61.458607    10608.054 
 3955000   -204977.58    1.5819473 -0.0072158504    61.488167    61.418137    61.906366    10622.289 
 3960000   -204893.19    1.6193268 0.0088544825    61.428951    61.477892    61.439453    10636.604 
 3965000   -204813.96    1.5590175 -0.0020123677    61.365495     61.73484    61.519967    10650.981 
 3970000      -204665    1.5840339 0.0068305213    61.502225    61.668669     61.41294    10665.323 
 3975000   -204779.69    1.5829748 -0.0024062592    61.634419    61.606878    61.579262    10679.583 
 3980000   -204855.57    1.5759888 0.0016474623    61.671007    61.405313    61.405048    10693.933 
 3985000   -204911.07    1.5995938 0.00048507387    61.530645     61.61629    61.365632    10708.293 
 3990000   -204730.68    1.5871561 -0.00085710976    61.582501    61.505915    61.646952    10722.713 
 3995000   -204708.61    1.5987087 -0.0050081103    61.713227    61.585839    61.500584    10737.044 
 4000000   -204653.12    1.5880678 0.00048273194    61.529209    61.728539    61.440838    10751.332 
 4005000   -204749.23    1.5898794 0.0012538796    61.422226    61.722656    61.563183    10765.664 
 4010000   -204640.17    1.6192035 0.00048141019    61.608399     61.63637    61.647341    10780.057 
 4015000   -204403.46    1.6669256 -4.6253388e-05    61.749651    61.513509    61.753688    10794.425 
 4020000   -204549.28    1.6211052 0.0070594378    61.651524    61.504393    61.418121    10808.784 
 4025000   -204951.37    1.6338241 0.0044815179    61.416822    61.507474    61.513291    10823.021 
 4030000   -204605.22      1.60528 -0.0045714884    61.420901    61.525119    61.810059     10837.26 
 4035000   -204696.92    1.5810612   0.00380591    61.627089    61.627917    61.322043    10851.515 
 4040000   -204709.71    1.5667063 -0.0056355612    61.335695     61.68345    61.640368    10865.811 
 4045000   -204870.29    1.6443324 -0.0036694243    61.416141    61.479979    61.598356     10880.18 
 4050000   -204954.15    1.6384472 0.0030483597    61.284043    61.618813    61.431983    10894.458 
 4055000   -204600.82    1.5942642 0.0011223204    61.472797    61.745026    61.410062    10908.719 
 4060000    -204633.9    1.5682725 0.0018981569    61.495004    61.376679     61.69021    10923.027 
 4065000   -204566.07    1.5733077 0.0021164251    61.357551    61.658881    61.546855    10937.336 
 4070000   -204637.91    1.6188115 -0.0016871232    61.933505    61.571761    61.225699     10951.66 
 4075000   -204658.18    1.5845059 0.0028751406    61.540123     61.48566    61.623481    10965.979 
 4080000   -204671.02    1.6122208 0.00025153815    61.644164    61.606722    61.530674    10980.342 
 4085000   -204901.42    1.6257415 -0.00085033879    61.523284     61.62503    61.346378    10994.685 
 4090000   -204875.72     1.601227 -0.002844253    61.442064    61.579083     61.62438    11008.979 
 4095000   -204722.11     1.605921 0.0027403573    61.635994    61.643861    61.301074    11023.357 
 4100000   -204745.51    1.5675986 -0.0072752406    61.436514    61.690053    61.766977    11037.685 
 4105000   -204755.55     1.584813 0.0058713511    61.270203    61.556191    61.566277    11051.967 
 4110000   -204582.67    1.6373061 0.0005473161     61.77486    61.463816     61.62375    11066.234 
 4115000   -204729.29    1.6209227 -0.001151882      61.7399    61.486413    61.695223    11080.536 
 4120000   -204863.55    1.5880009 0.0039505196    61.372944    61.523468    61.657983    11094.901 
 4125000   -204782.64    1.5986878 0.0030798701    61.443532    61.465457    61.767784    11109.193 
 4130000   -204706.56    1.6076044 0.0032101537    61.458834    61.556162    61.676289    11123.541 
 4135000   -204685.85    1.5966111 0.0013967241    61.504651    61.640316    61.656328    11137.822 
 4140000    -204737.2    1.6155656 0.0012802249    61.633012    61.610532    61.435957    11152.085 
 4145000   -204607.57    1.5802282 0.0047204541    61.575638    61.440952    61.515133    11166.437 
 4150000   -204607.73    1.6363053 -0.0032445293    61.682358    61.639442    61.496226    11180.742 
 4155000   -204621.76    1.5818641 0.0031734021    61.662229    61.323582    61.571559    11195.014 
 4160000   -204852.53    1.5963585 0.00046233312    61.765068    61.482858    61.285937    11209.291 
 4165000   -204781.58    1.6359948 -0.0015082047    61.487103    61.662969    61.450794    11223.572 
 4170000   -204859.48    1.6129047 -0.0041137863    61.412983    61.405294    61.685982    11237.936 
 4175000   -204728.19    1.6660276 0.0015501349    61.352893    61.593216    61.539303    11252.212 
 4180000   -204876.33    1.5762404 3.3669691e-05    61.406449    61.293166    61.703241    11266.585 
 4185000    -204937.4     1.624257 0.0053921048    61.330552     61.66557    61.342215    11281.042 
 4190000   -204731.83    1.5763766 -0.0029556933    61.340824    61.532462    61.801296    11295.437 
 4195000   -204809.92    1.5763845 -0.001070471     61.53362    61.492913    61.398267    11309.709 
 4200000   -204943.22     1.640732 0.00090148628    61.419806    61.470893    61.460199     11324.01 
 4205000   -205039.83    1.5903868 0.0020310523     61.32489    61.463202    61.377453    11338.414 
 4210000   -204842.69    1.5791283 0.0069542847    61.414498    61.263792    61.490033    11352.803 
 4215000   -204838.89     1.551165 -0.00037362622    61.712686    61.168417     61.72376    11367.073 
 4220000    -204827.6    1.6037693 -0.0047258624    61.570319    61.490351    61.525956    11381.328 
 4225000   -204764.54    1.6123489 0.0013542761    61.548786    61.435671    61.481556    11395.645 
 4230000   -204917.46    1.5879367 0.0015536831    61.665317    61.499805    61.131936    11410.014 
 4235000   -204932.44     1.598139 0.0035694079    61.390663     61.62811    61.271677      11424.4 
 4240000   -204924.48    1.6082396 0.0054173603    61.567223    61.146414    61.575938    11438.719 
 4245000   -204712.36    1.6404371 -0.0012909552    61.559331    61.842282    61.271007    11452.979 
 4250000    -204753.5    1.6091217 0.0029594226    61.565519    61.382302    61.625968    11467.266 
 4255000   -204579.69    1.5723265 0.0017678066    61.574671    61.470472    61.562846    11481.569 
 4260000   -204734.14    1.6193386 0.0017550014     61.64045    61.493703    61.471852     11495.93 
 4265000   -204693.16    1.6239407 0.0025818262    61.617756    61.649785     61.27347    11510.321 
 4270000   -204749.93    1.6234045 -0.003425728    61.834129    61.494957     61.36381    11524.607 
 4275000   -204682.32    1.6184985 0.00080323359    61.417102    61.701691    61.562188    11539.038 
 4280000    -204946.5    1.5490746 -0.0034889305     61.52296    61.422674     61.60345    11553.363 
 4285000   -204933.87    1.5675375 0.0047835824    61.603532     61.47077    61.288251      11567.6 
 4290000   -204757.85      1.57359 -0.0042114676    61.564993    61.523527    61.663808    11581.992 
 4295000    -204969.8    1.6110928 -0.0027924745    61.428059    61.637364      61.5296    11596.351 
 4300000    -204907.2    1.5968106 -0.00071305418    61.590348    61.414574    61.567122    11610.601 
 4305000   -204770.74    1.6075551  0.001105166    61.714836    61.375069    61.612448     11624.93 
 4310000   -204832.07    1.6118811 0.0022407371    61.351252     61.66314    61.490884    11639.234 
 4315000   -205015.23    1.6275233 0.0019029265    61.467214    61.439205    61.516987    11653.558 
 4320000    -204765.9     1.573181 -0.0051014987     61.70756    61.653484    61.436827    11667.965 
 4325000   -204884.71    1.6481883 -0.0089974698     61.64603    61.662233    61.662807     11682.32 
 4330000   -204807.04    1.6582327 -0.00061800173    61.297293    61.474761    61.864226    11696.591 
 4335000   -204842.59    1.6054349 0.0048304447      61.3455    61.447992    61.546608    11710.877 
 4340000   -204725.52    1.6344928 -0.010229959    61.531521    61.795914    61.454148    11725.178 
 4345000   -204873.61    1.5717791 -0.002350445    61.563211    61.522221    61.501342    11739.555 
 4350000    -204942.2    1.5861584 0.0019310524    61.462171    61.157416    61.568919    11753.906 
 4355000   -204857.65     1.587676 -0.00077881024    61.558287    61.551927    61.386355    11768.257 
 4360000   -204934.38     1.622329 -0.0021242915    61.296931    61.490588     61.65062    11782.645 
 4365000    -205020.6    1.5855912 0.0010536988    61.394293    61.624464    61.450777    11796.867 
 4370000   -204979.53    1.5970873 0.00042581498    61.480893    61.521305    61.452838    11811.168 
 4375000   -205061.53    1.6117452 0.0051099843    61.148952    61.744825     61.36252    11825.515 
 4380000   -205042.76    1.6371855 -0.0049550459    61.540199    61.689442    61.446184    11839.904 
 4385000   -205088.71    1.5837996 0.0013381772     61.49431    61.262016    61.610177    11854.347 
 4390000    -205011.1    1.5948003 -0.0018549548    61.454672    61.396067    61.621094    11868.741 
 4395000   -204889.38    1.5819195 -0.0044366781    61.601046    61.627536    61.557387    11883.128 
 4400000   -204974.54    1.6108035 0.0023914482    61.474687    61.361086    61.512099    11897.418 
 4405000   -205020.38    1.5987642 0.0079191234    61.507147    61.236437    61.358827    11911.748 
 4410000   -204967.78    1.5968158 -0.0073227021    61.753444     61.57114    61.491625    11926.049 
 4415000   -204994.68    1.5529362  0.002649874    61.311068     61.58766    61.497566    11940.354 
 4420000   -204938.97     1.579652 0.0034209375    61.434496    61.597026    61.424945    11954.674 
 4425000   -204972.42    1.5826206 0.0017598854    61.512049    61.487814    61.556179    11969.054 
 4430000   -204990.73    1.6114755 0.0011015623    61.859849    61.266225    61.426644    11983.302 
 4435000   -204963.73    1.6649817 0.0018468821     61.24499    61.714744     61.50703    11997.666 
 4440000      -204986    1.5759527 0.0046311977    61.415505    61.421051    61.426784    12011.946 
 4445000   -204971.46    1.5704674 0.0032732598    61.392427     61.55502    61.462825    12026.272 
 4450000   -204777.92    1.5657842 -0.0011802282    61.624974    61.394537    61.622244    12040.664 
 4455000   -204799.94    1.6271585 -0.0015774567    61.261722    61.827933    61.704003    12055.018 
 4460000   -204811.49    1.5818309 -0.0016166795    61.546266    61.650992    61.566191    12069.405 
 4465000   -204489.23    1.6059919 0.0066209366     61.33768    61.647984    61.792104    12083.699 
 4470000   -204699.58    1.5820853 0.00070595283    61.422896    61.773984    61.538691     12097.97 
 4475000   -204712.72    1.5648333 -0.0036499434    61.578729    61.629781    61.586939     12112.27 
 4480000   -204736.72    1.5563876 0.00016276261    61.719144    61.604579    61.473738    12126.511 
 4485000   -204881.15    1.6342274 0.0016789218    61.506303    61.351074    61.569168    12140.774 
 4490000   -204834.53    1.5515611 0.0055633748    61.632372    61.304311    61.406188    12155.205 
 4495000   -204780.43    1.5934373 -0.0022560387    61.301752    61.723988    61.588016    12169.561 
 4500000   -204904.59    1.5412707 -0.0065799845    61.692348    61.630669    61.447881    12183.864 
 4505000    -204983.5    1.6025953 0.0059757927    61.565313    61.343108    61.385065     12198.16 
 4510000   -204874.06    1.6177809 0.0076904398    61.137175    61.759151    61.463672    12212.442 
 4515000    -204899.8    1.5948176 -0.0032145757     61.70628    61.328823    61.515514    12226.735 
 4520000   -204907.71    1.5943586 0.00037734917    61.682911     61.20771    61.657055    12241.064 
 4525000   -205027.97    1.5994884 -0.00084115386    61.587073    61.344606    61.511421    12255.447 
 4530000   -204941.78    1.5942397 -0.0029822238    61.536641    61.498781    61.560323    12269.804 
 4535000   -204977.42    1.6105285 0.0031908151    61.417204    61.445824    61.521295    12284.165 
 4540000   -204935.21    1.5965161 0.0031544195    61.406351    61.540877    61.562197    12298.467 
 4545000    -204802.2    1.6074085 -0.0019368579    61.550292    61.721985    61.468541    12312.827 
 4550000   -205033.57    1.6094528  0.003696998    61.366087    61.423815    61.519494    12327.233 
 4555000   -204887.89    1.6014472 -0.001285344    61.665383    61.241647    61.688096    12341.529 
 4560000   -204777.85    1.5855935 -0.0015714498    61.562358    61.563543    61.529831    12355.789 
 4565000   -204758.79    1.5728767 0.0020116104    61.699571    61.457113    61.511165    12370.068 
 4570000   -204884.13    1.6117381 -0.006687913     61.62684    61.790971    61.384997     12384.34 
 4575000   -205039.71    1.6204059 0.0063047876     61.32118    61.499728    61.444215    12398.654 
 4580000   -204995.08    1.6194183 -0.0053695494     61.47781    61.595689    61.554539    12412.859 
 4585000   -204940.44    1.6275076 -0.0020462634    61.664724    61.394689    61.580384    12427.053 
 4590000   -204914.61    1.6551742  0.003220158    61.313228    61.505208    61.542384    12441.427 
 4595000    -204987.1    1.5854716 -0.0042585784    61.478251    61.461375    61.632074    12455.861 
 4600000   -204748.94    1.5426981 -0.000813138    61.497697    61.286249    61.751064    12470.138 
 4605000   -204939.49    1.6050193 -0.0051039376    61.685967    61.583967    61.326439      12484.4 
 4610000   -205013.26    1.6158889  -0.00133039    61.639027    61.300628    61.469436    12498.635 
 4615000   -205013.07    1.5943386 -0.0021567109    61.492012    61.434081    61.646048    12513.069 
 4620000   -205034.24    1.6116436  -0.00390324    61.461879    61.522021    61.530897    12527.409 
 4625000   -205064.31    1.6078165 0.0018067391    61.433222    61.483019     61.37292    12541.685 
 4630000   -205158.71     1.531125 -0.0023138794    61.388806     61.49788    61.451961    12556.084 
 4635000   -205009.79    1.6518552 -0.0021584612    61.285701    61.584618    61.581365    12570.435 
 4640000   -204819.97    1.6061837 0.0037240705    61.426983    61.671697    61.541239    12584.883 
 4645000   -204942.66    1.5993559 -0.0028035286    61.683579    61.443499    61.516491    12599.209 
 4650000    -204852.2    1.6358337 -0.0042301528    61.472839    61.703247    61.596045    12613.557 
 4655000   -204940.33    1.6227294 0.0032470445    61.544463    61.544451    61.313922    12627.803 
 4660000   -204880.81    1.6090959 0.0015752687    61.501848     61.66649    61.287251    12642.146 
 4665000   -205021.88    1.6044921 -0.00018782796    61.381119     61.51497    61.538764    12656.534 
 4670000   -204991.06    1.5972238 -0.0042265891    61.839179    61.394349    61.245542    12670.929 
 4675000   -204869.64     1.617124  0.002956362    61.437046      61.5996     61.47364     12685.27 
 4680000   -204833.41    1.6210133 0.0016289408    61.424631    61.649747    61.708774    12699.598 
 4685000   -205119.45    1.6338176 -0.0021612067    61.398129    61.749297    61.284259    12713.995 
 4690000   -205230.66    1.6421201 0.0049189439    61.297143    61.474134    61.383775    12728.388 
 4695000   -204920.47    1.6113602 0.0047639054    61.448316    61.455443    61.570815     12742.71 
 4700000   -204878.15    1.6569875 0.0020491095    61.420032    61.630777    61.483172     12757.07 
 4705000   -204709.41    1.6077934 0.0011363316     61.57415    61.741471    61.393862    12771.388 
 4710000   -204825.79    1.6329681 0.0010477993    61.383702    61.476404    61.676909    12785.749 
 4715000   -204951.53    1.5483848 -0.008799312    61.465957    61.693276    61.493084    12800.063 
 4720000   -204950.13    1.6336605 0.0045258896    61.438463    61.516496    61.375208    12814.475 
 4725000   -204785.16    1.6161063 -0.0022387306    61.635804    61.406797    61.632086    12828.895 
 4730000    -204756.9    1.5911569 0.0011642549    61.398552    61.691298    61.592884    12843.169 
 4735000   -204768.01    1.5680577 0.0044711256     61.52049    61.605066    61.487172    12857.404 
 4740000   -204596.59    1.6021651 -0.00062612883      61.5215    61.703116    61.570085    12871.761 
 4745000   -204708.09    1.5767176 -0.0074821662    61.709775    61.583049    61.552598    12886.069 
 4750000   -204897.91    1.6235946 0.0038780404    61.364467    61.557144    61.398753     12900.31 
 4755000   -204861.75    1.5591728 -0.0023963185     61.34575    61.649416    61.650535      12914.6 
 4760000   -204856.66    1.5666168 0.0011721824    61.432232    61.255034    61.829524    12928.861 
 4765000   -204919.57     1.562736 -0.0029112071    61.338739    61.701761    61.620444    12943.244 
 4770000   -204841.77     1.589922 -0.0020332689    61.469312    61.532998    61.578021    12957.595 
 4775000   -204886.87    1.5967412 -0.0017897427    61.456973    61.697363    61.359452    12971.974 
 4780000   -204821.26    1.5511216 -0.0023295177    61.133981    61.540631    61.739462    12986.253 
 4785000   -204979.11    1.5639303 0.0018152035    61.484277    61.309074    61.442217    13000.564 
 4790000    -204849.4    1.5981902 -0.0020809823    61.451027    61.607192    61.443291    13014.965 
 4795000   -204815.37    1.6272066 -0.003671458    61.613072    61.668509    61.435156    13029.292 
 4800000   -204889.14    1.5714446 0.0050796052     61.28784    61.614311    61.382523    13043.571 
 4805000   -205003.12     1.595278 0.0026106588    61.595186    61.316767    61.439207    13057.849 
 4810000   -204780.11    1.5384032 -0.0013865012    61.469073    61.646568     61.42591    13072.164 
 4815000    -204527.2    1.5974656 0.0036435473    61.608297    61.675814    61.418811    13086.507 
 4820000   -204363.17    1.5704835 -0.0031028587     61.61758     61.84274       61.661    13100.732 
 4825000   -204641.77      1.60724 0.0053687557    61.688412    61.464116    61.530995    13114.974 
 4830000   -204447.72    1.5966519 -0.0071537665    61.805328    61.868207    61.616444    13129.248 
 4835000   -204695.37    1.6018999 0.0091305353    61.560264    61.446033    61.439101    13143.506 
 4840000   -204504.45    1.6106067 -0.0052264382    61.638933    61.846096    61.626449    13157.786 
 4845000   -204600.46    1.5263532 -0.0049914877    61.497806    61.783766    61.673864     13172.06 
 4850000   -204550.58    1.6240531 -0.0032263545     61.64607    61.878022    61.497966    13186.318 
 4855000   -204666.85    1.6153041 0.0029357379    61.585224    61.696285    61.485042    13200.638 
 4860000   -204615.12     1.597527 -0.0053441157    61.818459    61.500993    61.609066    13214.987 
 4865000   -204786.21    1.5766036 0.0045264104    61.599907     61.40407    61.482709    13229.304 
 4870000   -204704.31    1.6029249 -0.0088185937    61.802168    61.537298     61.48247    13243.525 
 4875000   -204805.18    1.5510002 0.0054191896    61.564071    61.346208    61.484166    13257.827 
 4880000   -204710.22     1.569125 0.0022057583    61.504723    61.753376    61.434111     13272.14 
 4885000   -204628.74    1.5735729 -0.0057408631    61.777854    61.703533    61.584922    13286.545 
 4890000   -205023.81    1.5855621 0.0049479215    61.294675    61.430918    61.398802    13300.855 
 4895000   -204790.82    1.6215157 -0.00074019737    61.449165     61.39357    61.857771    13315.086 
 4900000   -204646.91    1.6384877 0.0012605883    61.495705    61.462679    61.803438    13329.415 
 4905000   -204873.48    1.6311526 -0.0032390274    61.490325    61.688043    61.507031    13343.759 
 4910000   -204696.83    1.5921245 -0.0027624764    61.778606    61.811536    61.352061    13358.041 
 4915000   -204777.15    1.5728652 -0.0051016494    61.715094    61.677366     61.61535     13372.22 
 4920000   -204835.56    1.6157764 0.00028291083    61.411696    61.631469    61.663243    13386.483 
 4925000   -204805.43    1.5356948  0.001253902    61.573829    61.694461     61.35746    13400.789 
 4930000   -204950.23    1.5826364 -0.0011727464    61.421841    61.857471    61.510865    13415.042 
 4935000   -204724.26    1.5582072 -0.0055173849      61.4958      61.7105     61.67967    13429.409 
 4940000   -205027.19    1.5655368 0.0046968758    61.370327    61.373704     61.48415    13443.665 
 4945000   -204905.76    1.5967096 -0.00037603466     61.45063     61.49943    61.503078    13458.046 
 4950000    -205019.5    1.5590395 -0.0017681563    61.619838    61.479451     61.55484    13472.362 
 4955000   -204924.15    1.6283335 0.00084205001     61.50648    61.617574    61.408467    13486.547 
 4960000   -204637.09    1.6287022 -0.0031598175    61.753692     61.47784    61.663275    13500.882 
 4965000   -204990.48    1.6063515 0.0031726868     61.37686    61.581711    61.394854    13515.201 
 4970000   -204916.72    1.5903007 0.0032893516    61.505797      61.6663    61.312581     13529.59 
 4975000   -205086.19    1.5691149 -0.0045226016    61.510651    61.523597    61.553689     13543.99 
 4980000   -204971.37    1.6366811 0.0011448473    61.728382    61.263745    61.558667    13558.326 
 4985000   -204784.64     1.570179 -0.0032496269    61.493934    61.517632      61.7392    13572.673 
 4990000   -205044.54    1.6157855  0.003234239    61.561109    61.448911    61.407236    13587.008 
 4995000   -204738.71    1.5892743 -0.0055567868    61.739966    61.565988    61.575527    13601.265 
 5000000   -204895.81    1.5976917 0.0013980687    61.429861    61.540044    61.454743    13615.518 
 5005000   -204879.84    1.5491183 0.0051995834    61.470741     61.38825    61.474298    13629.777 
 5010000   -204806.23    1.5830314 0.0010730776    61.360882    61.660116    61.541182     13644.15 
 5015000   -205013.54    1.5727021 -0.0042303195    61.662423    61.474029    61.357343    13658.469 
 5020000   -204904.76    1.5970297  -0.00197738    61.525247    61.374798    61.643819    13672.775 
 5025000   -204932.54    1.6506321 0.00053321698    61.623493    61.629713     61.35828    13687.079 
 5030000   -204886.64     1.569196 -0.0027681926     61.61907    61.550661    61.544197    13701.361 
 5035000   -204767.27    1.6125738 0.0051958257    61.665694    61.316444    61.431303     13715.75 
 5040000   -204870.68    1.6248181 -0.0024667242    61.567492     61.57934    61.634855    13729.978 
 5045000   -204944.79    1.6342325 0.0059445857    61.659856    61.263927    61.450945    13744.316 
 5050000    -204949.2    1.5575275 0.0029890722    61.511913    61.586368    61.332354    13758.758 
 5055000   -204771.83    1.5984735 -0.0025725311    61.818794    61.425734    61.581291    13773.099 
 5060000   -204757.54    1.6325026 -0.0011848124     61.48408    61.615927    61.686233    13787.357 
 5065000   -204735.74    1.6293733 -0.0024451514    61.774724      61.4569    61.664681    13801.661 
 5070000   -204716.24    1.5550931  0.002130627     61.62669    61.573486    61.590088    13815.975 
 5075000   -204797.78    1.6164718 -0.0031654353    61.442127    61.635394    61.892183    13830.299 
 5080000   -204551.04    1.5865174 0.0035891391    61.687581    61.491561     61.72199     13844.53 
 5085000   -204611.98    1.5599014 0.0029269988    61.507921    61.553215    61.662503    13858.934 
 5090000   -205025.13    1.6117751 0.0073503223    61.343756    61.292642    61.598556    13873.263 
 5095000   -204979.36    1.5685906 -0.0018090618    61.389728    61.425647    61.679351    13887.536 
 5100000   -204881.15     1.577131 0.00048147696     61.57927    61.569278    61.446367    13901.871 
 5105000   -204726.47    1.6270575 -0.00015287688    61.832353    61.542206     61.48992    13916.232 
 5110000   -204812.87    1.6122687 0.00044294635    61.489576    61.522017    61.682419      13930.6 
 5115000   -204881.58    1.5728181 -0.0054387001    61.401206    61.460828      61.8915    13944.909 
 5120000   -204939.97    1.6324091 -0.0023043502    61.399207    61.565109    61.738463    13959.227 
 5125000   -204711.13    1.6016284 -0.0015408603    61.494956    61.584769    61.679587    13973.678 
 5130000   -205035.67    1.6330828 0.0023440257    61.594632    61.413099    61.471687     13988.08 
 5135000   -204772.36     1.569628 0.0023585716    61.571731    61.710013     61.25554    14002.425 
 5140000   -204766.23    1.5668963 -0.0051742823    61.364804    61.637422    61.771616    14016.693 
 5145000   -205029.99    1.6183997 0.0025441591    61.348585     61.53472    61.470971    14031.071 
 5150000   -204909.98    1.6342621 0.0001355598    61.551113    61.461328    61.603668    14045.476 
 5155000   -205005.27    1.6076934 -0.0025022626    61.445664    61.450623    61.622233    14059.861 
 5160000   -204996.63     1.618302 0.0022162663    61.320318     61.51335    61.490921    14074.219 
 5165000   -204897.13    1.5945382 -0.00097236284    61.364333    61.494816    61.559673    14088.543 
 5170000   -204895.77    1.5999077 -0.0044321834    61.571578    61.645296    61.547742    14102.916 
 5175000   -204789.41    1.5941121 -0.0053959031    61.707016    61.546953    61.629769    14117.196 
 5180000   -204783.99    1.5795721 -0.0012291257    61.466296    61.634878    61.654518    14131.674 
 5185000   -204701.81    1.5903676   0.00402651    61.465969    61.416737    61.801079     14145.96 
 5190000   -204713.71    1.5651821 0.00030295903    61.576069     61.54248    61.579086    14160.284 
 5195000    -204746.1    1.6004265 0.00078658705    61.466757    61.488147    61.607845    14174.622 
 5200000    -204841.8    1.6254209 -0.0016694806    61.466685    61.611788    61.609434    14188.971 
 5205000   -204786.41    1.5547226 0.0079492141    61.379028    61.446656    61.513961    14203.355 
 5210000   -204727.03     1.615651 -0.0053363445    61.512048    61.450307    61.757354    14217.607 
 5215000   -204826.89    1.5764484 0.0047153019    61.222146     61.67135    61.502752    14231.895 
 5220000   -204813.83    1.5831854 -0.00018339501    61.584052    61.452243    61.581959    14246.174 
 5225000   -204725.08    1.5766099 0.0066189337    61.544623    61.627983    61.416848    14260.511 
 5230000   -204651.09    1.5833111 -0.0062635962    61.813976    61.659474    61.527022    14274.839 
 5235000   -204692.46    1.5861997 -0.0036474491    61.697006    61.736689    61.439547    14289.099 
 5240000    -204670.2    1.5595653 0.0043395308    61.471534     61.56088    61.625531    14303.515 
 5245000   -204736.02    1.5776686 0.00021146053    61.541528    61.435678     61.65475    14317.927 
 5250000   -204782.82    1.5605533 0.0012141748    61.562998    61.671715    61.266359     14332.33 
Loop time of 14332.3 on 8 procs for 5000000 steps with 2304 atoms

Performance: 30141.645 tau/day, 348.862 timesteps/s
94.0% CPU use with 8 MPI tasks x 1 OpenMP threads

MPI task timing breakdown:
Section |  min time  |  avg time  |  max time  |%varavg| %total
---------------------------------------------------------------
Pair    | 2662       | 2964.7     | 3376.5     | 425.2 | 20.69
Bond    | 0.36997    | 0.42459    | 0.47995    |   5.4 |  0.00
Kspace  | 5438.8     | 5480.4     | 5521.3     |  32.7 | 38.24
Neigh   | 769.62     | 776.4      | 796.38     |  28.1 |  5.42
Comm    | 596.61     | 608.95     | 621.65     |  30.1 |  4.25
Output  | 0.71902    | 0.73257    | 0.82505    |   4.1 |  0.01
Modify  | 3296.7     | 4120.2     | 4732.3     | 785.3 | 28.75
Other   |            | 380.5      |            |       |  2.65

Nlocal:        288.000 ave         297 max         281 min
Histogram: 2 0 1 1 0 1 1 1 0 1
Nghost:        7212.88 ave        7237 max        7186 min
Histogram: 1 0 1 1 1 0 2 0 1 1
Neighs:         0.00000 ave           0 max           0 min
Histogram: 8 0 0 0 0 0 0 0 0 0
FullNghs:      307955.0 ave      317658 max      300174 min
Histogram: 2 0 1 1 0 1 1 1 0 1

Total # of neighbors = 2463640
Ave neighs/atom = 1069.2882
Ave special neighs/atom = 0.0000000
Neighbor list builds = 72625
Dangerous builds = 0

    timestep 0.0005
    variable fbig equal $b*-80
    variable fbig equal .8*-80
    variable fsmall equal $b*10
    variable fsmall equal .8*10
    unfix zeromom
    fix field1 big addforce v_fbig 0 0
    fix field2 small addforce v_fsmall 0 0
    run 30000000
PPPM initialization ...
  using 12-bit tables for long-range coulomb (src/kspace.cpp:340)
  G vector (1/distance) = 0.11907499
  grid = 30 30 30
  stencil order = 5
  estimated absolute RMS force accuracy = 0.00049588019
  estimated relative force accuracy = 0.00049588019
  using double precision KISS FFT
  3d grid and FFT values/proc = 8000 3600
  generated 0 of 1 mixed pair_coeff terms from geometric mixing rule
Per MPI rank memory allocation (min/avg/max) = 11.02 | 11.04 | 11.05 Mbytes
Step PotEng Temp c_press Lx Ly Lz CPU 
 5250000   -204782.83    1.5605533 0.0012137848    61.562998    61.671715    61.266359            0 
 5255000   -199533.28     1.637525 0.00025753559    67.146653    62.129709    62.259286    13.595545 
 5260000    -195242.5    1.7259542 -0.0013670517    76.501168    63.398451    62.965987    26.654047 
 5265000   -191739.48    1.6805493 -0.0020007127    84.943969    63.025895    63.344749    39.214525 
 5270000   -192111.04    1.6695816 0.0014414603    77.495501    63.750394    64.355179     51.71661 
 5275000    -194544.1    1.7352318 0.0025742803    72.121807    64.408941    64.087791    64.481536 
 5280000   -193033.95    1.6705082 0.00020740737    76.331422    64.347865     63.75674    77.219801 
 5285000   -191981.55    1.6539111 -0.003999834    77.929321    64.106989    64.066087    89.800917 
 5290000   -193204.49     1.711632 0.0021024066    73.285762    63.807748    64.633902      102.475 
 5295000   -193483.84    1.6717882 0.0016054225    72.725521    64.343205    64.560054    115.27003 
 5300000   -193309.59    1.6497747 0.0024017768    73.778307    63.904958    64.715334    128.00612 
 5305000   -193374.26    1.6986115 0.00038141051    73.080886    64.401943    64.410578    140.74576 
 5310000   -193736.89    1.7267218 -0.0021231519    72.485908    63.682287     65.02379    153.52009 
 5315000   -193327.76    1.6669412 -0.0016697578    74.067789    63.920132    64.787524    166.28219 
 5320000   -192862.48    1.6875347 -0.0013074047    74.856139    63.925687     64.84015    178.98618 
 5325000   -193009.07    1.7431947 0.0021202566    73.537902     64.02473    65.114342    191.64981 
 5330000   -193433.24     1.724863 -0.00060777207    73.612841    64.059076    64.710745    204.38687 
 5335000   -193582.69    1.7057592 0.0041486262    73.111819    63.582677      65.0748    217.09819 
 5340000   -193224.33    1.6957639 0.0028302755    74.179674    63.764402    64.675861    229.83234 
 5345000   -193496.62    1.7231619 -0.0008523821    73.192217    64.038711    65.200211    242.55969 
 5350000   -193359.59    1.6797638 -0.0050066642    74.038165    64.943482     64.06271      255.267 
 5355000   -193600.59    1.6738234 0.0062415177    73.611085     64.72599    63.653337    268.00114 
 5360000    -193595.2    1.6955045 0.0026586675     73.32207    64.714825    64.026159    280.72262 
 5365000   -193785.09    1.7274737 -0.0036458861    72.905549     65.16173    63.747446    293.45982 
 5370000   -193756.16    1.6924099 0.00036430439    73.006926    64.506515    64.154102    306.24234 
 5375000   -193580.11    1.6807682 0.00078082834    73.565901    64.597785    64.440672    318.97774 
 5380000   -193616.65    1.7259878 0.00082129632    73.275597    64.546679    64.602933    331.70932 
 5385000   -193344.62    1.7024647 6.4493349e-05    74.172517    64.515731    64.578709    344.41962 
 5390000   -192875.38    1.6798492 -0.0060948614     74.24652    65.265569    64.147986    357.10671 
 5395000   -193587.53    1.6742933 0.0021698346    72.856212    64.831792    64.108976    369.80973 
 5400000   -193779.01    1.6823149 0.0011797582    72.108494    64.326873    65.206772    382.62673 
 5405000   -193438.59    1.6515547 0.00080465515    72.549964     64.06914    65.505734    395.35531 
 5410000   -193348.02    1.6628587 -0.00045244039    72.844771    64.140624    65.299911    408.11638 
 5415000   -193745.91    1.7465592 0.0027251437    71.231185    64.640824    64.672614    420.88291 
 5420000   -193440.45    1.7039463 -0.0032439871    71.926826     64.76745    64.692625    433.68665 
 5425000   -192877.06    1.7013354 -0.0044238652    73.453371    64.477501    64.979181    446.41781 
 5430000   -192870.25    1.6767124 0.00074572369    73.903726    64.769805    64.485233    459.11765 
 5435000   -193024.95    1.7182881 0.0032819637    73.760474    64.521024    64.815302    471.83688 
 5440000   -193596.04    1.7034276 -5.5305869e-05    73.412271    64.799573    64.293799    484.53484 
 5445000   -193831.51    1.7237298 -0.0024035257    73.593924    64.235393    64.622478    497.27229 
 5450000   -193225.39    1.6888566 -0.002341223    73.359642    64.644767    64.580107    509.99807 
 5455000   -193761.93    1.6899355  0.006080531    71.618773    64.690335    64.407352    522.73516 
 5460000   -193552.63    1.7166633 0.0057993169    72.865414     64.78746    64.159081    535.45426 
 5465000    -193682.7    1.7149895 -0.0039722935    72.641854    64.533654    65.035044    548.16109 
 5470000   -193608.81    1.6852286 0.0024427412    72.196563    64.567216    64.728993    560.90016 
 5475000   -193789.78    1.7173697 -6.9785391e-05    71.934592    64.883914    64.562821    573.66264 
 5480000   -193666.87    1.7135135 2.1645583e-05    72.121925    64.592305    65.063549    586.43104 
 5485000   -193706.16    1.6865916 0.00017594298    72.260167    65.269843    64.020805    599.18068 
 5490000   -193348.38    1.7658853 -0.0011905435    72.982998    65.003863    64.177018    611.96822 
 5495000   -193014.68    1.7158552 0.00059963602    73.056367    64.901513    64.531765    624.67112 
 5500000   -193206.43    1.6859768 0.0050479837    73.509351     64.28511    64.383497    637.41412 
 5505000   -193233.97    1.6866069 -0.00019597935     72.95291    64.218681    64.941381    650.18247 
 5510000   -193095.22     1.738398 0.0012709219    73.473022    64.396935    64.735806    662.92519 
 5515000   -193530.58    1.7064922 -0.0035588456      73.5947    64.322043    64.602625    675.68308 
 5520000   -193541.92    1.7097596 -0.0047606774    72.545619    64.932865    64.602458     688.4503 
 5525000    -193455.8    1.6847982 0.00038362689    72.777058    64.829571    64.575955    701.24354 
 5530000   -193409.35    1.6985976 -0.00098518839    73.015485    64.424142    64.650008    714.01393 
 5535000   -193084.76    1.6867972 -0.003918415    73.703115    64.330569    64.890032    726.73091 
 5540000    -193196.2    1.6963885 0.00046883369    74.070984    64.103375    64.580339    739.43439 
 5545000    -192816.3    1.7010026 0.0022170744    74.959467    64.414461    64.381963    752.16524 
 5550000   -193021.56    1.6782252 -0.0019717178    74.465909     64.41119    64.529814    764.83998 
 5555000   -193321.84    1.7453309 0.0051215558    72.587991    63.921545    64.873379    777.56926 
 5560000   -193266.34    1.7450976 -0.0013628351    72.562955    64.144257     64.99173    790.32828 
 5565000   -193488.33    1.7460338 0.0025121735    72.671625    63.889124    65.114891    803.08395 
 5570000   -193070.67    1.6936994 -0.0012703913    74.454519    64.297558    64.742645    815.85071 
 5575000   -192791.02    1.7078779 -0.0010645327    74.099393    64.025088    65.077043    828.51487 
 5580000   -193738.83    1.7393612 0.0018005913    73.076078    63.689958    64.939013    841.35783 
 5585000   -193558.51    1.6618956 -0.0042876528    73.425712     63.77352    65.230692    854.08718 
 5590000   -193360.32     1.702297 0.0042529711    73.387015    63.954437    64.857493    866.85151 
 5595000   -193547.63    1.7130697 -0.003711813    72.811805    64.815038    64.628731     879.6042 
 5600000   -193554.77     1.723477 -0.00050993577     72.98273     64.59773    64.579356    892.41618 
 5605000   -193419.53    1.7169218 -0.0015963917    74.191399    64.529342    64.150412     905.1352 
 5610000   -193260.85    1.6940818 0.0031276311    73.446064    64.420156    64.614362    917.89897 
 5615000   -193380.22    1.6906385 0.00065496221    72.564716     64.67985    64.899619    930.65093 
 5620000   -193189.44    1.6862814 -0.001098778    73.116529    65.060675    64.466105     943.3885 
 5625000   -193257.11     1.719096 0.0035069644    73.432257    64.564067    64.723521    956.11794 
 5630000   -193414.18    1.6640469 -0.0011516071    73.433204    64.482607    64.682723    968.84221 
 5635000   -193520.29    1.6608538 -0.00031646486    72.573717    65.070679    64.374286    981.55866 
 5640000   -193481.49    1.7291605 -0.0047718603    72.143053    64.746867    65.130117    994.37455 
 5645000   -193414.13     1.711661 0.0041942988    72.162514    64.688921    64.329581    1007.1971 
 5650000    -193354.8    1.6727617 9.6640501e-05    72.328504    64.532272    64.829066    1020.0239 
 5655000   -193205.78    1.6569084 -0.0019647115    72.389587    64.641558    65.093015    1032.8299 
 5660000   -193157.54    1.7071237 0.00040372387    72.818798    64.590692     65.01143    1045.6099 
 5665000   -193271.68    1.6968727 0.00083865294    73.813322    64.309579    64.832291    1058.3376 
 5670000   -193190.68    1.7237522 0.0032003186    74.451394    64.565781    64.688081    1071.0379 
 5675000   -193091.91    1.7347822 0.0015704582    74.172933     64.29517    64.880422    1083.7017 
 5680000    -193136.2    1.6989494 0.0026707486    73.787802    64.706235    64.252249     1096.394 
 5685000   -193326.93    1.6885156 -0.0012518573    73.666198    64.754086    64.173672     1109.112 
 5690000   -193705.31    1.7061915 -0.0026638348    72.734294    64.801081    64.318245    1121.8684 
 5695000   -193636.58    1.6566312 -0.0019810425    73.017327    64.055637     65.02649    1134.6459 
 5700000   -193700.69    1.6907488 -0.0019155808     73.17412    63.387977    65.337889    1147.4173 
 5705000   -194135.35    1.6559767 -0.0031336944    72.585142    63.883481    64.976961    1160.1596 
 5710000   -194001.84    1.6934678 -0.0027629838    72.300254    64.220097    64.787907    1172.9449 
 5715000   -193705.78    1.7335589 0.0018160687    73.122026    64.590161    64.015051    1185.7344 
 5720000   -193811.69    1.6683795 -0.001543613     72.56591    64.444822     64.23858    1198.5424 
 5725000   -193478.95    1.6846227   0.00210068    73.291939    64.726218    63.918205    1211.3394 
 5730000   -193234.01    1.7314058 0.00062806337    72.873691    64.280865    65.221291     1224.111 
 5735000   -193091.04    1.7311691 0.0024178066    73.995497    63.623851    65.369185     1236.832 
 5740000   -193026.66    1.7085841 -0.0036594147    73.887936    64.319911     64.99736    1249.5581 
 5745000   -193192.69    1.7191248 -0.0048915617    73.577844    64.162346    65.359702     1262.283 
 5750000   -193115.59    1.7019302 -0.002165338    73.209897    64.714093    64.647737    1274.9931 
 5755000   -193356.07    1.7183536 -0.0014524989    73.448545    64.396186    64.570096    1287.7607 
 5760000   -193448.52    1.7085532 -0.0019807973    73.402097    64.143518     64.60903    1300.5175 
 5765000    -192979.5    1.6935175 -0.0037257879    73.652874    64.506914    64.870499    1313.2445 
 5770000   -193399.73    1.7227699 0.0044875388    73.535285    64.175516     64.71405    1325.9464 
 5775000   -193031.31    1.6173721 -0.0059473345    73.968656    64.487729    65.037703     1338.635 
 5780000   -193247.23    1.7146232 -0.001589964    72.673549    64.459329    64.979919    1351.3356 
 5785000   -193390.37    1.7319144 0.0012362707    73.469091     64.04164    64.774193     1364.113 
 5790000    -193851.6    1.6562807 3.7987945e-05    72.868663    63.955935    64.953572    1376.8635 
 5795000   -193779.25    1.6889962 -0.0044452292    72.417226    64.466809    65.273775    1389.6335 
 5800000   -193532.51    1.6637547 -0.001245895    72.778425    64.816778    64.686991     1402.369 
 5805000   -193623.13    1.7537516 0.0014588336    72.693691    65.033327    64.224677    1415.1226 
 5810000   -193569.64    1.6765611 0.00042150672    73.212926    64.910032    64.236903    1427.8921 
 5815000   -193676.61    1.6713815 -0.0042684185    73.076829    64.412939    64.634309    1440.6354 
 5820000   -193517.28    1.6645617 -0.0019112969    72.632696    64.814124    64.695055    1453.4453 
 5825000   -193728.74    1.7289214 0.0010590763    72.668515    64.937119    64.403747    1466.2281 
 5830000   -193145.89    1.6827684 0.0014795884    73.012437    64.727606    64.676869    1478.9677 
 5835000   -193386.97    1.6950891 -0.0042028022     72.22205    64.690677    65.252635    1491.7201 
 5840000   -193370.23      1.73865 9.5067456e-05    73.091529    64.478425    65.014311    1504.4973 
 5845000   -193656.32    1.7213132 -0.0045192262    72.660228    64.305269    65.304106    1517.2592 
 5850000   -193782.14    1.6699333 8.1219578e-05    72.683888    64.447138    64.877446    1530.0215 
 5855000   -193598.71    1.6644972 -0.0017128736    72.417945    64.320698    64.970243    1542.7647 
 5860000   -193637.51     1.691212 0.0039792256    72.337418    64.476595    64.497993     1555.512 
 5865000   -193597.21    1.7170449 -0.0029132064    72.067235    65.057566    64.733383    1568.2943 
 5870000   -193384.08    1.7299064 0.00092908181    72.350663    65.075598    64.512281    1581.0731 
 5875000    -193496.6    1.7030319 -0.00031026982    72.527545    65.398713    64.328455    1593.8564 
 5880000   -193323.66    1.7266242 0.0044846476    72.759908    65.103014    64.528934     1606.607 
 5885000   -193404.68    1.6917557 -0.0019126701    72.775836     64.45864    65.090425    1619.3236 
 5890000   -193445.61    1.6503006 0.0026365752    72.178325    64.404552    65.007029    1632.0474 
 5895000   -193896.52    1.6550848 0.0052622325    71.724076    64.134226    64.639956    1644.8226 
 5900000   -193948.23    1.6873894 0.00094893344    72.240722    64.069632    64.566829    1657.5921 
 5905000   -193368.01     1.649891 0.0034440906    73.617237    64.798365     63.94382    1670.3881 
 5910000    -192958.2    1.7225468 0.00064874582    73.957117    66.024122    63.671608    1683.0928 
 5915000    -193004.1    1.7266739 -0.00011889594    74.018036    65.548546    63.816223    1695.7636 
 5920000   -193293.58    1.7093822 0.00042594792    73.178975    64.882793    64.386377    1708.4424 
 5925000   -193088.33    1.6887276 -0.00036820872     73.57522    64.860926    64.414215    1721.2063 
 5930000   -192883.97    1.6732058 -0.0012876076    74.110102    64.477696    64.861132    1733.8785 
 5935000   -193374.47    1.6878158 0.0021849605     73.24168     64.77849    64.576197    1746.6195 
 5940000    -193326.5     1.695376 0.00084515669    73.396006    64.383065    64.725923    1759.3138 
 5945000    -193654.6    1.6822668 0.00054106147    72.787291    64.882164    64.301745    1772.0895 
 5950000   -193419.41    1.7198319 0.0050880326    72.329673    65.125072    64.643302    1784.8686 
 5955000    -193286.9    1.6850979 -0.0044848233    73.527083    64.738806     64.84821    1797.5904 
 5960000   -193384.84    1.7034649 0.00065112058    73.392306     63.86446    65.251955    1810.3074 
 5965000   -193759.95    1.6381739 -0.00025482915    72.232098    63.851265     65.52731    1823.1076 
 5970000   -193857.46    1.7198705 -0.00057262198    72.905806    63.936218    65.086266    1835.8845 
 5975000   -193634.88    1.6715815 -0.0079845288    72.856036    65.055029    64.756409    1848.6374 
 5980000   -193760.95    1.6769439 -0.0040097957    72.148268     64.82207    64.724051    1861.3762 
 5985000   -193867.65    1.7047746 0.0028994714    71.634948    64.497444    64.492488    1874.2217 
 5990000   -193359.65    1.6946001 -0.0037678104    72.739745    64.879794    64.571737    1886.9979 
 5995000   -193367.21     1.716622 0.0023153261    72.529567    64.290988    65.115478     1899.765 
 6000000   -193634.54    1.6994238 0.0004689472     73.68754    63.747071    64.927799    1912.5208 
 6005000   -193555.58    1.7153202 0.0047870319    73.525161    64.102997    64.272915    1925.2932 
 6010000   -193320.25    1.7038577 0.0024158504    72.693733    64.958595    64.254444    1938.0397 
 6015000   -193405.88    1.7746642 0.00092028186    72.751955    64.798852      64.4809    1950.8187 
 6020000   -193569.07    1.6726434 -0.0013579893    72.912195    64.965139    64.512425    1963.5499 
 6025000   -193225.92     1.685283 -0.0045056152    73.314029    64.859535    64.379733    1976.3047 
 6030000   -193471.05     1.722443 -0.00056116098    72.108743     64.58378    64.883577    1989.1023 
 6035000   -193298.91    1.6911326 0.00086068027    73.225601    64.559166     64.61941    2001.8968 
 6040000   -192878.66    1.6748343 -0.0017889242    74.430514    64.511332    64.826561    2014.6212 
 6045000   -193242.13    1.7617081  0.001981272     73.78122    64.065889    64.768138     2027.281 
 6050000   -193502.51    1.6480343 7.1118351e-05    73.303967    64.447011    64.616697    2039.9656 
 6055000   -193571.11    1.7288469 0.00068558284    72.830637      64.6424    64.589402    2052.6863 
 6060000   -193670.51    1.7129139 0.0041433455    71.543696    65.141529    64.462094    2065.4728 
 6065000   -193616.65    1.6472086 -0.0037965866    72.677644     64.62652    64.585961    2078.2612 
 6070000   -193464.88    1.6540854 0.0051836725    72.787584    64.792291    64.418235    2091.0987 
 6075000   -193386.45     1.725034 0.0035092376     73.28862     64.50219    64.578466    2103.8267 
 6080000   -193207.52    1.7027312 0.00036774808    73.899447    65.030086    63.994421     2116.544 
 6085000   -193486.28    1.7098173 0.00074775259     73.40758    65.303713    64.089228    2129.3043 
 6090000   -193330.22     1.731854 0.0002004088     72.67709     65.24653     64.22669    2142.0374 
 6095000   -193350.25    1.7210135 0.0039611397    72.949508    64.808835    64.193011    2154.8079 
 6100000    -192933.6    1.6902632 -0.0031625454     73.92338    64.375431     64.61482    2167.5087 
 6105000   -193378.22    1.7009974 -6.7988414e-05    73.688939    64.285766    64.808002    2180.1886 
 6110000   -193206.91    1.7144946 0.00066945666    73.946961     64.54085    64.893452     2192.865 
 6115000   -193205.56    1.7146742 -0.0014060507    74.335277    64.802214    64.367783    2205.5596 
 6120000   -193253.35    1.7303796 0.00093036928    74.299354    64.526224     64.42828    2218.2236 
 6125000   -193262.57    1.7201505 -0.0012856503    73.754753    64.332418     64.83956    2230.9057 
 6130000   -192988.25    1.7062572  0.003382425    74.272013    63.643869     64.97873    2243.5703 
 6135000   -193002.78    1.7226004 0.00050615933    73.854848    64.367372    64.581473    2256.2283 
 6140000   -193381.23    1.6837715 -7.1976143e-05    72.336818    64.813912    64.453988    2268.9844 
 6145000   -193450.79    1.7185462 0.00055155564    73.215578       64.182    64.429361    2281.7187 
 6150000   -192887.72    1.7237836 -0.0028722124    74.380431     64.10013    64.781251    2294.4809 
 6155000    -193051.3    1.7278423 0.0026082277    73.859047    63.858874    65.063182    2307.1902 
 6160000   -193023.67    1.6577782 0.0012855325    73.600497    64.542368    64.528295    2319.9199 
 6165000   -193312.32    1.6852918 -0.0026748892    73.148947    64.814215     64.39079    2332.6343 
 6170000      -193641    1.6594615 0.0013758536    72.936731    64.295237    64.255402    2345.3771 
 6175000   -193698.69    1.7332763 -0.0033264767     72.70963    64.217158    64.912383    2358.1541 
 6180000   -193382.63    1.7313826 0.0056523075     73.01345    64.619813     64.53759    2370.8741 
 6185000   -193591.95    1.7287089 0.0012264526     72.34161    64.613303    64.746798    2383.6279 
 6190000   -193265.68    1.7058356 0.00014509165    72.886847    64.057079    65.289648    2396.4145 
 6195000   -193515.28     1.731217 0.0012376012    71.558683    64.760015    65.157735    2409.1636 
 6200000   -193698.65    1.6811938 0.0033561031     71.55604    64.569124    65.127444    2422.0192 
 6205000   -193395.25    1.7243815 0.00049574886    72.622423    64.748573    64.976559    2434.8378 
 6210000   -193177.25     1.680321 0.0040477263    73.593904     64.53132    64.643924     2447.605 
 6215000   -193150.88    1.7080629 -0.0023688442     72.91297    65.170462    64.721148    2460.3001 
 6220000   -193632.16    1.7419766 -0.0014631346    72.320922    65.235778     64.49633    2473.0381 
 6225000   -193646.04    1.7055416 -0.0036143216    72.377763    65.156786    64.481932    2485.8339 
 6230000   -193591.11    1.6545996 -0.001492259    72.356097    64.978661    64.892182    2498.6476 
 6235000   -193372.88    1.6954179 -0.0022501308    72.183584    65.445166    64.898692    2511.4191 
 6240000   -193659.11    1.6985489 -0.0040730898    71.465787    65.042733    65.075082     2524.204 
 6245000   -193646.94     1.720447 -0.0010720427    71.690417    65.367302    64.476937    2536.9984 
 6250000    -193735.9    1.7025001 0.0013354525    71.593526    65.459063    64.100786    2549.8338 
 6255000   -193644.18     1.730944 0.0050726013     72.43172    65.057111    64.459673    2562.6168 
 6260000   -193501.64    1.6693786 -0.00022651386    72.108756     65.21276    64.882017    2575.3252 
 6265000   -193621.35    1.6607634 -0.0031360793     71.66219    65.309448    64.797298    2588.0622 
 6270000   -193717.55    1.7500218 0.00059863821    70.833998    65.433029    64.650504    2600.8129 
 6275000    -193794.2    1.7415633  0.004545924     70.98306    64.956848    64.840875    2613.5816 
 6280000   -193359.39    1.7338705 -0.0013000344    72.023372    65.187136     64.73545    2626.3575 
 6285000   -193335.36    1.7046565 0.00052658272    72.787964    65.167807    64.234737     2639.172 
 6290000   -193728.93    1.6970242 0.0043947741    71.798861    65.396117     64.11788    2651.9668 
 6295000   -193992.55    1.7100092 0.0020621667    71.554799    64.971694    64.234737    2664.7614 
 6300000   -193931.96    1.6670396 -0.0008660533    71.717266    64.765156    64.573464    2677.5751 
 6305000   -194043.57    1.7161698 0.00084126519    71.728097    64.654829    64.660637     2690.379 
 6310000   -194067.44    1.7314528 0.0016955946    71.746943    64.576217     64.47691    2703.1601 
 6315000   -194250.41    1.6555587 0.0041150575    70.855701    64.566197    64.602073    2715.9822 
 6320000   -193975.25    1.7159752 0.00051853221     71.11667    64.890588    64.555327    2728.7947 
 6325000   -193859.07    1.7457092 0.0033429344    71.909305      65.1485    64.226156    2741.6327 
 6330000   -193539.38    1.7076388 -0.0029056024    72.489067    64.951837    64.790219    2754.4253 
 6335000   -193567.25    1.6954146 0.0038193923    73.180946    64.485258    64.425265    2767.1646 
 6340000   -193422.14    1.6262417 0.00012533513     73.76847    64.412485    64.773325     2779.904 
 6345000   -193329.06    1.6638773 0.00042989266    72.640995    64.108903    65.433345    2792.6456 
 6350000   -193287.38    1.6744141 -6.2788151e-05     72.93166    64.277024    65.082318    2805.3837 
 6355000   -193558.63    1.7103696 -0.0010566317    72.772986    64.486047    64.969481    2818.1274 
 6360000   -193592.35    1.6756106 -0.0048652767    72.691493    64.736542    64.953547    2830.8487 
 6365000    -193285.3    1.7069486 0.00057675182    72.549883    64.815744     64.83546    2843.5497 
 6370000   -193532.55    1.7141619 0.0045399268    71.885171    64.110192    65.401231    2856.3476 
 6375000   -193605.62    1.7394907 0.00094108266    72.280486    64.021583    65.620628    2869.1044 
 6380000    -193239.2    1.6743453 -0.00013966097     73.95924    63.995898    65.102479    2881.8357 
 6385000   -192957.82    1.6916034 -0.0017993481     73.68054    64.272903    65.068534    2894.5459 
 6390000   -193168.52    1.6707006  0.002507763     72.90822    64.705862    64.572508    2907.2567 
 6395000   -193242.62     1.712128 0.00072948504    73.592045    64.848712    63.907157     2920.028 
 6400000    -193331.7    1.6837197 -0.0020673704    72.737579    65.246745     64.40426    2932.7616 
 6405000   -193551.89     1.649279 -0.0012303157    72.487752    64.667069     64.85588    2945.5718 
 6410000    -193415.5    1.7201635 0.0025576171    73.270624    64.151341    64.999667    2958.2891 
 6415000   -193422.54    1.7459688 -0.0016770243    72.809367    64.456752    65.023568    2971.0169 
 6420000   -193209.46    1.7547402 5.6423531e-05    74.114464    63.904345    65.137242    2983.7465 
 6425000   -193664.62    1.7124625 -0.0011695061    72.742257    64.167447    64.965849    2996.4471 
 6430000   -193417.62    1.7302962 -0.0017146877    72.122936    63.778969     65.88206    3009.2002 
 6435000   -193415.55    1.7197169 0.0033926101    71.583195    64.601213    65.297019    3022.0152 
 6440000   -193574.64    1.7127524 -0.0015836589    72.112245    65.036986    64.748647    3034.8139 
 6445000   -193291.84    1.7330418 -0.0053952506    73.837904    64.991765    64.216303    3047.5574 
 6450000   -193231.83    1.7246646 -0.00054700164    73.565943    64.799711    64.364534     3060.255 
 6455000   -193337.54     1.744767 0.00038150141     73.52042    64.574252    64.440345    3072.9613 
 6460000   -193298.15    1.6780402 -0.0051758198    73.798801    64.613818    64.687882    3085.7183 
 6465000   -193048.87    1.7313404 -0.0018522458    73.788994    64.349731    64.776265    3098.4731 
 6470000   -193364.77    1.6861474 0.00016572635    73.485691    64.128552    64.636047    3111.2165 
 6475000   -193422.06    1.6860012 -0.0017259526     72.54567    64.388627    64.864814    3123.9779 
 6480000   -193894.65    1.7289271 -0.0024205926    71.476331    64.467949       65.035    3136.7596 
 6485000   -193704.74    1.6824261 8.3051892e-05    72.184401    64.524288    64.760724    3149.5975 
 6490000   -193433.49    1.6872935 -0.0025760687    72.827327     64.72353    64.775515    3162.4039 
 6495000   -193230.45    1.6945215 -0.0022855048    73.496835    64.452695    64.733209    3175.1899 
 6500000   -192945.76    1.6842635 -0.0033067449    73.496257    64.206001    65.202225     3187.924 
 6505000   -193650.35    1.7204199 -0.00091379153    72.616808    63.963488    65.151425    3200.6611 
 6510000   -193821.09    1.6737902 -0.00092554292    72.345683    64.143998    64.991177    3213.4586 
 6515000   -193456.78    1.6714603 -0.0014797389    72.181843    64.725433    65.250594    3226.2538 
 6520000   -193291.71    1.7014167 0.0039252855    72.638494    64.237412    65.264926    3238.9452 
 6525000   -193401.45    1.7565669 -0.0028357843     72.63246    64.687513    65.302009     3251.626 
 6530000   -193668.52    1.7337526 -0.0020972377    72.127478    64.574312    65.175072    3264.3127 
 6535000   -193817.12     1.659002 -0.0017343786    71.593395    64.438029    65.140682    3277.1006 
 6540000   -193854.51    1.7109745 0.0017702495    71.650074    64.872431     64.59998    3289.9136 
 6545000   -193998.35      1.72811 -0.0032775685    72.208836     64.80969    64.533789    3302.6665 
 6550000   -193222.23    1.6751306 0.0022363352    73.162674    64.684122    64.344787    3315.4139 
 6555000   -193627.29    1.7365887 0.00045014935    72.937598    64.845187    64.299372    3328.1869 
 6560000   -193447.13    1.6859554 -0.001531724    73.366048    64.861649    64.509741    3340.8751 
 6565000   -193373.08    1.6710853 -0.00062675348    72.971348    64.995949    64.513657    3353.6109 
 6570000   -193679.76    1.7464545 0.0044766932    71.653107    64.510594    65.087561    3366.3622 
 6575000    -193612.3    1.7370428 0.00091337581    72.638536     63.83382     65.19665    3379.1044 
 6580000   -193116.49    1.7244368 -0.00099203094    73.335825     64.46078    64.987944     3391.837 
 6585000   -193359.49    1.7163135 -0.00023226478    72.282185     65.07481    64.713197    3404.6124 
 6590000   -193869.65    1.6550754 5.0587463e-05    72.042737    65.021583    64.288002     3417.388 
 6595000   -193765.98    1.6969877 0.00044758211    72.368103    64.960212     64.45916    3430.1306 
 6600000   -193660.08     1.701471 -0.0016452701    72.972561    64.654065    64.742107    3442.8992 
 6605000   -193306.21    1.7152105 0.0027624634    73.801764     64.50058    64.214737    3455.6393 
 6610000   -193671.52    1.6988227 -0.0013184478    71.934198    64.301505    65.379552    3468.3506 
 6615000   -193472.77     1.749748 -0.00092452706     71.99657    64.325489    65.294712    3481.1429 
 6620000   -193337.71    1.7208789 -0.0052653196    73.894963    63.882311     65.29842    3493.8771 
 6625000   -193288.91    1.6941975 -0.0030162953    74.034791     64.08917    64.722546    3506.6191 
 6630000   -193321.87    1.7621513 -0.0018264196    72.828282    64.124367    65.280002    3519.2905 
 6635000   -193263.66    1.6498684 -8.70721e-05    73.425358    63.783348    65.621148    3532.0589 
 6640000   -193176.76    1.7267064 0.0018035038    73.456511    63.694898    65.830562    3544.7091 
 6645000   -192715.08     1.713531 0.0036902818    74.290516    64.202389    65.229016    3557.3857 
 6650000   -192766.68    1.7301607 -0.0048514399    74.554279     64.88934    64.582713    3570.0396 
 6655000   -192954.94    1.7461716 0.0016990258    73.633464    64.873018    64.514602    3582.7262 
 6660000   -193462.32    1.6639742 -0.0012399953    72.335704    64.755598    65.058174     3595.456 
 6665000    -193750.3    1.7222401 -0.00024861855    72.110406    64.375125    65.166068    3608.2072 
 6670000   -193950.21    1.6998814 0.00054059466    71.767821    64.554126    64.888358    3621.0358 
 6675000   -193971.26    1.6868363 0.0011223196    72.018356    64.248288    64.926253      3633.82 
 6680000   -193823.75    1.7238125 -0.00028203306    71.375806    64.856878     64.58436    3646.6205 
 6685000   -194123.45    1.7011631 -8.5319996e-05    71.326484     65.01095    64.322683    3659.4668 
 6690000    -193842.5    1.6866774 0.0021798566    71.840348    65.191095    64.377506    3672.2825 
 6695000   -193675.82    1.7423198 -0.00060234265    71.384671    65.036282    65.159284    3685.0962 
 6700000   -193687.72    1.7593341 0.00074372081    71.780713     65.12584    64.717873    3697.9025 
 6705000   -193578.67    1.6503338 0.0027527677    72.526715    65.172804    64.209121    3710.6551 
 6710000   -193622.79    1.7223373 -0.0014352288    72.212478    64.794349    65.091698    3723.4611 
 6715000    -193555.4    1.7085702 -0.0018618648    72.024262     65.16288    64.990222    3736.2149 
 6720000   -193552.32    1.7285019 -0.0040385964    71.965512    64.863442    65.405109    3749.0203 
 6725000   -193597.42    1.7226183 -0.0033272712    72.186733    64.857002    65.347934    3761.7986 
 6730000   -193524.57    1.7291066 -0.00075681478    72.269999    65.100191    64.702885    3774.5165 
 6735000   -193724.66    1.7175726 -0.0024656648    71.856926     65.50664    64.432243    3787.3142 
 6740000   -193469.27    1.7251979 0.0040663843    72.475476    64.369395    65.071326    3800.0492 
 6745000   -193485.61     1.688382 0.0017803715    73.390172    64.333725    64.685419    3812.8012 
 6750000   -193292.15    1.6629343  0.001361072    73.415876    64.287604    64.893529    3825.5574 
 6755000    -193585.9    1.7132171 0.0027479485    72.646372    63.952487    65.418429    3838.2663 
 6760000   -193146.36    1.7231352 -2.7065625e-06    72.968573    64.453297     64.97602    3851.0478 
 6765000   -193515.25    1.6957658 -0.0052017355     72.01764    64.699707    64.911147    3863.7924 
 6770000   -193203.13     1.658819 -0.00027224506    72.426037    64.556687    64.902183    3876.5334 
 6775000   -193283.84    1.7250944 0.0026719445    73.085451    64.477107    64.541886     3889.263 
 6780000   -193014.34    1.6542893 -0.0017669067    73.885238    64.540817    64.955473    3901.9943 
 6785000   -193380.23    1.7284429 0.0046712477    72.409458    64.049433    65.382646    3914.7315 
 6790000   -193552.74    1.7141299 0.00095968217     72.43255    64.586792    65.081791    3927.6126 
 6795000   -192985.43    1.7123059 0.0013996517    74.066037    64.505099    64.868403    3940.2936 
 6800000   -193075.22     1.704419 0.0036688812    74.112317    64.555334    64.416801    3952.9832 
 6805000   -193174.39    1.6999549  -0.00269931     73.83903    64.869026     64.49512    3965.6715 
 6810000   -193320.47    1.7213279 -0.0003679089    73.022364    65.315763    64.466692    3978.3785 
 6815000   -193323.02    1.7164848 -0.0029052569    72.815952    65.497223    64.231248    3991.1041 
 6820000   -193661.88    1.7484776  0.004556569    71.951648    65.480992    63.925154    4003.8315 
 6825000   -193517.13    1.7342795 0.00018616447    72.612466    64.948671    64.499055    4016.5701 
 6830000   -193545.03    1.7209983 -0.0038785718    72.931301    64.810865    64.635546    4029.2993 
 6835000   -193434.03    1.7230019 -0.0022127037    72.865487    64.363303    64.996817    4042.0635 
 6840000   -193366.49    1.6728968  0.000461192    72.867153    64.541294     64.79342    4054.7972 
 6845000   -193813.28     1.740798 -0.0019069879    73.273597    64.352337    64.633256      4067.57 
 6850000   -193337.37     1.661628 0.0030467386    73.230613    64.810785    64.232063    4080.2904 
 6855000   -193625.69    1.6606546 0.00068579493    72.463642    65.074399    64.246683    4093.0309 
 6860000   -193472.08    1.6966517 0.00098912483    72.877207    64.639539    64.513169    4105.8176 
 6865000   -193495.91    1.7143583 0.00036285369    72.861113    63.848409     65.05716    4118.5501 
 6870000   -193450.55    1.7414595 0.0015540443    73.039702    64.457592    64.637168    4131.3025 
 6875000   -193833.97    1.7654256 -0.0042545826    72.839027    64.722393    64.873105     4144.057 
 6880000      -193059    1.6844032 -0.00041478718    74.026217     64.38286    64.954814    4156.7624 
 6885000   -192784.01    1.7814885 -0.0018388719     74.42729     64.20513    65.119258     4169.452 
 6890000   -193333.69    1.6788346 -0.00026611291    72.913127    64.539944    64.816946    4182.1567 
 6895000   -193283.12    1.7076146 -0.0019163094    72.995642    64.742117    64.397184    4194.8751 
 6900000   -193424.82    1.7163081 0.0015748244    73.175128    64.501676    64.510473    4207.6168 
 6905000   -192944.23    1.7376577 0.00011448929    74.701334    64.662234    64.518074     4220.359 
 6910000   -192614.95    1.6806637 -1.9067446e-05    75.938533    64.238283    64.797718    4232.9628 
 6915000   -192563.55    1.7059273 -0.00080525606    76.057859    64.352614    64.529644    4245.5568 
 6920000   -193098.52    1.6970773 -0.0043543145    73.985272     64.16549    64.982646    4258.2169 
 6925000   -193227.97    1.7218287 0.0024845543    72.979111    64.427884    64.899947    4270.9435 
 6930000    -192880.2    1.7305632 -0.00090021943    73.697375    64.595601    64.797558    4283.6503 
 6935000   -192602.84    1.6924914 0.00073655771    75.697036    64.462449    64.432353     4296.337 
 6940000   -192891.11    1.6766757 0.0037340898    74.035273    64.618527    64.347519    4309.0159 
 6945000   -192991.56     1.673923 0.0011364722    72.907706    64.857933    64.717384    4321.7995 
 6950000   -193447.49    1.7621137 0.0007712054    73.351057      64.1883    64.818121    4334.5351 
 6955000    -193221.6    1.6377857 -0.0016955492    74.606622    64.179872    64.575963    4347.2556 
 6960000   -193098.54    1.6992245 0.0017700266    73.750705    64.392789    64.681656    4359.9589 
 6965000   -193303.46    1.7138687 -0.0016798292    72.300805    65.093614    64.669777    4372.7252 
 6970000   -193340.16    1.6960389 -0.00078569957     73.27974    65.234124    63.941351    4385.4791 
 6975000    -193154.7    1.6651793 -0.0021075461    73.577688    64.783272     64.43396    4398.1964 
 6980000   -192921.53    1.6950121 -0.00030937266    74.407786    64.746832    64.241146    4410.8805 
 6985000   -193496.37    1.7331819 -0.0026344959    73.806898    64.404666    64.705404    4423.5521 
 6990000   -193584.41    1.6881381 0.0021381562    73.457896    64.222153    64.650055    4436.2793 
 6995000   -193548.49    1.6406049 -0.0014104656    72.968149    64.062316    65.194722    4449.0249 
 7000000   -193405.66    1.6788631 -0.0011298414    73.926168    63.158286    65.248391    4461.7802 
 7005000   -193608.02    1.6389063 0.0010180881    72.713494    64.077894    64.949072    4474.5623 
 7010000   -193299.08    1.7261575 0.0021185406    72.188649    64.622606    64.819206    4487.3514 
 7015000    -193333.1    1.6722716 0.00091166489    73.184233    64.772158    64.160192    4500.0998 
 7020000   -193629.35    1.6871668 0.0021376001     72.72856    64.816447    64.372968    4512.8242 
 7025000   -193491.79    1.6979821 0.00091375707    73.139332    64.616971    64.483243    4525.5402 
 7030000   -193261.57    1.7232035 -0.0014079229    73.716646    64.653106    64.537657    4538.2832 
 7035000   -193477.58     1.726158 0.0012246513    73.235791    63.884925    65.171905    4550.9872 
 7040000   -193722.38    1.6488612 -0.00039942841     72.24277    64.427633    65.123221     4563.753 
 7045000   -193832.84    1.6885322 0.00011095254    71.962089    64.673784    64.911334    4576.5667 
 7050000   -193715.94    1.6955517 -0.0039774331     72.85205    64.568005    64.714146    4589.3452 
 7055000      -193712    1.6405635 0.0025151142    72.804807    64.579587    64.315581    4602.0898 
 7060000   -193674.86    1.7084383 0.0034736807    72.813483    63.791383    65.160283    4614.8521 
 7065000   -193482.72    1.7336815 -0.0028645228    73.368281    63.967933     64.93535     4627.587 
 7070000   -193560.09    1.6905378 0.0010637581    72.417335    64.392254     64.99722    4640.3471 
 7075000      -193508    1.6891307  0.002931749    72.859725    64.143072    65.028929    4653.1556 
 7080000   -193033.79    1.6852012 0.0014851514    73.656284    64.277666     64.96637     4665.867 
 7085000   -192905.53    1.7913908 0.0076694511    73.354186    64.634749    64.645599    4678.5295 
 7090000   -193110.43    1.7443768 -0.0044957219    73.257888    64.304037    65.101316    4691.2431 
 7095000   -193168.67    1.6828166 -0.0010667537    73.022076    63.939043     65.36242    4703.9394 
 7100000   -193610.88    1.7137351 -0.00043885845    72.630271    64.003883    65.414577    4716.7064 
 7105000   -193901.27    1.6798494 0.0011456596    71.484667    64.592726    65.012935    4729.4414 
 7110000   -194067.48    1.7001974 -0.0012303854    70.880753    65.130039    64.658669    4742.2469 
 7115000   -193659.89    1.6624052 0.0024074402    72.180357    65.417755    63.835069    4755.0862 
 7120000   -193382.22    1.6905836 -0.0016674945    73.447135    65.006177    64.104494    4767.8979 
 7125000   -193674.56    1.7470659 -0.00039873567    72.306938    64.736686    64.409742    4780.6414 
 7130000   -193834.99    1.6831175 -0.0034111929     72.42371    64.358342    65.135376    4793.4078 
 7135000   -193691.96     1.716207 0.0051554678    72.949811    64.255944    64.988404    4806.1655 
 7140000   -193731.61    1.6738147 0.0029498122    72.796176    63.984739    65.058222    4818.9216 
 7145000   -193749.77     1.701514 -0.0023511233    72.849466    64.394459    64.743247    4831.6847 
 7150000   -193756.53    1.7176063 0.0019355691    72.253628    64.592544     64.61835    4844.4226 
 7155000   -194155.03    1.6981384 -0.0027036523    71.765964    64.609193    64.694724    4857.1953 
 7160000   -193762.53     1.670444 0.0025924101    72.551932     64.25178    64.951067    4869.9665 
 7165000   -194046.48    1.6967555 0.0025117609    71.946708    63.866633    65.239553    4882.7296 
 7170000   -194439.98    1.7398778 -0.0023585177    70.941382    64.230415     65.33198    4895.5108 
 7175000   -194265.82    1.7072279 -0.0028549299    71.704788      64.0421      65.1743    4908.3625 
 7180000   -193795.31    1.6815759 0.0058445185    72.145627    63.998599    64.981127    4921.1566 
 7185000   -193124.69     1.672552 0.0022421544    74.011136    64.343073    64.780756    4933.8789 
 7190000    -193075.5    1.7377658 -0.0016115064    73.757482    64.494102    64.886051    4946.6254 
 7195000   -193244.68    1.6804266 0.0012938032    73.004924    64.615565     64.87247     4959.337 
 7200000   -193326.35    1.7183041 0.0019661242    72.756701    64.761453    65.099546    4972.1007 
 7205000   -193190.71    1.7391555 0.0025363936    74.185484    64.489042     64.88881    4984.8263 
 7210000   -193254.86    1.7028116 -0.0018053273    74.253323    64.477334    64.622173    4997.5325 
 7215000    -193627.7    1.6683808 -0.00045036197    72.535289    64.441144    64.886728    5010.2811 
 7220000   -193430.72    1.6494939 -0.0056943219     72.94786     64.10535    65.397874    5023.0338 
 7225000   -193121.79    1.7456083 -0.0017342985    73.562195    64.640284    64.439424    5035.7539 
 7230000   -193321.62    1.6553597  0.001330043    72.573751    64.650119    64.318417    5048.5897 
 7235000   -193543.23    1.7130155 -0.0017233168    73.195107     64.29884    64.733776    5061.4118 
 7240000   -193474.92    1.6962896 0.00099895606    73.287697    64.021569    64.981446    5074.1739 
 7245000   -193204.29    1.6886372 -0.00022526032    72.726222    64.502737    65.118108    5086.9238 
 7250000    -192746.2    1.7091296 0.0011127637    74.316427    64.567216    64.544217    5099.6372 
 7255000   -192854.07    1.6568043 0.0030036401    73.484426    64.375049    65.058042    5112.3409 
 7260000   -193376.68    1.7172344 0.0013044019    72.545402     64.59672    64.631508    5125.0889 
 7265000   -193504.35    1.6926553 0.0026970199     73.33026    64.468951    64.406438    5137.8613 
 7270000    -192989.1    1.6960606 0.0030690255    74.311895    64.240091    64.705412    5150.5549 
 7275000   -193238.11     1.708378 -0.0025366757     73.84724    64.247322    64.586915    5163.2447 
 7280000   -193229.21    1.6940478 0.00056050362    73.312394    64.642635    64.292764    5175.9538 
 7285000   -193380.03    1.7181378  -0.00168171    72.490726    65.075339    64.330202    5188.6692 
 7290000    -193422.8    1.7381801 -0.00056886638    71.200309    65.371215    64.906029    5201.4397 
 7295000   -193621.81    1.7316233 0.0016940342    72.390062    65.123203    64.100847    5214.1503 
 7300000   -193315.07    1.6904894 -0.0002116308    73.302661    64.607784    64.508566    5226.9308 
 7305000   -193855.44    1.7135719 -0.0016959106     72.13669    64.625571    64.573389    5239.6897 
 7310000   -193527.47    1.7330114 -0.0009137415    72.203457    64.639789    64.828793     5252.456 
 7315000   -193465.01    1.7472335 -0.0029129579    72.206779    64.974972    64.624877    5265.2933 
 7320000   -193725.01     1.682322 0.0029790635    72.605305    65.091218    64.208881    5278.0448 
 7325000   -193636.88     1.709449 0.0010893756    72.881621    64.758356    64.393042    5290.7979 
 7330000   -193459.32    1.6867954 -0.0011075308    72.232128    64.877043    64.599979    5303.5093 
 7335000   -193204.96    1.6623934 0.00064552337    72.616983    64.671941    64.796702    5316.2843 
 7340000   -193268.73     1.707907 0.00057479473    71.788922     64.86105    64.850234     5329.055 
 7345000   -193377.05    1.6877895 0.0010368165    72.712507    65.024928    64.433281    5341.8094 
 7350000   -193565.41    1.7065411 0.00019643218    72.457616    64.610021    64.884102    5354.5453 
 7355000   -193676.74    1.7203196 -0.0021825217    72.429401    64.768258    64.794359    5367.2806 
 7360000      -193737    1.6807224 0.0012777855    72.029349    64.649831    64.648403    5380.0812 
 7365000   -193897.77    1.7001888 0.0024866846    72.421502    64.528401    64.583652    5392.8512 
 7370000   -193673.69    1.7530686 -0.0026354256    72.821721    64.647286    64.588238    5405.6011 
 7375000   -193577.36    1.7001241 0.0028989371    72.274389    64.643208    64.412386    5418.3821 
 7380000   -193514.99    1.7034364 0.0011087332    72.518748    64.441538    65.015063    5431.1363 
 7385000   -193554.77     1.678981 -0.0012931113    72.082669    64.363912    65.288443    5443.9147 
 7390000   -193659.82    1.6704796 -0.0020072189    72.176059    64.320909    65.336541    5456.6685 
 7395000   -193391.69    1.6807548 0.0017596149    72.712159    64.217356    65.108958    5469.3983 
 7400000   -193601.31    1.7352571 -0.00049201826    72.379638    64.138819     65.18754    5482.1406 
 7405000   -193220.15     1.715577 -0.0017348508    73.667013    63.570426    65.369547    5494.9071 
 7410000   -193220.35     1.701444 0.0076525104    73.209656    63.388109    65.573202    5507.6358 
 7415000   -193728.68    1.6903354 -0.00020630554    72.965183     63.56792    65.449774    5520.3525 
 7420000   -193823.19    1.7563902 -0.003543844    72.426275    64.142628    65.301062    5533.1299 
 7425000   -193653.22    1.7525634 -0.0039787043     72.07644    64.345224    65.068552    5545.9178 
 7430000   -194018.56    1.6819577 0.0047385876    71.540928    64.083812    65.044279    5558.6906 
 7435000   -193529.17       1.6847 4.1688717e-05    72.223446    63.932977    65.227788    5571.5033 
 7440000   -193480.46    1.7048522 -0.0016872151    73.021605    64.360285    64.440366    5584.3024 
 7445000   -193433.45    1.6914963 -0.0013066556    73.022037    64.477622    64.623555    5597.0365 
 7450000   -193693.27    1.7090888 0.0020546351    71.847959    64.624525    64.762481    5609.8504 
 7455000   -193870.17    1.6605176 -0.0010006486    72.076588    64.843177    64.381177     5622.621 
 7460000   -193635.99     1.720901 0.00011639977    72.893523    64.530509     64.33394    5635.4189 
 7465000   -193544.87    1.6465187 -0.0019304099    72.805269    64.262355    65.037569    5648.1816 
 7470000   -193347.17    1.6939658 0.0043456544    72.599256    64.344395    64.993601    5660.9098 
 7475000   -193778.08    1.6585866 -0.0030309154    73.071514     64.25687    64.877052    5673.6259 
 7480000   -193743.37    1.7005421 -0.0011643005    72.846071    63.873382    65.268674     5686.385 
 7485000   -193578.67    1.6845933 0.0040553185    71.963691    64.362209    65.422757    5699.1388 
 7490000    -193583.1    1.6564551 0.0005909146    72.717315    64.097298    64.874688      5711.92 
 7495000   -193444.02    1.6781377 0.0030613107    72.080061    64.471677    64.923686    5724.6995 
 7500000   -193326.94    1.7081844 -0.0014574396    73.082665     64.85598     64.43857    5737.4277 
 7505000   -193199.79    1.7243193 0.0018929962    73.781685    64.125353    65.250289    5750.1264 
 7510000   -193019.61    1.6765752 -0.0018796775    73.849486    64.173815    65.353916    5762.7965 
 7515000   -193587.06    1.6759306 0.0010139311    72.537587    64.086536    65.057646    5775.5109 
 7520000   -193697.03    1.6696948  0.001374361    71.869492    64.241687    64.986135    5788.2868 
 7525000   -193377.93    1.7320672 -0.00076938683    73.255764    63.995927    65.052077    5801.1085 
 7530000    -193513.9    1.7036516 0.0024256643    72.741246    64.385156    64.702664      5813.88 
 7535000   -193659.26    1.7097514 -0.00065582177    72.949411    64.278127     64.79693    5826.6589 
 7540000   -193323.43    1.7358456 0.0033484259    73.538355     64.21769    64.878284    5839.3951 
 7545000   -193374.06    1.7178107 -0.0036882995    73.571831    64.055103    65.465282    5852.0992 
 7550000   -193343.46    1.6741652 -0.00046780771    73.177831    63.736812    65.685216    5864.7824 
 7555000   -193230.63    1.6691741 -0.002439542     72.83094    64.327428      65.2746    5877.5177 
 7560000   -193527.34    1.7232845 0.00018096403     72.73231    64.525873    64.860764    5890.3794 
 7565000   -193406.45    1.6582937 -0.0018875029     72.98432     64.51057    65.211464    5903.1604 
 7570000   -193262.27    1.6842397 0.0018361398    72.264839    63.879277    65.774832    5915.8835 
 7575000   -193397.81    1.6748601 -0.0012251326    72.555102    64.329561    65.182407    5928.7067 
 7580000   -193347.75     1.703452 -0.0010211284    72.653231    64.213232    65.337032      5941.47 
 7585000   -193657.84    1.7331469 0.00029925918    73.489676    64.018648    64.679103    5954.2347 
 7590000   -193629.94    1.7062743 0.0024700117    72.972839    64.163514    64.785827    5966.9767 
 7595000   -193440.13     1.697945 0.0019879747    72.706171    64.100139     65.07411    5979.7333 
 7600000   -193501.51    1.7204928 -0.0036216891    73.229383    63.965768    65.514947     5992.477 
 7605000   -193576.71    1.7124828 -0.0028898053    72.694693    64.217254    65.386413     6005.215 
 7610000   -193559.67    1.7780533 0.00016859618    73.496129    63.673077    65.091533    6017.9359 
 7615000   -193610.98    1.6987313 -0.0011149263    73.073679    64.533823    64.466244    6030.6597 
 7620000   -193442.81    1.7577304 -0.00051994197    72.850062    64.923789    64.386104     6043.345 
 7625000   -193248.71    1.6725372 -0.003574592    72.641814    65.145165    64.974557    6056.0968 
 7630000    -193496.2    1.6780917 -0.00096678671    72.901193    64.604949    64.870128    6068.8201 
 7635000   -193124.68    1.7165611 0.0018266174     73.25527    64.505186    65.076851     6081.545 
 7640000   -193265.55    1.7485622 -0.0046792906    72.221199     64.71193    65.389321    6094.2515 
 7645000   -193433.15    1.6929292  0.002216688       71.427    65.034285      64.9285    6107.0059 
 7650000   -193650.59    1.7413482 -0.0017236891    72.296964     64.73327    64.979392    6119.7898 
 7655000   -193380.75    1.6792356 0.0011568838    73.130619    64.727294    64.650735    6132.5041 
 7660000   -193284.91     1.658374 -0.003710048    72.648559    64.280604    65.103196     6145.275 
 7665000   -193694.06    1.7445725 -0.001092196    72.613883    64.728539    64.658386    6158.0374 
 7670000    -193922.9    1.6770589 0.0020103363     72.16311    64.591752    64.896444    6170.7601 
 7675000   -193607.87     1.678758 0.0011153446    72.644821    64.758971    64.416026    6183.5432 
 7680000   -193198.85    1.6805532 0.0013397981      72.7626    64.658532    64.527388     6196.293 
 7685000   -193365.36    1.6712303 0.0016367255    72.315337    64.556922    64.958553    6209.0692 
 7690000   -193378.08    1.6642417 0.0019045774    72.386801    64.818618    64.950095    6221.8489 
 7695000   -193082.26    1.6380298 -0.002601153    73.175774    64.804618    65.118947    6234.5833 
 7700000   -193290.14    1.6630172 -0.0022759255    73.250701     64.49393    65.208244    6247.3393 
 7705000   -193038.23    1.7096972 -0.0015951091    73.746585    64.368552    65.187382    6260.0294 
 7710000   -193326.33    1.7161903 0.00026598617    72.729332    64.571775    65.093767      6272.73 
 7715000   -193202.34    1.7117898 0.0012277186    72.875755    65.062395    64.448586      6285.47 
 7720000   -193174.44    1.7169686 0.0022385758    72.666803    64.794197    64.551363     6298.213 
 7725000   -193484.79    1.7464744 0.0025709608       72.185    65.173606    64.407521    6310.9322 
 7730000   -193690.16    1.6941834 0.0029764825    71.616116    65.074171    64.844524    6323.7124 
 7735000   -193792.73    1.7119523 -0.00069060264    71.830961    65.020792    64.697106    6336.4763 
 7740000   -193467.36    1.7245582 -0.0024823344    72.609664    65.000701    64.747463    6349.2577 
 7745000    -193525.7    1.7209722 0.0015595006     71.10804    64.812453    65.322338    6362.0352 
 7750000   -193847.16     1.706769 -0.0018271514    70.952603      64.7294    65.591241    6374.8695 
 7755000   -193773.72    1.7012818 0.0046769786    71.546942    64.539114     65.20931    6387.6072 
 7760000   -193765.62    1.7215497 0.0015750461    71.701144    64.847446    65.128033    6400.3946 
 7765000    -193892.3    1.6926685  0.001623817    71.483151    64.894449    64.821175    6413.1551 
 7770000   -194139.55    1.7022995 0.00044919218    71.114801    64.780348    64.814987    6426.0534 
 7775000    -194133.5    1.7094365 0.0061243629    70.736733    64.912661    64.785375    6438.9056 
 7780000    -194359.6    1.6688493 0.00075572328    71.032171     64.71522    64.581636    6451.7568 
 7785000   -193670.39    1.7059322 -0.0013502493    71.198721     65.17794    64.580947    6464.5905 
 7790000   -193347.95    1.6954479 0.0018954519    71.846971    65.266067    64.493049    6477.4062 
 7795000   -193445.83    1.7086591 -0.0026726439    72.733582    64.938322    64.644581    6490.2141 
 7800000    -193748.5     1.707099 0.00050305284    71.640707    64.637454    64.846247      6502.95 
 7805000   -193790.91    1.6780528 -0.00074637161    71.856869    64.840245    64.806672    6515.7665 
 7810000    -193599.4    1.7294741 0.0026884325    72.725604    64.720928     64.56363    6528.5107 
 7815000   -193752.63    1.7385402 0.0019980527     72.28638    64.481562    64.983308    6541.2068 
 7820000   -193584.56    1.7081795 -0.0054067612    72.905833    64.724684    64.531434    6553.9744 
 7825000   -193411.87    1.6896659 -0.003813566    72.947033    65.308187    63.929731    6566.6821 
 7830000    -193393.3    1.6568601 -0.00068608239    71.588942    65.076141    64.572644    6579.4613 
 7835000   -193465.89    1.7404563 0.0019250932    71.652288    64.772402     65.00059    6592.2514 
 7840000   -193201.27    1.6429596 0.0028528306    72.782551    64.256492    65.260747     6605.076 
 7845000   -193250.53    1.6991102 -0.0036424369    73.103099     65.22913    64.300544    6617.7845 
 7850000   -193481.41    1.6653038 -0.00080683557    72.405512     64.97948    64.527573    6630.5023 
 7855000   -193860.38    1.7012473 -0.00093161027    71.881366    64.850545    64.645295    6643.3001 
 7860000    -194168.3    1.6922565 -0.001665226    72.075366     64.05886    65.014497    6656.1283 
 7865000   -194052.16    1.6634648 0.0011234006    72.154321     64.26264    65.038113    6668.8717 
 7870000   -193564.93    1.7168008 -0.00011111044    72.533727    64.581825    64.941261    6681.6132 
 7875000   -193299.62     1.687459 0.00092645403     72.14623    64.802101    65.177834    6694.3517 
 7880000    -193457.8    1.7550718  0.004653261    72.704298    64.590928    64.645809    6707.1247 
 7885000   -193291.94    1.6599754  0.001438121    72.996545    64.598138    64.420069     6719.899 
 7890000   -193336.88    1.7541746 0.00011119049     73.20188     64.62478      64.4635    6732.6207 
 7895000    -193302.2    1.6662269 0.0031570583    73.438013    65.191127    63.936234     6745.393 
 7900000   -193304.26    1.7021339 -0.0041528506    74.041703    65.237026    64.014373    6758.1365 
 7905000   -193234.61    1.6737127 -0.0030617765    74.379739    64.663703    63.936964    6770.8818 
 7910000   -193286.26    1.7164237 -0.0028781006    73.470653    64.649066    64.436368    6783.6081 
 7915000   -193167.37    1.6871182 -0.0012426937    73.852654    64.221002    64.511883    6796.3572 
 7920000      -193340    1.7211135 -0.0018608185    72.215051    64.740344    64.931077    6809.1232 
 7925000   -193269.43    1.7378281 -5.825684e-05     72.46311    64.783064    65.161153    6821.8756 
 7930000   -193518.96    1.6618915 0.00083164865    72.523533    65.256759    64.151692    6834.6583 
 7935000   -193656.21    1.6838243 -0.0018941231    72.777335    65.028467    64.055153     6847.439 
 7940000   -193623.95    1.7035671 0.00064004828    72.472775    64.698085    64.230071    6860.2519 
 7945000   -193535.71     1.741083 0.0041097886    73.429163    64.620602     64.28182    6873.0017 
 7950000   -193253.53    1.7108111 0.0001236635    73.875821    64.646663    64.505726    6885.7746 
 7955000   -193761.26    1.7040603 0.0014915327     72.01244    64.555355    64.695732    6898.5727 
 7960000   -193914.97    1.6853193 0.00061213394    71.857212    64.991576    64.346075    6911.3838 
 7965000   -193669.61    1.6970219 -0.00065132896    72.623376    64.995501    63.695882    6924.1516 
 7970000   -193543.84    1.7063614 -0.0034444423    72.833258    64.837559    64.341272    6936.9431 
 7975000   -193657.43    1.6865175 -0.0029320823    72.577482    64.447528    64.603699    6949.7224 
 7980000   -193760.71    1.6923171 -0.00072351924    72.515682    63.954485    64.773669    6962.5155 
 7985000   -193509.07    1.6513822 -0.0017135738    72.504991    64.076572    65.217164    6975.3651 
 7990000   -193293.03    1.7388671  0.002486326    73.053961    64.200636    64.932716    6988.1464 
 7995000   -193515.18    1.6925634 0.0012133985    72.954702    63.890156    65.412406    7000.9293 
 8000000   -193747.88    1.6854853 0.00081236674    73.051975     64.09054    65.050444    7013.7145 
 8005000   -193814.02    1.7568986 -0.0015528631    72.898172    64.531923    64.382173    7026.4634 
 8010000   -193797.89    1.7375715  0.001085033    72.552314    64.548744    64.514904    7039.2604 
 8015000   -193724.98    1.7134314 -0.0020495073    72.282747    64.666715    64.823332    7052.0592 
 8020000   -193681.31    1.6855867 8.9825093e-05    72.494178    64.438624    64.863635    7064.7942 
 8025000   -193352.05    1.7125753 0.0026161455    73.245596    64.137943    64.550302    7077.5577 
 8030000   -193404.03    1.6983321 0.0028718172    72.976277    64.632101    64.374381    7090.3422 
 8035000   -193444.99     1.764322 0.0012094185    73.005877    65.185753    64.130116    7103.0808 
 8040000   -193710.18    1.7070921 0.00080104882    72.143591    65.588031    64.134111    7115.7903 
 8045000   -193454.01    1.6712576 0.0005779325     72.58799    65.026594     64.73929    7128.5505 
 8050000   -193325.42    1.6900402 -0.0016411065    72.093722    64.804275     65.08773    7141.2893 
 8055000   -193110.06    1.7132878 -0.0027904043    72.587734    64.616421    64.922938    7154.0239 
 8060000    -193279.6    1.6888874 0.0022503453    73.400585     64.45034    64.530435    7166.7391 
 8065000    -193448.6     1.730256 -0.0012105525    73.189575    64.585863    64.735718    7179.4858 
 8070000   -193573.54    1.6813727 -0.00038736259    73.624888    64.234375    64.510928    7192.2661 
 8075000   -193431.18    1.6720001 -0.003801344    74.277264     64.46137     64.30173    7204.9514 
 8080000    -193284.5    1.6045525 -0.005921472    73.974502    64.207118    64.933675    7217.6198 
 8085000   -193280.34    1.7620185 -0.0059628405    73.639876    64.320045    65.129024    7230.2748 
 8090000   -193356.29    1.7411459 -0.0015593185    72.602163    64.369374    65.358759    7242.9978 
 8095000   -193716.12    1.7274933 0.0024387221    72.119371    64.242502    65.100623    7255.7123 
 8100000   -193323.16    1.6373109 -2.7798882e-05    73.983284    64.240268    64.732418    7268.4192 
 8105000   -193165.27    1.7334898 9.5795994e-05    74.079366    64.278886    64.717638    7281.0999 
 8110000    -193421.8     1.669882 0.0013294397     73.35433    63.875278    65.148261    7293.8376 
 8115000   -193400.36    1.7407333 0.0021714048    72.790335    64.144374    65.097291    7306.5707 
 8120000   -194064.19    1.6969208 0.00021263092    72.186371    63.981617     65.08474    7319.2994 
 8125000   -193876.38    1.6814145 -0.0046181483    72.917371    64.072138    65.052859    7332.0509 
 8130000   -193917.77    1.6710409  0.001342823    71.647418    64.244412    65.434616    7344.7759 
 8135000   -193972.56    1.7110106 0.00015191062    71.634557    64.410114    65.075159    7357.5518 
 8140000   -193792.54    1.6904242 -0.0015152431    71.922548    64.505631    65.204382    7370.3288 
 8145000   -193203.26    1.6712576 -0.00035600434    72.318615    64.646758    65.351079    7383.0063 
 8150000   -193533.84    1.6602318 0.0057994159     71.97107    64.366438    65.000518    7395.7104 
 8155000   -193388.47     1.678748 -0.0027274685    71.250362     64.65933    65.798154    7408.4968 
 8160000   -193833.57    1.7081528 -0.0011560862    71.065088    64.767522    65.252102    7421.2781 
 8165000   -193555.66    1.6723669  0.002576529    71.404211    64.905572    65.167814    7434.1224 
 8170000   -193491.76    1.6740193 -0.0037737397    72.540734    64.685529    64.932404    7446.8748 
 8175000   -193419.21    1.6659645 -0.0042987202    72.694656    64.705313    64.955555    7459.5712 
 8180000   -193143.65    1.7043518 -0.0028579138    73.326878    64.772211    64.752342    7472.2896 
 8185000   -193542.73    1.6770216 -0.0018229465    72.127713    64.943234    64.669556    7485.0336 
 8190000   -193759.09    1.7141798 0.00047444439     72.44456    64.173427    65.140114    7497.8544 
 8195000   -193269.64    1.6931704 -0.0048104392    74.798614    64.308702    64.991254    7510.5772 
 8200000   -193226.88    1.6809466 -0.0010279079     73.61226    64.566491    64.917312    7523.2159 
 8205000   -193272.62    1.7042926 0.0017873849     72.92257    64.263933    65.209742    7535.9765 
 8210000   -193491.34    1.7000714 -0.0035786798     72.36626    64.828383    64.900763    7548.7512 
 8215000   -193423.03    1.7102771 0.0023937691    72.341183    65.001817     64.45214    7561.5178 
 8220000   -193599.76    1.6867113 0.0023524331    72.208002     64.85783    64.652048    7574.2939 
 8225000    -193260.1    1.6869446  0.001901761    73.270171    64.413274    64.636135    7587.0609 
 8230000    -193365.4     1.638091 -0.004938411    72.798391    63.924955    65.472329    7599.7924 
 8235000   -193580.35    1.7226846 -0.00029343286    72.043324    64.152501    65.483103    7612.5787 
 8240000   -193776.65    1.7208704 -0.0018936015    71.549914    64.527647    65.236059    7625.3885 
 8245000   -193350.85     1.730113 0.00047907546    73.146146    64.339503     64.77552     7638.164 
 8250000   -193382.58    1.6664591 0.00053824892    73.151313    64.632149    64.273081     7650.901 
 8255000   -193628.68    1.7114926 0.0017813466    72.583697     64.04768    64.821396    7663.7171 
 8260000   -193566.97    1.6872971 -0.0022891165    71.181121    64.570073     65.17299    7676.5317 
 8265000   -193750.59    1.6616969 -0.00097424557    72.207313    64.392872    65.005522    7689.2939 
 8270000   -193535.06      1.66507 -0.0023029377    72.694157     64.39984    65.451043    7702.0795 
 8275000   -193780.08    1.6856509 0.0030675405    71.788177    64.467195    65.138754    7714.8908 
 8280000   -193390.79    1.6655703 -0.0013258716    72.402094    64.421948     65.26024    7727.6976 
 8285000   -193743.38    1.6717088 -0.0057948204    72.083835    64.450181    64.982782    7740.5296 
 8290000   -193418.69    1.7387688 -2.0670399e-05    72.188987     64.12953    65.434639    7753.3372 
 8295000   -193385.44    1.7207482 0.0031718091     72.59101    64.678436    64.612381    7766.1899 
 8300000    -193857.6    1.6280411 -0.0050906431    71.944387     65.06734    64.192922    7779.0102 
 8305000   -193553.85    1.6986371 -0.0010762549    72.858107    64.626221    64.410756    7791.8257 
 8310000   -193230.24    1.7293711 -0.00051317568    73.373782    64.937507     63.94104    7804.6121 
 8315000   -193454.97    1.6959178 -0.0021757389    73.393276    64.757393    63.995575    7817.3531 
 8320000   -193567.88    1.6897333 -0.0017719274    73.381517    64.519139    64.292987    7830.1208 
 8325000   -193134.36    1.6858577 -0.0017249462    74.320443    64.640406    64.267437    7842.7938 
 8330000   -193002.21    1.6857911 0.00059785951    73.499625    64.644474    64.846366    7855.5143 
 8335000    -193001.8    1.6844286 0.0017018776    73.450129    64.690572    64.593745     7868.204 
 8340000   -193023.91    1.6053099 -0.00021997168    73.715482    65.097657    64.086338    7880.9221 
 8345000   -193671.98    1.7214149 9.9149276e-05    72.533269    64.723151    64.427616    7893.7092 
 8350000   -193528.11    1.7478988 0.0036495174    73.350991    65.047975    64.004901    7906.4589 
 8355000   -193443.52    1.6542133 -0.0008976107     73.81506    64.690693    64.262184    7919.2476 
 8360000   -193661.97    1.7102011 0.0023436967    73.184661     64.57129    64.123632    7931.9546 
 8365000      -193312    1.7066191 -0.0033462307    73.203343    64.688943    64.438483    7944.6988 
 8370000    -193541.8    1.6717872 0.0049942553     72.06494    64.599969    64.526971    7957.4483 
 8375000   -193370.61    1.6860549 -0.0016046575    73.193498     64.71746    64.338626     7970.229 
 8380000   -193280.09    1.7289203 -0.0021792768    73.453171    65.093365    64.164047    7982.9921 
 8385000   -193104.53    1.6988754 -0.001707856    74.185494     64.95908    64.408322    7995.6936 
 8390000   -192820.55    1.6435095 0.00084083443    73.990137    65.059202    64.669151    8008.4187 
 8395000   -192779.74    1.7089125 -0.0011423978    74.252707    64.953994    64.489599    8021.0515 
 8400000   -192894.63    1.6863968 0.0040582932     73.01825    64.797318    65.018481    8033.7386 
 8405000   -193205.78    1.6947124 -0.0018776081     73.24715    64.452833     65.05497    8046.4605 
 8410000   -193350.52    1.6889773 0.0048767275    73.788847    64.502737    64.186762    8059.1679 
 8415000   -193025.72    1.6748348 0.0071014807    73.471525    64.299604    64.655783    8071.8774 
 8420000    -192909.1    1.6091845 -0.00028454394    73.237338    64.793947    64.821658    8084.5917 
 8425000   -193089.37    1.6712042 0.0010308183    73.212232    65.115374    64.269803    8097.3301 
 8430000   -193675.01    1.6881322 0.0044303009    71.673922    64.958257    64.607819    8110.1097 
 8435000   -193440.17    1.7113333 -0.0003539493    72.527001    65.034082     64.51333    8122.9343 
 8440000   -193594.54    1.7043135 0.00036865529    72.463304    64.845454    64.515827    8135.7267 
 8445000   -193347.38    1.7186554 -0.0035108736    72.808072    64.495992    64.971661    8148.5354 
 8450000   -193336.91    1.6934869 -0.0010873173    72.769282    64.249124    65.156988    8161.2808 
 8455000   -193389.83    1.7047378 0.0002604882    72.590423    64.572025    65.041808    8174.0219 
 8460000   -193633.63     1.719591 0.00099184412    72.528003    64.463682    65.151678    8186.7978 
 8465000   -193472.91    1.6952559 -0.00010592081    72.736471    64.422046    64.986111    8199.5446 
 8470000   -193360.32    1.6668556 0.0036442513    72.666153    64.852678    64.205448    8212.2752 
 8475000   -193161.38    1.7141516 -0.0026346729    73.997023    65.156256    63.594071    8224.9919 
 8480000   -193584.02    1.6711121 -0.0006217656    73.314418    65.524229    63.577054    8237.6978 
 8485000   -193209.05    1.7341503 -0.00075256551    73.549678    64.799966    64.522248    8250.4203 
 8490000   -193174.39     1.710389  0.002946052    73.681536    64.342473    64.569696    8263.1638 
 8495000   -193571.07    1.7008484 0.00095329679    72.737391     64.39616    64.696874    8275.8937 
 8500000    -193578.6    1.7033722 -0.0026966682    72.798767    64.972288    64.409115    8288.6862 
 8505000   -193552.92    1.6969056 -0.0023552958    72.778023    64.721813    64.518424    8301.3859 
 8510000   -193376.72    1.7239681 -2.8526882e-05    72.489949    65.232541    63.951051    8314.1825 
 8515000    -193578.9    1.7137212 -0.00030879252    72.472262    65.036516    64.018957    8326.9544 
 8520000   -193458.76    1.6913515 0.00091286523    71.971545    65.104404    64.527649    8339.7368 
 8525000   -193222.52     1.707774 -0.004708455    72.711878    64.959335    64.696576     8352.486 
 8530000   -193377.57    1.7084937 0.0013181953    73.468572    64.114917    64.927947     8365.228 
 8535000   -193266.25    1.7280547 -0.00041348735    74.139365    64.222515    64.484413    8377.9267 
 8540000   -194040.88    1.7188982 0.0030905237    71.705347    64.606526    64.584196    8390.7079 
 8545000   -193631.54    1.6868466 -0.0015231089    72.304454    65.186782    64.465588    8403.5145 
 8550000   -193813.03    1.7007366 0.0026032136    72.443818    64.895402    64.179042     8416.334 
 8555000   -193165.75    1.6534743 0.0017487902    73.468845    64.876373    64.423958    8429.0576 
 8560000   -193410.47    1.6984883 0.00046584815    72.928011    64.639849    64.736591    8441.8025 
 8565000   -193139.76    1.7077563 -0.0027571341    73.552332    64.583155     64.97676    8454.4901 
 8570000   -193103.69    1.7232232  -0.00344538    74.274604    64.471959    64.589521     8467.217 
 8575000   -193195.25     1.726812 0.0014144656     74.22677    64.119684    64.601553    8479.9354 
 8580000   -193348.78    1.7213552  0.002163979     73.20273    64.298288    64.590759    8492.6218 
 8585000   -193580.37    1.6970205  0.004388925    71.830305    64.559567    64.788117    8505.3976 
 8590000   -193378.98    1.7080337 -0.0033433303    72.976673    64.922036    64.539833    8518.1545 
 8595000   -193177.74    1.7007858 -0.0027617393    73.444976    64.691289    64.671889    8530.9075 
 8600000   -192812.12    1.6545521 0.0024740631    74.023627    64.460786     64.68446    8543.6355 
 8605000   -193072.69    1.6809549 0.0062841222    72.894305    64.692324    64.629372    8556.3804 
 8610000   -193173.14    1.7848568 0.0011349992    73.421879    64.197766    64.799847    8569.1415 
 8615000   -193301.33     1.687384 -0.002084394    73.518613    64.435847    64.650257    8581.9203 
 8620000   -192933.23    1.6468127 0.0014468303    74.087344     64.70186    64.513391    8594.6062 
 8625000   -192698.68    1.7195353 0.00049891144    75.403144    64.816043    64.564656    8607.2168 
 8630000   -192960.92    1.7460368 0.0012905951    73.567086    64.888329    64.418469    8619.8553 
 8635000   -193575.14    1.7136821 0.0031455516    71.876803    65.043445    64.767349      8632.63 
 8640000    -193411.2    1.6864133 0.00056297112    71.696191    64.308407    65.636105    8645.3599 
 8645000   -193731.73    1.7018442 0.00045203887    71.350492    64.295582    65.344248    8658.1994 
 8650000   -193466.75    1.6917676 0.0018470474    71.757462    64.335896    65.272887    8670.9978 
 8655000   -193388.68    1.7194163 0.00025263278    71.287084    64.539099    65.601092    8683.8378 
 8660000   -193789.95     1.724264 -0.0014855351     72.15787    64.027851    65.586104     8696.624 
 8665000   -193639.53    1.7402216 -0.0014989477    73.041985    64.395769     65.00162    8709.4445 
 8670000   -193846.92    1.6876243 0.0027441884    72.871354    64.140116    65.190284    8722.1654 
 8675000   -194063.97    1.6798815 0.00020067132    72.157665    64.475978    65.041933    8734.9067 
 8680000   -193494.69    1.6936734 -0.0015934307    72.975628    64.108039    65.507974    8747.6285 
 8685000   -193596.85    1.7098195 0.0016831647    71.891237    64.055694    65.662883    8760.3583 
 8690000   -193643.97    1.6464439 -0.00099113086    71.232807    64.418103    65.416502    8773.1324 
 8695000   -193493.25    1.7242184 0.00069854234    72.959561    64.474214     64.65206    8785.9447 
 8700000   -193176.57    1.6985456 0.0019474789    74.312541    64.160315    64.596753     8798.691 
 8705000   -193486.83    1.7268276 -0.0023630953    73.967672    64.230173    64.700636    8811.3876 
 8710000   -193688.32     1.708298 0.0031235777    73.293581    64.026349    64.977759    8824.1162 
 8715000   -193655.15    1.6403292 -0.00061206598    73.947671    63.993822    65.186872    8836.8519 
 8720000   -192976.89    1.7082059 -0.0024171311    74.526954    64.041868    65.456418     8849.537 
 8725000    -193001.9    1.6584274 0.0020084253    73.636186    63.822216     65.22981    8862.2315 
 8730000   -193427.55    1.6562698 -0.0016693255    72.069063    64.385142    65.207302    8875.0011 
 8735000   -193246.77    1.7268078 0.0022729546    73.149636    64.147676    65.128163    8887.7942 
 8740000   -192716.26    1.7154846 -0.0018164692    73.484303    64.736708    65.012631    8900.5176 
 8745000   -193018.58    1.7221917 -0.0014209225    72.970399     64.49023    65.152844     8913.229 
 8750000    -193196.5    1.6999182 0.0011646299    73.406808    64.271005    64.883283     8925.994 
 8755000   -193471.53    1.6738554 -0.00047077419     73.21301    63.744033    65.218613    8938.6633 
 8760000   -193390.92    1.7098442 -0.00065883524    73.035956    64.347111    64.886642    8951.4044 
 8765000   -193542.56    1.7143695 -0.0027123194    73.114184    64.614324    64.981768    8964.1712 
 8770000   -193306.96    1.7199587 0.0015674958    73.749073    63.792172    65.285305    8976.8734 
 8775000   -193429.35    1.7034253 0.0019686391    72.452921    64.599589    64.911534    8989.5781 
 8780000   -193592.36    1.6998324 0.0010016784    71.966335    64.570558     64.72871    9002.3582 
 8785000    -193768.8    1.7451099 -0.0022435874    71.700803    64.847931     64.47775    9015.2016 
 8790000   -193607.93    1.6836099 0.0040812201    72.085432     65.05695    64.111815    9027.9871 
 8795000   -193043.74    1.7030013 0.00063773666    73.447841    65.089361    64.240111    9040.6812 
 8800000   -193252.56    1.7114852 0.00021734697    72.372388    65.056006    64.762775    9053.3735 
 8805000   -193773.27    1.7048013 0.00097371048    72.176719    64.696414    64.747735    9066.1451 
 8810000   -193558.27    1.7087805 -0.00090288433    72.518326    65.199843    64.240247    9078.9066 
 8815000   -193659.63    1.7189399 -0.002641777    72.463322    65.377642      64.0082    9091.6903 
 8820000    -193515.3    1.7302647 -0.0021405752    72.592919    65.579221    63.866076    9104.4229 
 8825000   -193799.86    1.6365532 -0.00093953423    72.349179    65.047445    64.206905    9117.1754 
 8830000   -193674.74    1.7418344 5.4469665e-05    72.550537    64.558627    64.767365    9129.9883 
 8835000   -193024.12    1.7256913 -0.0041717101      74.1598    63.989941     65.50482    9142.7243 
 8840000   -193327.23    1.7167896 0.00084218798     73.94117    63.597093    65.562152    9155.4088 
 8845000   -193698.09    1.6990651 0.0044164868     72.89119    64.335785    64.811876    9168.1191 
 8850000   -193819.01    1.7031999 0.00046126476     72.90361    64.358942    64.793945    9180.8679 
 8855000   -193875.59     1.686824 -0.00048549642    71.994321      64.5479    64.819944    9193.6357 
 8860000    -194031.9    1.6435408 -0.0015479501     71.67999    64.463181    65.015524    9206.5184 
 8865000   -193695.39    1.7448438 -0.0028287754    72.581426    64.687339    64.719067    9219.3191 
 8870000   -193631.51    1.6881985 -0.0014249393    72.912008    65.038356     64.17355    9232.0586 
 8875000   -193215.58    1.6961518 -0.00024009046    73.036575    64.826234    64.867968    9244.8144 
 8880000   -193164.77    1.7017155 0.0021897732    73.732399     64.08511    64.604744    9257.5176 
 8885000   -193093.33    1.6646833 0.0019722458    72.612458    64.462149    65.097687      9270.27 
 8890000   -193616.14    1.7023506 0.0028150743    72.547042    64.591598     64.57843     9283.036 
 8895000   -193359.22    1.6784281 -0.0051901294    73.650048    64.879873    64.260298    9295.7877 
 8900000   -193550.97    1.7293503 0.00083769044    72.792065     64.83083    64.528695    9308.5568 
 8905000   -193699.24    1.7250726 -5.5453108e-05    72.851287    64.218522    64.950689    9321.3205 
 8910000   -193802.82    1.6479368 -0.0016152344    72.860109    64.072855    65.056889    9334.1332 
 8915000   -193599.86    1.6835119 0.0048788236    72.753393    64.371785    64.770389    9346.9025 
 8920000    -193012.7    1.6939392 0.00070649581    73.931787    64.118483    65.043503    9359.6428 
 8925000   -193389.27     1.702458 0.0037258136     73.43118     64.25816     64.42068    9372.3277 
 8930000   -193546.12    1.6767274 -0.0040589926    72.713757    64.582618    64.823098    9385.1255 
 8935000   -193695.76    1.7584874 -0.0036889012    72.532315    64.897947    64.587991    9397.8919 
 8940000   -193531.47    1.6720492 0.0031725451    72.952067    65.014454    64.096569    9410.6662 
 8945000   -193259.33    1.7008793 0.0028823622    72.908171    64.879902    64.311463    9423.4489 
 8950000   -193476.38    1.6735246 -0.00023585318    72.419877    64.879583    64.533873    9436.1805 
 8955000   -193388.93    1.6527517 -0.00085306465    73.106013    64.422136    64.687878    9448.9216 
 8960000   -193651.36    1.7320299 -0.00096732986    72.513255    64.355733    65.011762    9461.6548 
 8965000   -193940.16    1.7106257 -0.0010237818    71.936468    64.178267    64.689793    9474.4406 
 8970000   -193752.39    1.7192685 -0.0022053781    72.257968     64.82007    64.613849    9487.1798 
 8975000   -194102.75    1.6903302 0.0010345883    71.938053    64.502345    64.670627    9499.9422 
 8980000   -193814.59    1.7019695 -0.0018341385    72.946307    64.355155    64.702185    9512.7348 
 8985000   -193613.75    1.7069046 -0.00055267396    73.241945    64.699714    64.329788    9525.4885 
 8990000   -193585.88    1.6960186 -0.0020683683    72.025002    64.724569     64.71887    9538.2871 
 8995000    -193421.1    1.6449246 -0.0025745397    72.844811    64.723873     64.53772    9551.0602 
 9000000   -193792.44    1.6556439 0.00056441774    72.282619    64.876771    64.576442    9563.8639 
 9005000   -193133.14    1.6976014 -0.0030771477    73.746626    64.305214    65.321042    9576.6128 
 9010000   -193199.13    1.7168499 0.0016979422    73.344339    64.464805    65.140904    9589.2939 
 9015000    -193579.4    1.7018316 -0.00014050527    72.713488    64.606545     64.92839    9602.0557 
 9020000   -193428.72    1.7052452 0.0047109474    72.535098    64.691573    65.027743    9614.8073 
 9025000   -193148.83    1.7011873 -0.0033376344    73.521402    64.606943    65.360922    9627.5329 
 9030000   -193408.23    1.6644418 -0.0026701459    72.814749    64.240437    65.463203    9640.2214 
 9035000   -193487.66    1.7500138 0.0029014652    71.817355     64.02472     65.53067    9652.9863 
 9040000   -193626.75    1.7227283 0.0015939316     71.54418    64.418205     65.38407    9665.7721 
 9045000    -193751.8    1.6601667  0.002476109    72.215978    63.945831    65.247835    9678.5297 
 9050000   -193761.59    1.7042713 0.0021922389    72.768741     64.40611    64.748636    9691.3556 
 9055000   -193641.86    1.6887416 -0.0031211044    72.624061    64.699548    64.935007    9704.1295 
 9060000   -193836.23    1.6834975 0.0053604181    72.516407    64.130181    65.030659    9716.8804 
 9065000   -193431.25    1.7046318 0.0040966375    73.360021    64.757894    64.366397    9729.6402 
 9070000   -193735.17    1.7150725 0.0040908816    72.194916    64.530867    64.461677    9742.3988 
 9075000   -194226.74    1.7056091 -0.0027820161    70.935937    64.896736      64.7522    9755.1876 
 9080000   -193945.51    1.6932522 0.0045055016    71.848371    64.494303    64.423145    9768.0546 
 9085000   -194185.97    1.7189969  0.004699787    71.641975    64.383138    64.737879    9780.9038 
 9090000   -193801.11     1.651113 -0.0051922088    72.081646    64.361488    65.325375     9793.678 
 9095000   -193995.03    1.7285223 0.0038252035    71.829189    64.194824    65.108436     9806.504 
 9100000   -193840.34    1.7017971 0.0013930298     72.19869    63.836334    65.079443    9819.2931 
 9105000   -193851.04    1.6907019 0.0019305758    72.252532    63.837267    65.457406    9832.0919 
 9110000   -193535.52    1.6777556 0.0025850334    72.445382    64.020355    65.210951    9844.9012 
 9115000   -193378.18    1.6995096 -0.0027093624    73.547079    64.390413    64.694294    9857.6083 
 9120000   -193448.36     1.687228 -0.0029772555    73.389185    64.450074    64.904647    9870.3538 
 9125000   -193701.37     1.679185 0.0039708149    72.125381    64.835184    64.659239     9883.102 
 9130000   -193663.45    1.7620689 -0.0023350779    71.903713    64.439744    65.279992    9895.9353 
 9135000   -193144.74    1.6349037 -0.0016636093    73.416592    63.769303    65.547902    9908.7032 
 9140000   -193399.58    1.7461582 0.0045094106    73.229253    63.639055    65.191238    9921.4786 
 9145000   -193682.64    1.6491657   -0.0001871    73.101604    63.933671    65.076952    9934.2307 
 9150000   -193817.07    1.6891328 0.0010618279    72.279764    64.553573    64.952868    9946.9972 
 9155000   -193793.76    1.6988735 0.0042509907    72.746446    64.718247     64.40997    9959.7184 
 9160000   -193643.79    1.6896214  0.001949439    73.203589    65.059847    63.946522    9972.4436 
 9165000   -193520.92    1.6958464 -0.00084586249    72.586864     65.15007    63.954426    9985.1296 
 9170000   -193751.02    1.7390782 -0.0034625624    72.258286    64.759401    64.562159    9997.9004 
 9175000   -193782.84    1.7036314 0.0014338271    72.580434    64.248899    64.936458    10010.708 
 9180000   -193431.57    1.6665577 0.0021953675    73.232996    64.398667    64.737061    10023.468 
 9185000   -193288.98    1.6847318 0.0028057081    72.497247    64.571193    64.888637     10036.17 
 9190000   -193222.06    1.6719477 -0.0011579767    72.955884    64.790792    64.516403    10048.942 
 9195000   -193175.42    1.7091455 0.0021700876    73.224151    64.951302    64.108901    10061.701 
 9200000   -193450.36    1.6985212 -0.0021836554    72.102274    65.166416    64.394039    10074.458 
 9205000   -193748.56    1.7018343 -0.00071962011    72.026546    65.135903    64.207695    10087.244 
 9210000   -193267.61    1.7223975 -0.0052029229    72.758556    65.460145    64.255033    10100.034 
 9215000   -193888.34    1.7569519 -0.0008152515    71.373482    65.114786    64.499322    10112.785 
 9220000   -194098.54    1.6959934 0.00077737845    70.875401     64.71661    64.621665    10125.622 
 9225000   -194016.92    1.7040344 -0.0050653384    72.005369    64.714579    64.680556    10138.478 
 9230000   -193564.57    1.6980678 0.0019444118    72.513637    64.867167     64.38442    10151.293 
 9235000   -193347.88    1.7436546 -0.0005855256    73.209775    65.473569     63.97824      10164.1 
 9240000   -193451.12    1.7153831 0.00042301444    72.761163    65.114831    64.219903    10176.853 
 9245000   -193648.96    1.7057926 0.0023297212    72.896207    64.792335    64.061229    10189.585 
 9250000   -193563.27    1.7015265 0.0017182153    73.081884     64.53433    64.592642     10202.34 
 9255000   -193493.97    1.6831139 0.0011010965     72.84591    64.656377    64.587279    10215.071 
 9260000   -193890.54    1.6547536 -0.0057035133    71.900132     65.08716    64.519518    10227.866 
 9265000   -193828.69    1.6629595 0.00081403166    72.587848    65.008121    63.954944    10240.639 
 9270000   -193515.67    1.6925468 0.0024106564     73.04154    64.263212    64.512956     10253.41 
 9275000   -193421.19    1.7292219 0.00099647359    72.490623    64.582626    64.487998    10266.148 
 9280000   -193679.62    1.7469172 0.0047774065    71.932929     64.89887    64.286971    10278.908 
 9285000   -193305.63    1.7088759 0.0014152566    73.280147    64.448293    64.749595    10291.631 
 9290000    -192775.4    1.6771572 -0.0019863475    74.346774    64.221175     65.23699    10304.361 
 9295000    -193077.9    1.7104045 -0.00058575876    74.243122    64.468128    64.707314    10317.016 
 9300000   -193319.51    1.6920124 1.441858e-05    73.331604    64.467741    64.917554     10329.76 
 9305000   -193052.55     1.711525 0.0021307364    72.672506     64.51288    65.215015    10342.516 
 9310000   -193213.43    1.6793493 0.0013867455    72.991146    64.102433    65.579716    10355.244 
 9315000   -193251.96    1.7151246 0.00018976888    72.875362    64.258851    65.438412    10367.978 
 9320000   -193118.36    1.6585394 -0.0012048113    73.405921    64.021914    65.518302    10380.691 
 9325000   -192708.79    1.6936909 0.0051557891    74.019315    64.217742     65.45701    10393.383 
 9330000   -193114.29    1.7639723 0.0035426835    73.385775    64.094244    65.393339    10406.078 
 9335000   -193365.56    1.7050011 0.0011931013    72.912477    64.250912    65.433063    10418.849 
 9340000   -193345.95    1.6977312 0.0026421308    73.190607    64.235454    65.158209    10431.594 
 9345000   -193511.32    1.6944938 0.0029362643    72.885158    64.215694    64.916065    10444.314 
 9350000   -193497.48     1.667497 -0.0035165399    72.388788    63.812017    65.366581    10457.073 
 9355000   -193756.76    1.7389541 -0.0018002394    72.383525    63.641821      65.4209    10469.903 
 9360000   -193409.71    1.6877644 -0.0035786199    73.279222    63.808983    65.502698    10482.674 
 9365000   -193089.38    1.6957836 0.00088579152    73.060229    63.908779    65.478118    10495.377 
 9370000   -193456.62    1.7483904 -0.00054055248    73.340375     64.27015    64.784383    10508.119 
 9375000   -193513.18    1.7043363 -0.0037056461     73.36262    64.109921    64.978985    10520.864 
 9380000   -193403.47    1.6854943 -0.00069985334     73.80864    64.275635    64.772296    10533.605 
 9385000   -193391.05    1.6391382 -0.00030322499    73.318694    64.147511    65.265366    10546.323 
 9390000   -193689.43    1.6931104 0.0013963021    71.568269    64.400545    65.222978    10559.057 
 9395000   -193769.39    1.7568681 0.0049133403    71.031498    65.090273    64.516063    10571.837 
 9400000   -193860.82    1.7266256 0.00024656179    71.218953    65.151526    64.441528    10584.695 
 9405000   -193837.35    1.7486812 0.0051140543    71.907482    65.073656    64.181014    10597.456 
 9410000   -193977.64    1.6671919 -0.0014617657    71.797869    64.799406    64.570263    10610.257 
 9415000   -193300.49    1.6948454 -0.0014446069    72.547951    64.426507    64.990048    10623.077 
 9420000   -193620.72    1.7062314 -0.0016423202    72.735563    64.544933    64.707775    10635.859 
 9425000    -193255.4    1.7401836 -6.5444759e-05    74.505301    64.581114    64.306706    10648.591 
 9430000   -192899.41    1.7010871 -0.00050823886    74.683004    64.718688    64.448323    10661.265 
 9435000   -193277.27    1.6774546 0.00017207111     73.46883    64.923183    64.220629    10673.991 
 9440000   -193405.48    1.7202628 0.0013457521    72.602023    64.970963    64.259839    10686.751 
 9445000   -193465.55     1.683623 -0.003327375    72.946862    64.362708    64.523122    10699.543 
 9450000   -193542.85    1.7245078 -0.00045522649    72.989108    64.360611    64.804671     10712.35 
 9455000   -193186.57    1.6747006 0.0016717336    72.891424    64.575618    64.994303    10725.094 
 9460000   -193630.97     1.731692  0.001443788    73.266275    64.552545    64.324863    10737.838 
 9465000   -193273.18    1.6957064 0.0020160221    73.503906    65.202253    64.103085    10750.525 
 9470000   -193304.38    1.6500454 -0.0012500704    73.446033     65.19742    63.899077    10763.258 
 9475000    -193528.1    1.6522915 -0.0047856044    73.319109    64.855682    64.313928    10776.051 
 9480000   -193798.31    1.7119261 0.0036964179    72.395182    64.124937    64.787953    10788.775 
 9485000   -193616.52    1.6772899 0.0013641981    73.274091    63.750909    65.181466    10801.484 
 9490000   -193119.95    1.6820378 -3.2442481e-06    74.185383    64.007302    65.068867    10814.182 
 9495000   -193002.32    1.7341913 0.0037432864    74.499319    64.004451      64.9243    10826.832 
 9500000    -193462.7    1.7072098 -0.001447977    73.387355    64.668503    64.594242     10839.56 
 9505000   -193615.17    1.6708198 -0.0010712068    72.867823    64.562258    64.956856    10852.289 
 9510000    -193508.1    1.6461475 0.0041121432    72.593639    64.747454    64.556263    10865.033 
 9515000   -193283.74    1.6644042 -0.006936616     72.96503    64.315988    65.021898    10877.758 
 9520000   -193260.43    1.7423005 0.00095065209    73.329095    63.685158    65.168697    10890.502 
 9525000   -192821.34     1.700211 0.00025616204    73.987663    63.588753    65.605347    10903.214 
 9530000   -193321.94    1.6416077 0.0032635284    73.009837      63.5904    65.892763    10915.947 
 9535000   -193072.54     1.695094 -0.0022361644    73.409073    64.289096    65.603469    10928.632 
 9540000   -193191.08    1.6890798 -0.00021883055    73.391288    64.588929    65.049773     10941.34 
 9545000   -193299.94     1.649247 -0.0010677561    71.923781    64.840964     65.37554    10954.089 
 9550000   -193634.92    1.6826732 -0.0010204177    71.440254    64.523594    65.194784    10966.881 
 9555000   -193604.88    1.6829999 0.0029021522    71.439399    64.460038    65.159622    10979.668 
 9560000   -193390.93    1.7315857  0.002820106    71.967878    63.931713    65.717107    10992.428 
 9565000   -193229.36    1.6943129 -2.083986e-05    72.011745    64.147467     65.52905    11005.146 
 9570000    -193059.3    1.6953919 0.0012107318    72.798203    64.126865    65.376699    11017.895 
 9575000   -193600.79    1.6781634 0.0025688391    72.554948    63.762495     65.53236    11030.619 
 9580000    -193707.4    1.6915601 -0.0025508616    73.192743    63.721629    65.486222    11043.357 
 9585000   -193469.72    1.6467881 0.00051589832    72.566457    64.256405    65.228753    11056.092 
 9590000   -194022.15    1.6774727 -0.00043071718    71.292859    64.918514     64.75331      11068.9 
 9595000   -193476.73    1.6983872 0.0047322222    72.769479    64.194572    64.969608    11081.643 
 9600000   -193281.85    1.7518698 0.0023976297    73.151554    64.278919    65.162343    11094.371 
 9605000   -193370.34    1.6791117 -0.0029942705     73.38023    64.827119    64.678042    11107.082 
 9610000   -193696.18      1.65864 0.00091388563    72.891826    64.872876    64.441041    11119.752 
 9615000   -193355.35    1.7324022 -0.00072385415    72.474653    64.824858    64.676917     11132.49 
 9620000   -193317.37    1.6761026 0.0015164601    72.790375    64.558856    64.600438    11145.249 
 9625000   -193600.57    1.6505149 -0.0029301132    72.483442    64.873025    64.714943    11158.029 
 9630000   -193554.01    1.7156091 -0.00040212563    73.423735    63.687589     65.33712    11170.787 
 9635000   -193328.22    1.6816143 -0.0032640494    73.022862     64.07841    65.189831    11183.523 
 9640000   -193811.76    1.6907474 -0.0016816348    71.903937    64.507236      65.2175    11196.262 
 9645000   -193680.16    1.6548654  0.004186093    72.471222    64.668828    64.662361    11209.007 
 9650000   -193328.38     1.657399 -0.00047579653    73.501606    64.253943    64.799897    11221.777 
 9655000   -193461.89    1.6755373 0.00010169028    72.650109    64.580046    64.575372    11234.507 
 9660000    -193420.2    1.6858034 -0.0022079574    73.076917    64.805144    64.298233    11247.275 
 9665000   -193297.28    1.6777562 -0.0043837078    73.506099    64.267866     64.67426    11260.044 
 9670000   -193561.87    1.7530196 -0.0014802047    72.982875    63.685945    65.493867    11272.836 
 9675000   -193744.11    1.7052744 -0.0022345949    72.477716     64.10617    65.308711    11285.585 
 9680000   -193752.96    1.6896222  0.002486414    72.093393    64.331494    65.147152    11298.338 
 9685000   -193664.86    1.6776362 -0.0036152877     72.62739    64.373291    65.229252    11311.098 
 9690000   -193720.08     1.713173 -0.00070249596    71.778355    64.397273     65.58271    11323.838 
 9695000   -193443.41    1.6735601 0.0054154086    72.573631    64.488148    65.175227    11336.564 
 9700000   -193265.58    1.6937431 -0.0027628534    73.094015    64.658901     65.50706    11349.237 
 9705000   -193700.11    1.6898056 -0.0015053629    72.815908    64.390996    65.287722     11361.96 
 9710000   -193240.57     1.736236 0.0031615908    73.129509    64.152532    65.412369    11374.727 
 9715000   -193507.33    1.6839562 -0.0019774312    72.335825    64.354549    65.614395    11387.467 
 9720000   -193885.98    1.6558139 -0.0018515505    72.256939    64.242405    65.136711    11400.289 
 9725000   -194111.27    1.7106272 -0.0027361031     71.89444    64.175032    65.307519    11413.075 
 9730000   -193952.82    1.7336164 0.00027149242    71.786267     64.11793    65.456598    11425.907 
 9735000   -193566.34    1.7120646 -0.002230711     72.38642     64.77367    64.801831    11438.705 
 9740000   -193572.79    1.7132962 -0.0001537643    72.281773    64.826613     64.59755    11451.494 
 9745000   -193790.07    1.6934321 0.00096023909      71.6956    65.063198    64.681962    11464.293 
 9750000   -193428.55    1.7008746 -0.0018065927    72.810101    64.311456    65.344839    11477.032 
 9755000   -193161.24    1.6905544 0.0028214548    73.037928    64.278029    64.920279    11489.739 
 9760000   -193357.03    1.6667254 -0.0010032718     72.57606     64.84155    64.563629    11502.492 
 9765000   -193557.57    1.6765122 -0.0028226362    71.997265    64.945829    64.590578    11515.234 
 9770000   -193769.53    1.6918516 -0.0020887015    72.155716     65.00608    64.586211    11528.019 
 9775000   -193473.13    1.7265768 0.0031825669    73.279561    64.596465    64.690425    11540.745 
 9780000   -193052.03    1.6674477 -0.0078584265    73.458181    64.988311    64.944607    11553.391 
 9785000   -193517.96    1.7046258 -0.0019578242    72.483838    64.571742    65.018062    11566.153 
 9790000   -193226.69    1.6716123 0.0016737345    72.666566    64.318971    65.174598    11578.925 
 9795000    -193511.3    1.6825715 -0.0025345222    72.741225    64.143757    65.470577    11591.694 
 9800000   -193393.36    1.7345799 0.0037750921    72.867288    64.473591    64.701134    11604.461 
 9805000   -193710.61    1.6450176 0.0013405346    72.463609    64.872056     64.32529    11617.208 
 9810000   -193778.25    1.6884411 -0.00030604101    71.693996    64.573676    64.621422    11630.029 
 9815000   -193395.95    1.7181911 0.00052491537    72.441807    64.779114       64.874    11642.845 
 9820000   -193472.88    1.7438242 0.0035169904    72.939643    64.426489    64.830846    11655.569 
 9825000    -193504.2    1.6515007 0.0026179528    72.540128    64.941896    64.309674    11668.329 
 9830000   -193364.05    1.6652905 -0.00067703328    72.869043    64.660615    64.435541    11681.155 
 9835000   -193618.58    1.6727013 0.0049598272    72.495014    64.331953    64.425078    11693.926 
 9840000    -193535.7     1.690572 0.0032962115    72.247367    64.589279    64.589715     11706.73 
 9845000   -193386.18    1.7450556 -0.00076969135    72.960564    64.876629    64.461049    11719.471 
 9850000   -193322.49    1.6811956 5.5039421e-05     73.51878    64.621014    64.649784    11732.182 
 9855000   -193224.59    1.6851351 0.00046267964    73.663001    64.551574    64.927971     11744.85 
 9860000   -193411.95    1.6369988 -0.002031419    73.129919    64.616487    64.719609    11757.552 
 9865000   -193620.26    1.7359882  -0.00249648    72.027343    64.558297    64.861459    11770.323 
 9870000   -193574.41    1.6768064 0.0050531816    72.297035    64.178369    64.748505    11783.168 
 9875000   -193395.72    1.7499991 0.0045214697    72.924498    63.915417    65.145203    11795.917 
 9880000   -193503.12    1.6827403 0.00026795812    72.244361     64.59699    65.114918    11808.676 
 9885000   -193436.71    1.7198317 -0.0017636857    72.389993    64.446413    65.294795    11821.441 
 9890000   -193705.49    1.7235983 0.0006424688    71.704209    65.223128    64.676259    11834.199 
 9895000   -193832.49    1.6937844 0.0028344482    71.623255    65.349416    64.269047    11847.049 
 9900000   -193665.88    1.7254058 -0.00011151584    71.787094     64.94479    64.880093    11859.834 
 9905000   -193600.03    1.6901019 0.00099651477    72.566058    64.677341    64.461097    11872.638 
 9910000   -193528.55    1.6892168 0.00093641967    72.533528    64.523935    64.779357    11885.403 
 9915000   -193719.39    1.7300203  0.001149513    72.560587    64.007427    65.070335    11898.191 
 9920000   -193535.39    1.7325028 0.0019996397    72.168734    64.337635     65.04728    11910.937 
 9925000   -193810.75    1.6623099 -0.0044445485    72.182635    64.554395    64.752483    11923.723 
 9930000   -193857.89    1.6777555 -0.0024264256    71.814299    65.016759    64.839382    11936.494 
 9935000   -193903.95     1.678288 0.0020517426    72.239704    64.671621    64.587181    11949.292 
 9940000   -193806.63    1.6932256 -0.00021235205    71.989922    64.868036    64.634176    11962.045 
 9945000   -193590.91    1.6959495  0.003018842    73.007525    64.506793    64.442815    11974.786 
 9950000      -193038    1.7031124 -0.0047528264    73.730502    64.872633    64.546876    11987.485 
 9955000   -193218.21    1.6678588 0.00062690277    73.650403    64.317898     64.62917    12000.181 
 9960000   -193091.82    1.7070396 -0.0031637931    74.978261    64.807782    64.311092    12012.895 
 9965000    -193175.4    1.6635103 -0.0025378654    74.086261    64.902599    63.994336    12025.596 
 9970000   -193573.86    1.6180271 -0.0020902194    72.708912    64.838747    64.182272     12038.34 
 9975000      -193892     1.699918 0.0017458889    72.061063    64.126972     64.87521     12051.13 
 9980000   -193372.57    1.7444458 0.0039138486    73.304723    63.665047    65.080154    12063.929 
 9985000   -193114.27    1.6974817 0.0018777041    73.506328    64.568975    64.790712    12076.639 
 9990000   -193879.41    1.6946716 -0.0018356503    71.674981    65.287586    64.565313      12089.4 
 9995000   -193908.64    1.7285194 -0.0016191183    71.195807    65.474315    64.157861    12102.205 
10000000    -193922.6     1.716746 -0.0032816141    72.459566     65.02208    64.208455    12114.996 
10005000      -193686    1.6531896 -0.0013572515    73.204981    64.517504    64.712949    12127.707 
10010000   -193611.66    1.6721959 -0.0023970968    72.317447    64.897976     64.65733    12140.498 
10015000   -193584.81    1.7219132 -0.0034810591    71.626285    64.845222    64.969859    12153.281 
10020000    -194143.7    1.7328579  0.000621365    70.171982     64.66966    65.327217    12166.151 
10025000    -194248.1    1.6854601 0.0014453375    70.282168    64.757467    65.173942    12178.976 
10030000   -193703.55    1.6964854 -0.0050833531    71.121181    64.921527    65.098053    12191.784 
10035000   -193674.88    1.6868014 -0.0035356446    71.596936    64.859759    64.933822    12204.551 
10040000   -193686.13    1.7278803 0.0030376927    71.633727    65.230383    64.717639    12217.295 
10045000   -193664.41     1.717313 -0.00028600556    72.360541    65.215212    64.466049    12230.054 
10050000   -193592.63    1.7108392 -0.0045182005    71.984733    65.065993    64.815265    12242.789 
10055000   -193868.58    1.6494128 0.00054879148    72.609477    63.794986    65.462968    12255.511 
10060000   -193707.27     1.694334 0.0020084846     72.43643    63.867975    65.599587    12268.283 
10065000   -193665.09    1.7346638 0.0011199222    70.378069    64.760123    65.621745    12281.071 
10070000   -193755.32    1.7327544 -0.0049234127    70.344725    65.076669    65.778215    12293.885 
10075000   -193686.14    1.7133697 -0.0011508889    72.032474    64.836569    64.902415    12306.655 
10080000   -193715.02    1.6827567 0.00099654594    72.240837    64.753836    64.963198    12319.447 
10085000   -193717.68    1.6903731 -0.00065546706    72.032281    65.342669    64.576025    12332.228 
10090000   -193555.31    1.7065803 -0.00018771918    72.713094    64.884144    64.576363    12344.974 
10095000   -193414.56    1.6947584 0.0014346459    72.407772    65.075928    64.426907    12357.719 
10100000   -193589.76     1.677311 0.0039564997    71.980699    64.696929    64.553261    12370.471 
10105000   -193700.13    1.7299018 0.0035516406    72.188744    64.793185    64.620771    12383.241 
10110000   -193418.55    1.6971528 -0.0013612716     72.66957    64.751116    64.652517    12396.003 
10115000   -193549.79    1.7213711 0.0022834754    72.147255    64.523693    64.761099    12408.753 
10120000   -193834.51    1.7095345 0.0021227304    70.927952    64.885256    64.916988    12421.532 
10125000   -193468.18    1.7074524 0.00085956603    71.632211    64.647269    65.164894    12434.338 
10130000   -193864.04    1.7941092 -0.0032335113    71.425366    65.014099    64.870142    12447.132 
10135000   -193930.03    1.7753422 0.0034915243    71.220265    64.955626    64.715412    12459.915 
10140000   -194035.58    1.6328605 -0.0010068172    70.897461    64.929365    64.808699    12472.774 
10145000   -193845.01    1.7011737 0.0025520914    71.331894     64.11963    65.425704    12485.616 
10150000   -193818.68    1.7454511 -0.0023208134    72.701497    64.193293    65.183098    12498.418 
10155000   -193630.01    1.6908596 -0.0025534791    72.916458    64.294908     64.94825    12511.154 
10160000   -193128.19    1.6919113 -0.0027862042    73.004243    64.357329    65.147464    12523.911 
10165000   -193124.11    1.7483568 0.00042096646    72.449702    64.670778    65.087059    12536.639 
10170000   -193691.02    1.6872875 -0.0010868014    72.453864    64.928958    64.582369    12549.389 
10175000   -193379.08    1.6810256 -4.3019617e-05    73.862351    64.994448    63.843316    12562.136 
10180000   -193551.98    1.6761499 0.0010700483    72.610798    64.916594    64.328102    12574.855 
10185000   -193365.23    1.6853137 5.8887884e-05    73.274131    64.331181    64.786661    12587.644 
10190000   -192965.53     1.695947 -0.0020626167    74.009953     64.54537     64.61862    12600.367 
10195000   -193157.59    1.6871704 0.0005390545    73.037404    64.830145    64.432394    12613.093 
10200000   -193672.64    1.6977765 -0.0028776099    72.189535     65.57646    63.982801    12625.802 
10205000   -193385.59    1.6915053 0.0024595067     73.18451    65.156526     64.08678    12638.551 
10210000   -193043.37    1.7440426 0.0032233442    74.327266     64.73465    64.317209     12651.27 
10215000   -193270.91    1.6609268 -0.0017404039    74.242686    65.159426    64.086943    12663.942 
10220000   -193619.42    1.6994578 -0.00048258728    73.061766    65.062643    64.096229    12676.612 
10225000   -193520.91    1.6739075 0.00027876566    72.647821    65.030996    64.120591      12689.4 
10230000   -193357.35    1.7311195 -0.0021531478    72.660832    64.597566    64.637163     12702.17 
10235000   -193688.64    1.6919399 0.00068306486    72.476207    64.570011    64.541249    12714.957 
10240000   -193847.27    1.7401231 -0.0025289996    72.497115    64.238608    64.881453    12727.826 
10245000   -193897.43    1.7118344 0.0051789753    72.131816    64.272735    64.929305    12740.569 
10250000   -193832.81     1.694895  0.005129607    71.923389    64.444187    65.016489    12753.383 
10255000   -193911.76    1.6913664 0.00098986893    71.843686    64.450682    64.863194    12766.189 
10260000   -193882.32    1.7081396 -0.0058540817    72.252168    64.885224    64.731835    12778.994 
10265000   -193763.35    1.6884462 -0.0043370617    72.812632    65.251421    63.973087    12791.742 
10270000   -193706.58     1.631416 0.0017630213    73.071543    65.077796     63.89223    12804.505 
10275000   -193517.33    1.6802083 -0.00032884355    72.825231    64.604405    64.691472    12817.245 
10280000   -193405.64    1.7023578 0.0025961422    72.280223    64.167052    65.292552    12829.981 
10285000    -193413.4    1.7118536 0.0014355474    72.468196    63.946707    65.291529    12842.745 
10290000   -193440.22    1.6349092 -0.0033714072    73.071654    63.961522    65.461064    12855.511 
10295000   -193716.76    1.6791642 0.00098155076    72.319531    63.864301    65.662227    12868.234 
10300000   -193542.16    1.6539184 -0.00090522059    72.496809    64.376371    65.066659    12881.077 
10305000   -193733.23    1.6839219 -0.0012544857    71.904646    64.814827    64.979083    12893.878 
10310000   -193555.65    1.6756252 -0.00049746662    72.837061    64.379542     64.88487     12906.63 
10315000   -193685.05    1.6958865 0.00011873862    72.264891    64.501677    64.905592    12919.429 
10320000   -193464.21    1.7098358 0.0016196591    71.815823    64.223716    65.487496    12932.235 
10325000      -193773    1.7177275 -0.0016709933    71.762346     64.12621    65.395406    12945.049 
10330000   -193492.72    1.6860076 0.00075045303     72.24364    64.441159    64.998178    12957.812 
10335000   -193758.11     1.724965 0.0055360548    71.850963    64.454427    64.819051    12970.607 
10340000   -193412.42    1.6780936 1.2757287e-05    71.902262    64.963232    65.078635    12983.328 
10345000   -193626.87    1.7199577 -0.003847546    71.420275    64.720821     65.44295    12996.105 
10350000   -193349.48    1.7099577 0.0015933528    72.242054    64.700924    64.927722    13008.852 
10355000   -193255.67    1.6804311 0.0055879186    72.488946    64.770911    64.650083    13021.577 
10360000   -193307.35    1.6909652 -0.0023312849    72.982152    65.015741    64.706158    13034.328 
10365000   -193411.17    1.6876411 -0.0037045666    73.513525    64.635651    64.725805    13047.054 
10370000    -193887.4    1.7471721 0.00084626521    71.702299    64.593138    64.875761    13059.822 
10375000   -193344.86    1.7301379 0.00092899149    72.073069    65.155325    64.625565    13072.627 
10380000   -193113.83    1.6780383  0.002333108    71.600902    64.749637    65.769824    13085.347 
10385000   -193338.61    1.7153542 0.00068279121    71.702344    64.587196    65.885703    13098.078 
10390000    -193301.8     1.704394 0.00011787732    72.190637    64.671772     65.61515    13110.833 
10395000   -193422.71    1.7250342 -0.0028994157    72.507087    64.571803    65.350373     13123.53 
10400000   -193243.62    1.6951039 -0.0021847975    73.285521    64.614147    64.808171    13136.305 
10405000   -193106.45    1.7068518  0.004068412     73.20195    65.413023    63.925621    13149.059 
10410000   -193027.03    1.6984528 -0.0021005742    73.835059    65.452351    64.022755    13161.759 
10415000    -193383.6    1.7165998 0.0015956911    73.059176    64.743478    64.398778    13174.484 
10420000   -193012.58    1.7287957 -0.00054498068    73.060777     64.77533    65.062349    13187.239 
10425000   -193317.62    1.6794478 -0.0014905664    72.658504    64.544477    65.074602    13199.974 
10430000   -193529.57    1.7651125  0.002914849    71.842671    64.439646    65.257464    13212.703 
10435000   -193489.27    1.7277245 -0.00049820341    71.913018    64.844459    64.689926    13225.533 
10440000   -193282.69    1.6943925 0.00032723859    72.782875    64.833973    64.440042    13238.422 
10445000    -193644.2    1.7407687 0.00096121629    72.591095    64.882759    64.249226    13251.216 
10450000   -193764.97    1.6978139 0.0011349588    72.438035    64.485005    64.666824    13263.999 
10455000   -193589.21     1.732729 -0.003235821    72.659337    64.568926     65.04735    13276.746 
10460000   -193372.95    1.6792597 -0.00075817853    72.750946    63.968768    65.277465    13289.533 
10465000   -193581.51    1.6441698 0.00042284181    73.122839    64.038635    64.745573    13302.323 
10470000   -193383.35    1.6892245 0.0034359866    72.395359    64.651035     64.80233    13315.105 
10475000   -193346.04    1.7514347 0.0015669191    72.898116    64.741411    64.519867    13327.835 
10480000   -193241.98    1.6813265 -0.0019443312    73.208649    65.060724    64.206916    13340.596 
10485000   -193206.65    1.6924305 0.0070987257    73.493279    65.136037    63.710304    13353.365 
10490000    -193315.3    1.6783268 -0.00024473053    72.924006    65.233563    64.005703      13366.1 
10495000   -193149.87    1.7131264 -8.289037e-05    72.649336    65.045501    64.508161    13378.849 
10500000   -193472.22    1.6618008 0.0028304277    73.093696    64.907645    64.078199    13391.663 
10505000   -193406.77    1.6685943 0.00023177575    73.434348    64.928933    64.364384    13404.428 
10510000   -193625.09    1.6811829 -0.0046255817    72.796032    64.618104    64.797372    13417.215 
10515000   -193758.86     1.722321 0.0035788318    72.126171    64.999991    64.192638    13429.964 
10520000   -193589.59    1.7414623 0.0021985087    72.262254    64.898087     64.31284    13442.788 
10525000    -193525.4    1.6740081 -0.0044101665    72.729951    64.955034    64.377901    13455.585 
10530000   -193719.44    1.7086669 0.0039331408    73.220495    64.426142    64.301384    13468.375 
10535000    -193924.9    1.7252436 -0.0027580178    71.820681    64.302213    65.224093    13481.165 
10540000   -193889.51    1.6674114 0.00090547807    71.046709    64.999931    64.568402     13494.03 
10545000   -193327.23    1.7209846 0.0018770135    72.394928    64.623643    64.756512    13506.854 
10550000   -193124.26    1.6642574 -0.00084806908      73.6094    64.670062    64.757137    13519.564 
10555000   -193391.53     1.738511 -0.0034907304    72.123671    64.707716    65.219443      13532.3 
10560000    -193828.2    1.7487194 -0.00038382598     71.60673    65.139311    64.563059    13545.094 
10565000   -194061.47    1.6888998 -0.0018649239    70.123522    65.315548    64.889038    13557.944 
10570000   -194120.64    1.7096818 0.00010889443    70.637458    64.927754    64.955149    13570.812 
10575000   -193931.09    1.7671954  0.000983564    71.543085    65.087031    64.397976    13583.714 
10580000   -193848.61    1.6528985 0.0019496511    70.399624    64.554777     65.45229    13596.527 
10585000   -193925.48     1.710935 0.00086619672    71.372222    64.314571    65.298259    13609.411 
10590000   -193606.53    1.7023959 -0.0017157303    71.894234    64.680697     65.03918     13622.18 
10595000   -193952.36    1.7173692 -0.0015200657    70.724205    65.253999    64.929633    13635.032 
10600000   -193921.21    1.6517115 -0.0001982298    71.659505    64.870698    64.735265    13647.882 
10605000   -193461.46    1.7251366 0.0017246832    72.491096     64.34474    65.175145    13660.688 
10610000   -193535.88    1.7198539 -0.00031726653     72.07867    64.135003     65.24841    13673.479 
10615000   -193472.63    1.6993455  7.36889e-05    72.388019    64.198351    65.081075    13686.353 
10620000   -193500.48    1.6906296 0.0011133387    72.734516     64.21377    65.139363    13699.136 
10625000   -193592.15    1.6896862 0.0040158316     72.72396    64.223522    64.953954    13711.904 
10630000   -193856.96    1.6817686 0.00061693665    71.750953    64.564347    65.086576    13724.726 
10635000   -193874.79     1.706213 -0.001183198    71.502531    64.552668    65.082701    13737.575 
10640000   -193891.86     1.735283 0.0020629597    71.366212    64.359767    65.212254    13750.411 
10645000      -193996    1.7421716 -0.001186233    71.327902    64.814446    65.028124    13763.249 
10650000   -194044.75     1.684639 0.0015358565    71.582242     64.64318     64.84254    13776.092 
10655000   -194206.04    1.6654049 0.0033532784    71.341757    64.825928    64.566006    13788.967 
10660000    -193995.9    1.7237382 -0.0031357277    72.692419    64.300395    64.774677     13801.77 
10665000   -193674.96    1.7221639 -0.003907007     72.77571    64.360102    64.909359     13814.62 
10670000   -193866.46    1.6884261 -0.0058148387    71.768785    64.789061    65.093766     13827.43 
10675000   -193394.97    1.7062879 0.00047848915    72.397314    64.586269    64.806054    13840.299 
10680000   -193594.73    1.6807655 0.0012666449    72.718281    64.283892    65.062384    13853.131 
10685000   -193075.61    1.7413905 -0.00062950977    73.561942     64.37128    65.242109     13865.92 
10690000    -193123.8     1.662436 -0.001049588    72.927824    64.401857    65.626621    13878.636 
10695000   -193596.16    1.6927299 -0.0010380914     71.94054    64.771794    65.108379    13891.463 
10700000   -193491.51    1.6867437 -0.002121222    72.236454    64.534205    65.589997    13904.252 
10705000   -193412.89    1.7008031 -0.0036446801    72.347166    65.022633    65.296365    13917.058 
10710000   -193381.49    1.7054936 0.0014114616    73.328907    64.637113    64.925581    13929.814 
10715000   -193023.88    1.7087463 0.0046110445    74.275176    63.779135    65.256777    13942.527 
10720000   -193333.54    1.7622968 -0.0014149808    72.888955    63.901591    65.819779    13955.271 
10725000   -193583.88    1.7075581 -0.00053065769    71.199971    64.657158    65.802739    13968.045 
10730000   -193612.16    1.6929143 -0.0025597893     71.30605    64.886509    65.147224    13980.886 
10735000   -193110.21    1.6873733 -0.0017828139    72.473603    65.521651    64.540471    13993.672 
10740000   -193202.53    1.7419478 -0.0025661721    72.278179    65.524787    64.563954    14006.432 
10745000   -193083.18    1.7225677 -0.0006703245    73.914264    65.007977    64.577445    14019.165 
10750000    -193610.4    1.7331546 -6.9310645e-05    72.060329    64.767692    65.139631    14031.954 
10755000   -193851.91    1.6860796 -0.0036266057    71.262007     64.96327    65.257417    14044.799 
10760000   -193608.36    1.7758817 -0.002962466    72.149613    64.931422     64.88537    14057.668 
10765000   -193382.69    1.6893638 -0.0043877579     72.93362    64.829357    65.039997    14070.436 
10770000   -193194.96    1.7297139 0.00015394856    73.434927    64.897099    64.745172    14083.179 
10775000   -193148.37    1.7042131 0.00076155648    75.048185    64.997082    64.083444    14095.846 
10780000    -193066.4    1.6975371 -0.0028004861     74.61434     65.55433    64.012229    14108.547 
10785000    -193490.2    1.7361125 0.00045996327    73.393605     64.64998    64.487652    14121.271 
10790000    -193581.5    1.7091631 -0.0011788445    72.279797    65.209798    64.502027    14134.084 
10795000   -194045.49    1.6904967 0.00036251213     71.00983    64.644415    65.229617    14146.912 
10800000   -193983.75    1.6643477 0.0010173866    70.708201    64.385538    65.318079    14159.752 
10805000   -193852.88    1.7491685 -0.0024139141    71.520114    64.733678    65.003569    14172.574 
10810000   -193792.28    1.6869929 -0.0033265802    71.642141    64.973188    65.009743    14185.392 
10815000   -193611.16    1.6839775 -0.001185068    72.198107    65.076028    64.895357    14198.172 
10820000   -193570.16    1.6945231 0.0035707149    71.788215    64.875903    64.701392    14211.016 
10825000   -193667.54     1.749339 0.0018118015    71.089171    64.697945    65.198578    14223.906 
10830000   -193204.34    1.7324373 -0.002860771    72.927365     63.59861    65.892952    14236.782 
10835000   -193049.03    1.7230531 0.0010672762    73.671374    63.359683    65.655466    14249.575 
10840000   -193679.88    1.6749991 0.0019816756    72.815814    63.899938    65.187868    14262.323 
10845000   -193843.97    1.6724406 -0.002255168    71.744418    64.906761    64.827724    14275.086 
10850000   -193546.84    1.7215519 -0.0023455862    72.619454    64.515856    65.211551    14287.858 
10855000   -193012.78     1.706608 0.00017818326    73.423593    64.485074    65.012703    14300.555 
10860000   -193129.47    1.6935887 -0.00013649886    72.793746    64.798285    64.845747    14313.274 
10865000   -193347.42    1.7667932 0.0033009327    73.254671     64.42156    64.935704    14326.034 
10870000   -193489.62     1.740544 0.0021833623    72.493878    64.811477    65.015223    14338.801 
10875000   -193468.08    1.6967852  0.003574826    73.454298    64.575017    64.664733    14351.512 
10880000   -193714.06    1.7366091 0.00015110428    72.775341    64.712768    64.691015     14364.24 
10885000   -193485.16     1.674502 -0.0013173939     72.63542    64.693277    64.747866    14377.053 
10890000   -193703.13    1.7127659 -0.0035209824     71.14541    64.771805    65.137069    14389.843 
10895000   -193806.38    1.6880031 -0.00027014195    71.188125     64.81921    64.810402    14402.668 
10900000   -193774.46    1.6822469 0.0053869783    72.283476    64.952282    64.119449    14415.482 
10905000   -193516.63    1.7324261 -0.00070432903     73.03847    65.409045    63.836733    14428.261 
10910000   -193736.65    1.6981428 0.0031422494    72.458572    65.512663    63.721209    14441.011 
10915000   -193822.28    1.6773801 0.0044763757    72.187297    64.922807    64.161139    14453.799 
10920000   -193411.84     1.661407 -0.0014883597    73.643068    64.649735    64.501196    14466.571 
10925000    -193227.4    1.6634512 -0.0035313919    73.439007    64.824083    64.603949    14479.357 
10930000   -193258.51    1.7265196 -0.0015519975     73.37185     64.85472    64.407117    14492.148 
10935000   -193364.76    1.7345541 -0.0012774468    72.782235    65.009962     64.25485    14504.941 
10940000    -193623.3     1.672595 -0.00087971733    71.639592    64.767539    64.623286    14517.766 
10945000   -193636.17    1.7677654 -0.0010533227     72.69905    64.660437    64.605026     14530.54 
10950000   -193367.63    1.7335479 0.0054795681    72.842658    64.642886    64.543375    14543.348 
10955000   -193730.53    1.6950732 -0.002080511    72.447287    64.989882     64.69565    14556.118 
10960000   -193504.93    1.6861582 -0.0021662153     72.46478    64.576658     65.32719    14568.878 
10965000   -193258.82    1.7041764 -0.00046627718    72.649549    64.631174    65.081734    14581.643 
10970000   -193174.58    1.7367127 0.00056163736    72.422414    64.763851    65.252614    14594.437 
10975000   -193053.86    1.6718891 -0.00051544728    72.450436    64.196059    65.887995    14607.227 
10980000   -193662.15       1.7284 0.0027351207     71.78397     64.37732    65.150926    14620.023 
10985000   -193411.21    1.6866877 -0.00060630462    73.311116     64.56807    64.678041    14632.812 
10990000   -193650.94    1.7191917 -0.0024096562    73.455437    64.357755    64.651364    14645.565 
10995000    -193588.3    1.6471661 -0.0052728768    72.624933    64.402814    65.157117    14658.316 
11000000   -193286.24    1.6794973 0.0021742055    73.556406    64.018892    64.805514    14671.162 
11005000   -193302.21     1.744958 -0.0012167988    73.435079    64.242564    64.761415    14683.963 
11010000   -193247.08    1.6718274 -0.0011694854    73.393657    64.177904    65.075932    14696.734 
11015000   -193161.13    1.7214094 9.3380149e-05     73.57101    64.099783    65.372089    14709.468 
11020000   -193471.14    1.6584226 0.0028349286    72.792399    64.075787    65.130646    14722.235 
11025000   -193894.02    1.7168694 0.0012192972    71.404184    64.480467    65.031258    14735.023 
11030000   -193670.29    1.7046332 -0.0027036918    71.715742    65.126026    64.951737    14747.842 
11035000   -193173.67    1.7038446 -0.001144052    73.257339    64.951307    64.391383    14760.606 
11040000   -193282.53    1.6925974 0.0011827925    72.718347    64.618896    64.729084     14773.39 
11045000   -193310.27    1.7234428 0.0030483357    73.456383    64.156848    64.804308    14786.108 
11050000   -193389.17    1.7360807 0.00097428738    73.272416    64.305054    64.755186    14798.854 
11055000   -193546.62    1.7325531 0.0016749028    73.025326    64.388278    64.920017    14811.646 
11060000   -193804.39    1.6690688 0.0027198655    73.193525    64.115775    64.635726    14824.379 
11065000   -193297.73    1.7791815 0.0015427428    73.804074    64.777785    64.175364    14837.174 
11070000   -193483.19    1.6758446 -0.0023712712    72.907056    64.498089    64.450334    14849.938 
11075000   -193561.43    1.7180306 0.0018992142    72.114688    65.052885    64.428829    14862.751 
11080000   -193704.02    1.6926501 -0.00051024149    71.553411     64.97835    64.693607     14875.57 
11085000   -193716.41    1.6850777 0.0014511632    71.965102    65.005664    64.465633    14888.394 
11090000   -193290.66     1.677285 -0.0008675538    73.703219    64.940473    64.086462    14901.119 
11095000   -193243.68    1.7149555 0.0014326524    73.043555    65.266231    64.385648    14913.877 
11100000   -193318.85    1.7035814 0.0011270784    72.619595    65.045455     64.33552    14926.631 
11105000   -193096.35    1.6412251 -0.0050400864    73.078104    64.803806    64.605808    14939.401 
11110000   -193917.98    1.7512664 0.0038804174    71.122481    64.848838    64.688645    14952.158 
11115000   -193846.11    1.6768498 0.00015641707    71.903618    65.201213    64.432508    14964.978 
11120000   -193786.89    1.7076668 -0.00011883603    71.910299    64.546234    65.187971    14977.789 
11125000   -193917.19    1.7605654 0.00092700957    71.282952    64.491343    65.058393    14990.592 
11130000   -193807.73    1.7143801 -0.0039428328    71.194485    65.232022    64.877211     15003.45 
11135000   -193460.57    1.6758798 -0.00037766844    72.841412    65.683793    63.916519    15016.245 
11140000   -193164.73    1.6739075 -0.00014950202    73.363875    66.123605    63.582826    15028.989 
11145000   -193333.53    1.6699038 -4.9453972e-05    73.488877    65.343351     64.14525    15041.729 
11150000   -193773.79    1.7247852 0.0055130398    73.140066    64.591231    64.009413    15054.464 
11155000   -193720.54    1.7383095 0.0019418593    73.026571    64.178708    64.731704    15067.256 
11160000   -193893.43    1.7103151  0.002283654    72.469901    64.079942    64.697472    15080.036 
11165000   -194039.38    1.7151131 0.0029834232    71.778609    64.505672    64.754153    15092.856 
11170000    -194104.9    1.6318876 0.00064560212    72.151121    64.446172    64.810472    15105.672 
11175000   -193587.36    1.7358476 -0.0029215021    72.366111    64.788436    64.837282    15118.466 
11180000   -193604.41     1.742817 0.0013750327    72.681354    64.613238    64.539114    15131.233 
11185000   -193200.39    1.7501501 0.0049105008    73.798645    64.528984    64.546798    15143.995 
11190000   -193336.77    1.6557597 -0.00087163154    73.261863     64.44772    64.737916    15156.714 
11195000   -193311.13    1.6973075 -0.0012826099     74.47662    63.698387    64.948871    15169.492 
11200000   -193166.62    1.6732385 0.0016715887    74.606655    64.292352     64.29509    15182.202 
11205000   -192746.07    1.6808641 0.0028719521    74.536622    64.585837    64.312917    15194.901 
11210000    -193136.6    1.6890686 -0.001022138    74.070183    64.500929    64.501326    15207.614 
11215000   -192977.62    1.7088793 0.00083277513    74.472656    64.648751    64.246973    15220.353 
11220000   -193123.95     1.675804 -0.0031421887    73.980533    65.150407    63.872423    15233.033 
11225000   -193326.06    1.6883798 -0.00042529253    73.827021    64.913476    64.129558    15245.793 
11230000   -193483.33    1.7207763 -0.0032852254    74.446232    64.481595    64.135137    15258.517 
11235000   -193263.15    1.7440515 -0.0013587462    73.743831    64.309347    64.622437    15271.287 
11240000   -193367.61    1.7524017 -0.00047644564    73.520003    64.391234    64.572789    15284.081 
11245000   -193697.21    1.7162478 2.9695048e-05      73.5684    64.647357    63.959158    15296.853 
11250000   -193499.17    1.7140703 -0.0012470807    73.157365    64.607323    64.529113    15309.647 
11255000   -193642.99    1.6932704 0.0021776023    71.531424    65.164116    64.526069     15322.42 
11260000   -193716.81    1.7518253 0.0025536367    72.771936     64.70975    64.192773    15335.261 
11265000   -193202.09    1.6608983 -0.0041699554    73.792272    64.213766    64.943962    15348.019 
11270000   -193166.17    1.6813543 0.00031726341    73.790669    64.292794    64.980768    15360.776 
11275000   -193575.41    1.7182949 -0.0012949173    72.962192    64.556589    64.604878    15373.487 
11280000   -193447.05      1.67635 -0.0015260642    72.184298    64.839709    64.752844    15386.339 
11285000   -193372.43    1.6568114 -0.00083852131    72.342439    65.123387    64.614125    15399.158 
11290000   -193487.18    1.6677047 0.0020073623    73.637951    64.463587    64.152312    15411.929 
11295000    -193189.8    1.7314495 0.00029417656    73.810053    64.523885    64.606545    15424.675 
11300000   -192932.57    1.6968814 -0.0012309368    73.851808    64.286616    65.389535    15437.417 
11305000    -193295.4    1.7155147 -0.0047893863    73.185523    64.558976     65.40873    15450.193 
11310000   -193188.75     1.687249 0.0028977566    72.838095    64.731498    64.915799    15462.943 
11315000   -193131.69    1.6694477 -0.0034885447    73.116108    64.925412    64.811568    15475.686 
11320000    -193553.8    1.7094239 0.0003968661     72.71463    64.369424    64.899004    15488.476 
11325000   -193367.72    1.7030618 0.0029682127    72.497243    64.409724    65.021035    15501.287 
11330000   -193357.34     1.672409 -0.00078017151    72.919716    64.790256    64.770218    15514.053 
11335000   -193485.34    1.6898112 -0.00019385006    72.610249    64.899408    64.419888    15526.831 
11340000   -193195.15    1.6851319 0.0020958545    73.166321    64.163037    65.293763     15539.58 
11345000   -193004.71    1.7067492 -0.0050623387    73.433492    64.439243    65.368732    15552.347 
11350000   -193240.82    1.6676207 0.00097976489    72.347988    64.564479    65.248755    15565.175 
11355000   -193203.38    1.7224599 -0.0023058585    72.030499    64.567409    65.841466    15578.005 
11360000   -193492.54    1.6836209 0.0010592169    72.719991     64.57993    65.015122    15590.751 
11365000    -193632.8    1.6959512 -0.00044897717    71.872617    64.604963     64.87611    15603.549 
11370000      -194229    1.6854421 -0.0051208266    71.179392     64.78661    64.785249    15616.355 
11375000   -194180.87    1.6950445 -0.0031740253    71.176686    64.726498    64.938496    15629.231 
11380000    -193463.5    1.7212798  0.003783872    71.870999    64.818622     64.90269    15642.065 
11385000   -193295.13    1.6985605 -0.0041372725    73.338404    65.090573    64.485337    15654.899 
11390000   -193418.69    1.6787331 -0.0031855961    73.607094    65.212216    64.170747    15667.656 
11395000   -193155.95    1.6901898 -0.0024154096    73.100974    64.912706    64.991623    15680.394 
11400000   -193268.17    1.6758797  -0.00103065    72.603844    64.814232    65.013789    15693.145 
11405000   -193509.58     1.718486 0.0016101664    72.294409    64.111395    65.269532    15705.928 
11410000   -193565.13    1.7190887 -0.00024100676    72.581987    63.727111    65.598516    15718.739 
11415000   -193994.61    1.6951987 -0.00048489508     72.79415    64.055511    64.876773    15731.556 
11420000   -193668.64    1.6764926 0.0011695625    72.896805    64.143168    64.892423    15744.387 
11425000   -193469.57    1.6939392 -0.0013499938    73.658309    64.269565    64.552591    15757.123 
11430000   -193057.99    1.7327867 -0.001214843    74.112947    64.562912    64.485927    15769.867 
11435000    -192931.4    1.6971115 -0.00044739741    74.782345    64.268256    64.368167    15782.599 
11440000   -193001.95    1.6756665 0.0023867569    74.834526    64.537692    64.083075    15795.343 
11445000   -192949.42    1.7169634 -0.0028611249    74.090608     64.81744    64.472405    15808.055 
11450000   -193314.49    1.7139943 -0.002567599    73.407262    65.037558    64.350921    15820.796 
11455000    -193345.9    1.7533064 -0.0011230299    73.389976    64.388494    64.800084    15833.556 
11460000   -193225.12    1.7466287 0.0037875787    72.820033     64.80695    64.604371    15846.343 
11465000   -193460.02    1.6972883 -0.00085555481    73.088374    64.090199    64.764047    15859.123 
11470000   -193438.19    1.7003754  0.000342862    72.246268    64.342097    64.737069    15871.974 
11475000   -193525.77    1.6904664 -0.0014726459    72.628564    64.085153    65.276595    15884.772 
11480000   -193323.32     1.707535 0.0031642177    73.521653    63.834664    65.007162    15897.547 
11485000   -193213.87    1.7384024 -0.0016186269    73.759636    64.307603    64.606963    15910.297 
11490000   -193322.93    1.7123887 0.0017510059    73.634389    63.995375    64.594422    15923.073 
11495000   -193069.66    1.7001057 0.0038349674    73.837871    64.573015    64.195871     15935.83 
11500000   -193226.46    1.6981892 -0.0036003616    73.637545    64.920318    64.195818    15948.549 
11505000   -193567.64    1.7352075 0.00094022056    73.760874    64.837668    63.891203    15961.284 
11510000   -193523.97    1.6747526 0.0031917071     73.38725    64.328314    64.403649    15974.041 
11515000   -193225.07    1.6887308 -0.0035788991    74.599546     63.99571    64.954813    15986.795 
11520000   -193234.07    1.6926312 0.0037131352    74.052783    64.112247    64.507907    15999.504 
11525000   -193807.51     1.713186 -0.00043745445    72.570621    64.195219    64.933576    16012.282 
11530000   -193678.61    1.7326417 0.0031727159    72.726798    64.663138    64.178987    16025.071 
11535000   -193281.52    1.7164496 -0.0012677345    73.591647    64.813106    64.024398    16037.868 
11540000    -193490.6    1.6513455 -0.0019579716    73.039553    64.543108    64.265239    16050.666 
11545000   -193600.83    1.6698431 -0.0028227119    72.714843    64.729668     64.37842    16063.476 
11550000   -193409.53     1.683435 -0.001247793    73.299228    65.157825    63.969607    16076.263 
11555000   -192969.89    1.6831629 -0.001548476    74.230532    64.675292    64.199639    16089.017 
11560000   -193335.74    1.6940581 -0.0039966185    73.482767    64.933205    64.293844    16101.768 
11565000   -193075.11    1.7078409 -0.0019425798    73.757838    65.054857    63.788407    16114.525 
11570000    -193333.1    1.6773464 0.0035232917    73.042735    64.635776    63.857355     16127.29 
11575000   -193461.65    1.6734628 -0.0032824323    73.697998    64.152634    64.455676    16140.082 
11580000   -193573.28    1.6751851 0.0024884218    73.228391    64.513086    64.001631    16152.834 
11585000   -193682.52    1.6879995 -0.00079889897     72.60332    64.620411    64.361303    16165.643 
11590000   -193579.69    1.6950292  0.001347724     72.38792    64.585916    64.316626    16178.494 
11595000   -193965.32    1.7320658 0.0033156418    71.574142    64.913664    64.181594    16191.325 
11600000   -193345.64    1.7217297 0.00070663769    72.224371    65.212511    64.760705     16204.16 
11605000   -193135.81    1.6931389 0.0015660906    73.132645     65.11731    64.146042    16216.915 
11610000   -193637.67    1.7031728 0.0034564259    72.517458    65.410826    63.834894    16229.656 
11615000    -193887.6    1.7205358 -0.0031535013    72.592756    65.271955    63.759074    16242.469 
11620000   -193755.15    1.7022044 0.00088860973    72.009108    65.237299    64.191155    16255.295 
11625000    -193818.5    1.7071918 0.00069332318    71.561974    64.827487    64.713668    16268.106 
11630000   -194032.81    1.6895882 0.0027764649    71.583482    64.427496    64.657413     16280.93 
11635000   -194011.15    1.6764755 0.0016877766     72.25697    64.370539    64.726636    16293.751 
11640000    -193755.1    1.6869328 0.0017549503    71.605303    64.648206    64.866911    16306.599 
11645000   -194033.48    1.7033253 0.0011249257    72.173385    64.594811    64.632078    16319.444 
11650000    -194166.7      1.72688 0.0035319423     71.94933    64.766143    64.479691     16332.27 
11655000   -193868.56    1.6831478 -0.006607996    72.091365    64.870572    64.896255    16345.099 
11660000   -193724.67    1.7589231 0.00076033103      72.0638    64.700753    64.872828    16357.927 
11665000   -193490.07     1.737212 -0.0011341984    72.573883    64.386265    65.296794    16370.759 
11670000   -193755.61    1.6672061  0.001068873     72.25189    64.417253    65.191588    16383.546 
11675000   -193686.59    1.6879258 0.00070800975    72.618884    64.395361    64.978304    16396.287 
11680000   -193687.82    1.6835807 0.00083035476    72.527855    64.376993    64.673233    16409.057 
11685000   -193445.12    1.7482918 -0.0002744449     72.59333    64.505101    64.793274    16421.842 
11690000   -193299.52    1.7223262 0.0013546617    72.712302    64.741223    64.705514    16434.695 
11695000   -193370.83    1.7007386 -0.0029382947    73.050217    64.714428    64.745616    16447.458 
11700000   -193415.09    1.7210221 -0.0002288637    73.452459    64.521002     64.50642    16460.282 
11705000   -193390.47    1.6673501 1.9823228e-05    74.257137    64.041248    64.443133    16473.014 
11710000   -193613.77    1.7004568 0.0020781567    73.075077    64.224789    64.811199    16485.834 
11715000   -193601.49    1.7091751 -0.002019127    72.726945    64.563327    64.825142    16498.629 
11720000   -193621.09    1.6896068 0.00011853168    72.473743    64.916082    64.311124    16511.464 
11725000   -193295.69    1.7140185 0.0025250981    73.496251    64.456483    64.380857    16524.245 
11730000   -193224.52    1.6962519 0.0003080895    73.655824    64.578812    64.629846    16537.014 
11735000   -193133.85    1.6972875 9.9885387e-05    73.785095    64.363233    64.793095     16549.74 
11740000   -193211.12    1.7289756 0.0037967017    73.845416    64.309236      64.6603    16562.455 
11745000   -193296.03    1.7277511 -0.0022980633    74.230142    64.633276    64.371036    16575.171 
11750000   -193385.73    1.6906104 0.00045570236    73.930932    63.960324    64.853434    16587.953 
11755000   -193358.35    1.6788363 0.0044209069    73.686586    64.067185    64.683449    16600.682 
11760000   -193586.09    1.7114877 -0.00093278046    72.629052    64.528561    64.783613    16613.456 
11765000   -193449.56     1.756868 0.00099176654    72.747451    64.614096    64.875626    16626.252 
11770000   -193411.69     1.704557 0.0031931769    73.199126    64.581389    64.717907    16638.978 
11775000   -193242.61    1.6563902 0.00071415471    73.541054    64.321806    64.819891     16651.69 
11780000   -193247.62    1.7152104 -0.0036830325     73.15716    64.561973    64.708121      16664.4 
11785000   -193341.79    1.6937288 -0.0005039172    73.507748    64.692259    64.558599    16677.116 
11790000    -193542.9    1.7160128 0.00078014463    72.839685    64.677932    64.726613    16689.877 
11795000   -193252.42    1.6703153 -0.00038821654    72.473159    64.809441    64.634783    16702.653 
11800000   -193579.05    1.6787994  0.003140016    71.881558    64.814976    64.723565    16715.483 
11805000   -193154.87    1.6973345 -0.00046963366    74.037751     64.71986    64.420769    16728.242 
11810000   -193286.82    1.7095662 0.00043966207    74.658963    64.807528    63.715953    16740.995 
11815000   -193647.87    1.6513353 -0.00012093687    74.116696    65.066155    63.639923    16753.743 
11820000   -193449.85    1.7321176 -0.00012451426     73.55372    64.882737    64.274642    16766.484 
11825000   -193327.43    1.7429609 -0.00069097193    73.092652    65.214019    64.518011    16779.194 
11830000   -193656.15    1.6369412 0.00055106148    72.265602    65.406492    64.062029    16791.994 
11835000   -193153.61     1.682441 0.0027894178    73.499876     65.00691    63.719057    16804.778 
11840000   -193138.85    1.7104551 0.00012021401    73.844209    64.603204    63.966347    16817.574 
11845000    -193253.5    1.7441763 0.0029275595    73.393068    64.669443    64.006858    16830.339 
11850000   -193484.54    1.6859354 -0.00025399676    73.105488    64.602697    64.736832    16843.065 
11855000   -193407.94    1.7184693 -0.0010971553    72.376367    64.760998    65.007783    16855.813 
11860000   -193393.16    1.6867626 0.0035143282    72.037255    64.298817    65.174034    16868.608 
11865000   -192842.82    1.7168974 -0.0016407534    74.476694    64.231136    64.955099     16881.33 
11870000   -192821.54    1.7525716 -0.0013088825    74.655988    64.158246    64.983136    16894.002 
11875000   -192973.02    1.6814016 -0.0011357985    74.149607    64.404457    64.628497    16906.709 
11880000   -193722.43    1.6631473  0.001323283     72.00562    64.398297    64.939795    16919.493 
11885000   -193561.86    1.7137841  0.001376238    71.836128    64.703961    64.862918    16932.308 
11890000   -193239.95    1.6665423 0.0029633801    73.512901    64.826775      64.2417    16945.108 
11895000   -193054.73    1.7183292 0.00016864541    73.943416    64.132573    65.146071    16957.841 
11900000   -193187.32    1.6613485 -0.0032027877    73.652358    64.575882    64.875089    16970.572 
11905000   -193491.58    1.7149111 -0.0029236444    72.752934    64.951639    64.738416    16983.344 
11910000   -193714.48    1.6772726 -0.0049515443    71.983371    64.740402    64.960555    16996.125 
11915000   -193828.14     1.662314 -0.0033372637    71.894774    65.005243    64.444257    17008.861 
11920000   -193576.39     1.715658 -0.00033861452    73.151964    64.448272    64.883227    17021.662 
11925000   -193734.25    1.7279641 -0.0025478356    72.447088    64.231675    65.271233    17034.485 
11930000   -193820.19    1.7165415 -0.002627949    72.398243    64.200333    65.022668    17047.291 
11935000   -193539.54    1.6755648 0.0011395669    72.599192    64.026074    65.075462    17060.096 
11940000   -193817.62    1.7061933 -0.0030433109    72.110034    64.042368    65.254203    17072.896 
11945000   -194036.13    1.6756161 -0.0037232913    71.624006    64.611745    65.101265    17085.717 
11950000   -193679.31    1.7182131 -0.0038739137    71.664145    64.772474    65.369516    17098.554 
11955000    -193647.2    1.7504652 -0.001758088    72.609146    64.380175    65.235676    17111.345 
11960000   -193636.12    1.6761939 0.0032223857    71.900347    64.257998    65.227849    17124.136 
11965000   -193545.95     1.700349 -0.0023227922    72.233768    64.082973     65.23569    17136.915 
11970000   -193562.63    1.6883501 -0.0013023572    71.899296    64.331722    65.003238    17149.701 
11975000   -193469.15    1.7044329 -0.0022101996    72.667467    64.554479    64.984567    17162.544 
11980000   -193561.72    1.7186127 -0.0031958246    73.203749     64.43041    65.084063     17175.27 
11985000   -193662.84    1.7015472 0.00013175104    73.128113    64.570942    64.740733    17188.037 
11990000   -193518.31     1.667668 0.0004381322    72.956255    64.458196    65.205973    17200.768 
11995000   -193558.39    1.7393185 0.0052009706    72.759318    63.882471    65.305171    17213.545 
12000000   -193441.12      1.71179 0.0015454719    72.891442    64.122173    65.450784     17226.32 
12005000   -193352.38    1.6897286 0.00057410934    73.090495    64.479465    65.422661    17239.085 
12010000   -193280.81    1.7102028 0.0034878943    72.567713    65.107461    64.668029    17251.874 
12015000    -193574.3     1.765678  0.003122763    72.539869     64.86288    64.564539    17264.625 
12020000   -193476.25    1.6851585 -0.00093361352    73.327617    64.808549    64.458212    17277.335 
12025000   -193192.86    1.6321473 -0.0059639773    73.021882    64.800251    65.206371    17290.048 
12030000   -193280.46    1.6678249 0.0018520881    73.429894    64.298843     64.61255    17302.833 
12035000   -193676.62    1.7221383  0.003218122     72.15771     64.62501    64.651084    17315.601 
12040000   -193668.91    1.6765764 -0.00018139103    73.433433     64.59767    64.404149    17328.381 
12045000   -193404.55    1.7039895 0.00066919568    73.826998    64.996937    63.887548    17341.135 
12050000   -193129.36    1.7317374 0.0015118203    72.933008     65.29097    64.233077    17353.884 
12055000   -193544.96    1.6966591 -0.0032170946    71.715087    64.800471    65.093409    17366.645 
12060000   -193765.36     1.683096 0.0018302706    71.774472    64.716862    64.668202    17379.468 
12065000      -193685    1.7024865 0.0062743033    71.931764    64.666427    64.808062    17392.295 
12070000    -193144.6    1.6603579 -0.0046125366    72.209444    65.129893    64.921639    17405.059 
12075000   -192999.95    1.6609921 -0.0046852903    73.250103    65.016709    64.569631    17417.811 
12080000   -192954.58    1.6916147 0.0037779431    73.456598     64.78516    64.588126    17430.494 
12085000   -192938.92    1.7470712 0.00089409542    73.955965    64.604499    64.733818    17443.226 
12090000   -193473.69    1.7145143 -0.0010703955    72.621487    64.948563     64.54478    17455.994 
12095000   -193693.23    1.7201313 3.475972e-05    72.420419    64.951703    64.328158    17468.805 
12100000   -193276.85    1.7425596 -0.0013763873    73.390199    64.601165    64.722831    17481.554 
12105000   -193377.68    1.7118789 0.0020141201    73.249271    64.515993    64.479286     17494.34 
12110000   -193534.94    1.7289027 -0.00076873893    73.274082    64.393984    64.704809    17507.117 
12115000   -193495.17    1.6578785 -0.00014930705    73.151236    64.534124    64.423952     17519.93 
12120000   -193254.06    1.6858998 -0.002671851    72.952881    64.236061    64.950591    17532.734 
12125000    -193415.9    1.6680252 -0.0038686298     73.33531    64.407861    64.919622    17545.558 
12130000   -193647.56    1.6639146 0.0013295263    73.283226     63.91201    64.929981    17558.322 
12135000   -193271.15    1.6506343 -0.00057425241    73.002316    64.287364    65.121191    17571.108 
12140000   -193365.77    1.7024644 0.0026050996    73.186121    64.139442     64.94024    17583.879 
12145000   -193117.11    1.7003577 -0.00065322195    74.149244    63.917538    65.007716    17596.649 
12150000    -193297.9    1.6731599 0.0031351673    73.390402    64.640375    64.232616    17609.325 
12155000   -193006.24    1.7209582 0.00044729715    72.967979    65.083423    64.710262    17622.051 
12160000   -193116.16    1.7234333 0.0055545111    72.985811    64.891538    64.431869    17634.775 
12165000   -193414.57    1.6846557 0.0015766296    72.324919    64.429577    64.988238    17647.561 
12170000   -193502.39    1.6957787 -6.4601129e-05     71.86115    64.903764    65.065877    17660.388 
12175000   -193680.45    1.6630036 0.0019406206    71.383979    64.712628    64.967632    17673.204 
12180000   -193577.68    1.7066828 0.00083404139      71.9581    64.862848     64.70241    17686.097 
12185000   -193521.58    1.7409116 -0.00068356552    72.466109    64.744839    64.762689    17698.905 
12190000   -193326.19    1.6995077 -0.00063000484    73.694192    64.550626    64.447805    17711.666 
12195000   -193449.01    1.6780005 -0.0036120743    72.768767    64.342584    64.955845    17724.466 
12200000   -193883.98     1.692159 0.0019883277    72.092494     64.74654     64.50413    17737.305 
12205000   -193546.16    1.7314015 -0.0011980118    73.125064    64.410608    64.747791    17750.122 
12210000   -193274.72    1.6731981 -0.0013409966    73.667882    64.379579    64.498685    17762.885 
12215000   -193074.17    1.6600635  0.001117044    74.394799    64.162261    64.299185    17775.651 
12220000   -193005.19    1.6886065 -0.0010679358    75.444051    64.341771     63.86325    17788.371 
12225000    -193142.4     1.703498 0.0034622037    74.433915    64.780334    63.727162    17801.052 
12230000   -193223.66    1.7032553 -0.00030195641    73.887175    64.404308    64.849337    17813.777 
12235000    -192952.7    1.7636533 -0.0028944802    74.388735    64.822506    64.485692    17826.495 
12240000   -192942.94    1.6834676  0.003039294    74.672798    64.580756    64.181294    17839.152 
12245000    -193105.4    1.6599898 -0.0015501842    74.758475    64.688536    63.997616    17851.837 
12250000   -192937.44    1.7112967 0.00097111002    74.552276    64.805938    63.749319    17864.552 
12255000   -193229.88    1.6884432 -0.00028207958    74.136947    64.833742    63.919964    17877.289 
12260000   -192979.81     1.729234 -0.00019424176    73.872085    65.022053    64.483906    17890.025 
12265000   -193278.53    1.7076145 -0.0026545956    72.977939    64.928591    64.739123     17902.77 
12270000    -193357.9     1.652648 -0.00014982751    73.280545    64.571093    64.734934    17915.529 
12275000   -193450.46    1.7149794 0.00099096523    73.340015    63.960273    64.794294    17928.375 
12280000   -193224.96    1.7422545 -0.001678641    73.757501    64.092889    65.095407    17941.169 
12285000   -193642.18    1.6936832 -0.0012230004    72.744094    64.362611    64.862946    17953.932 
12290000   -193430.71    1.7421778 -0.0010228997    73.309412    64.595616    64.551074    17966.743 
12295000    -193050.7    1.6629677 -0.0029547598    74.540169    64.671169    64.310158    17979.484 
12300000    -192891.3    1.7209026 -0.00012550152    74.376442    64.902896    64.336126    17992.183 
12305000   -193279.26    1.6888264 -0.0037590526    73.324604    65.137546    64.138535    18004.943 
12310000   -193537.29    1.6876541 0.0034102622    72.453757    64.893329    64.146426    18017.737 
12315000   -193204.22    1.6521306 -0.00013922068    73.962002    65.075256    63.891882    18030.477 
12320000   -193388.17    1.7062974 0.0043985445    73.299618    65.049341    63.918692    18043.219 
12325000    -193428.5     1.706218 0.0017056034      72.9187    64.961164    63.900477    18055.993 
12330000   -193449.91    1.6905397 0.0020235629    73.037039    64.943342     64.02251    18068.804 
12335000   -193053.75    1.6962806 -0.0022091419    74.836718    64.674334    64.176091    18081.561 
12340000   -193232.63    1.6799562 0.00035117509    74.057502    64.707789    64.043673    18094.358 
12345000    -193494.6    1.6819344 -0.0020905827    72.552579    64.712813    64.760417    18107.091 
12350000   -193511.81    1.6768545 -0.0014412059    72.141831     65.03322    64.359302    18119.904 
12355000   -193555.77    1.6648973 0.00020044629     72.24092    64.665825    64.590014    18132.708 
12360000   -193444.38    1.6998877 -0.0039677432    72.523184    64.572177     64.90637    18145.534 
12365000   -193270.35    1.6653294 -0.001072285    73.458026    64.634829    64.660335    18158.296 
12370000   -193684.52    1.6779674 0.0039315735    72.523715    64.806885     64.22929    18171.039 
12375000   -193777.41    1.7033429 -0.0052554707    72.243304    64.905582    64.863178    18183.841 
12380000   -193767.04    1.6692788 -0.0025308945    71.758038    65.070407    64.812119    18196.672 
12385000   -193658.28    1.7148822 0.0014294122    70.956868    65.748527    64.652313    18209.512 
12390000   -193637.04    1.7005645 -0.0022100988    71.754718    65.209724    64.745887    18222.276 
12395000   -193814.64    1.7041415  0.003191523    71.169567    65.195052    64.604014    18235.136 
12400000   -193681.68     1.705356 -0.0014883463    71.338599    65.172652    64.858995     18247.93 
12405000   -193917.46    1.7325819 0.0011588662    71.036478    65.121761    64.660045     18260.76 
12410000   -193735.38    1.6946307 0.00073113324    72.252655    64.555797    64.969844    18273.571 
12415000   -193542.99    1.6875015 -0.0017291173    71.997425     64.25889    65.474497    18286.356 
12420000   -193406.46    1.7081904 0.00039657235    72.248225    64.892051     64.82876    18299.149 
12425000   -193283.98    1.6937237 0.0025332213    72.469205    65.082693    64.418188    18311.984 
12430000   -193425.95    1.6924058 -0.0007587131    72.359562    65.641715    64.162573    18324.784 
12435000    -193668.4    1.6886516 -0.002277474    72.017226    65.098652    64.882025    18337.568 
12440000   -193551.06    1.6882548 0.0048789618    72.916832    63.856223    65.055498    18350.344 
12445000   -193383.86    1.7004199 0.0011119286    73.553589    64.253712    64.835327    18363.103 
12450000   -193641.23    1.6819823 -0.001814657    73.107226    64.183738    65.119059     18375.85 
12455000   -193554.62    1.6899674 -0.0020433638    72.778247    64.687215    64.693427    18388.638 
12460000   -193556.14    1.6961568 -0.001362712    73.514642    64.604013    64.300723    18401.415 
12465000   -193515.62    1.6653221 0.0033142574    72.753959    64.147114    64.463092    18414.193 
12470000   -193786.19    1.6781092 -0.0035026752     72.19635    64.452633    64.741811    18427.024 
12475000   -193743.01     1.687677 -0.0012581985    72.708612    64.682902    64.596445    18439.824 
12480000   -193579.61    1.7145264 -0.0010648841    72.523164    64.377396    65.058051    18452.598 
12485000   -193714.35    1.7013085 -0.0057094919    72.327287    64.366544     65.18511    18465.408 
12490000   -193524.94    1.6963994 -0.001367852     71.41612    64.422179    65.480055    18478.227 
12495000    -193337.5    1.7050581 -0.0054451953    72.653316    64.742692     65.01789    18491.012 
12500000   -193324.39    1.6990371 0.0010929405    72.956216    64.765436    64.723961    18503.786 
12505000   -193558.16    1.7222437 -0.0015092632      72.1053     64.34126    65.562133    18516.508 
12510000    -193446.3    1.6939462 -0.0043140912    72.879331    64.419378    65.061156    18529.286 
12515000   -193534.09    1.6896351 -0.004299704    73.129256    64.726974    64.677341    18542.047 
12520000   -193413.02    1.6614666 -5.7868563e-06    73.527506    64.698969    64.422879    18554.804 
12525000   -193658.75     1.693719  0.000696195    73.173883    64.594371    64.351595    18567.559 
12530000    -193869.5    1.7084269 -0.00052692385    72.100187    64.346913    65.125983    18580.397 
12535000    -193927.9    1.7579123 -0.0012277895    70.880816     64.33826     65.76954    18593.229 
12540000    -193686.5    1.7265394 0.0031855746    71.393782    64.884954    64.839598    18606.041 
12545000   -193640.99    1.7128096 0.0020350192    71.688146     64.39425    65.063899    18618.882 
12550000   -193524.64    1.6556738 -0.0018525095     71.52243    64.971651    64.999832    18631.731 
12555000   -193720.68    1.7393283  0.003848058     71.68867    65.097746     64.59473    18644.514 
12560000   -193736.42    1.6880681 -0.0012276207    72.053286    64.602189    65.036339     18657.31 
12565000   -193897.59    1.7185455 0.00022077011    72.026547    64.457236    64.896423    18670.149 
12570000   -193033.24    1.6482575 0.0022840578    73.769181    64.549037     64.96073    18682.887 
12575000   -193415.85    1.7149937 0.0032180708    72.340995    65.041505    64.979049    18695.588 
12580000   -193866.74    1.6839642 0.0031712733    71.044254    64.612627     65.28257    18708.367 
12585000   -193686.36    1.7004896 0.0046154508    70.490531    65.064882    64.859715    18721.202 
12590000   -193880.35    1.7030087 0.0019777887    70.838032    65.399742    64.383395    18734.066 
12595000   -193705.33    1.7102005 -5.259127e-05    71.273836     65.09748    64.888673    18746.911 
12600000   -193682.95    1.7168729 0.0023706479    72.079455    64.958894    64.735186    18759.739 
12605000   -193454.78    1.7057262 0.0018098354    73.267216    64.968483    64.175073    18772.485 
12610000   -193132.07    1.7006726 -0.0025136317    72.639818    65.164206    64.417531    18785.232 
12615000   -193407.97    1.6756153 0.0029103162     73.08147    64.911112     64.23577    18797.972 
12620000   -193457.25    1.7040194 0.00055572399    72.611919     64.72389    64.250182    18810.725 
12625000   -193878.02    1.7139317 0.0012800937    71.721464     64.82536    64.471103    18823.524 
12630000   -193804.39    1.7050569 0.00064849973    73.040189    64.594727    64.334251    18836.386 
12635000   -193635.48    1.6917805 0.00055164621    72.568021    64.651172    64.425785    18849.189 
12640000   -193629.97    1.7037254 0.0023596993    71.616268    64.911296    64.436062    18862.032 
12645000   -193789.01     1.681907 -0.0040182254     71.49286    65.615774    64.153883    18874.831 
12650000    -193199.8    1.7201469 -0.00061510288    73.262292    64.655521    64.311567    18887.614 
12655000   -193339.96    1.7248217 0.0012971296    72.653363    64.677435    64.899828    18900.438 
12660000   -193557.57    1.6645763 0.0029588464    73.529393    64.531571    64.581464    18913.213 
12665000   -193653.61    1.7050948 -0.0014340558    72.663998    64.955218    64.507759     18925.97 
12670000   -193393.76    1.6981919 -0.00057234741    72.921315    64.803928    64.385685    18938.772 
12675000   -193829.03    1.6804961 -0.0014352161    72.485847    64.200276    64.773824     18951.61 
12680000   -193874.93    1.6783092 -0.0019375744    72.431694    64.313106    64.768868     18964.39 
12685000   -193438.99    1.6971856 -0.0013991196    72.927194    64.540488    64.269846    18977.198 
12690000   -193329.47    1.7274914 -0.0024342662    72.769254     65.14188     64.02978    18990.032 
12695000   -193373.09    1.7199313 -0.0012522487    73.515071    64.921837    64.056467    19002.826 
12700000   -193510.42    1.6783016 -0.0033866499    73.235347    64.926217     64.24951    19015.625 
12705000   -193154.67    1.7092638 -0.0032186388    73.458352    64.855354    64.574509    19028.356 
12710000   -193260.08    1.6682214 -0.00055167341    73.490231     64.63364    64.607763    19041.087 
12715000   -193648.44    1.6464395 -0.0027389252     72.80078    64.618462    64.791826    19053.862 
12720000   -193659.85     1.729568 0.0013621823    72.417033    64.091525    64.999116     19066.68 
12725000   -193775.14    1.6750316 0.0020796358    72.517215    64.250111    64.717613    19079.471 
12730000   -193466.97    1.6839596 3.8771929e-05    72.998945     64.41952    65.029643    19092.231 
12735000   -193678.12    1.6606959 0.00041604928    72.400879    64.619619    65.033982    19104.946 
12740000   -193584.68    1.6709166 -0.0021598162    71.656649    65.486758    64.508719    19117.707 
12745000   -193735.51     1.735348 -0.0010774407    72.326165    65.320791    64.146828    19130.535 
12750000   -193363.56    1.6317613 -0.00039723686    73.294965    65.025387    64.352674    19143.296 
12755000   -193663.99    1.7443816 -6.363623e-05    72.871371    64.608662    64.689859    19156.096 
12760000   -193557.69    1.7680382 -0.0039959911    72.294844    64.685627    64.777019     19168.93 
12765000   -193496.33    1.6751331 -0.0022194734    72.096057    64.745228    64.852923    19181.726 
12770000   -193654.07    1.6528451 -0.0010027227    72.219927     64.61947    64.963322    19194.549 
12775000   -193678.66    1.6946115 0.0023325991    73.503227    64.564147    64.306794    19207.337 
12780000   -193281.48    1.6963063 0.0014943556    73.913947    64.746941    64.303782    19220.057 
12785000   -193651.18     1.708301 0.0013643967    73.059044     65.06313    63.997297    19232.797 
12790000   -193559.11    1.7111297 -0.001127275    73.016085    65.349543    63.787481    19245.565 
12795000   -193435.96    1.6356835 0.0033994608    72.529922     64.76193    64.100865    19258.354 
12800000   -193398.58    1.6320204 1.7925155e-05    72.420062    65.146273    64.191263    19271.182 
12805000   -192980.06    1.7211272 0.0050965829    73.639039    64.354827    64.543794     19283.89 
12810000   -193368.65    1.7264493 0.00038740253    73.383746    64.485542    64.648905    19296.662 
12815000   -193578.08    1.7161657 -0.003089296    72.865564    64.622657    64.686865    19309.377 
12820000   -193579.14    1.7377653 -0.0020547156    72.460304    64.937613    64.387104    19322.149 
12825000   -192991.14    1.6713569 -0.002752904    72.730753    64.855358    64.825934    19334.933 
12830000   -193523.64    1.7156243 0.0028399212    72.064206    64.189597    65.157048    19347.738 
12835000   -193582.53    1.7019503 -0.0019373418    72.477087    64.632089    64.733975    19360.594 
12840000   -193635.14    1.7262166 -0.0028467015    72.712535    64.707405     64.42773    19373.403 
12845000   -193227.87    1.7122405 0.0010623535    72.659369    64.407337    65.087932    19386.207 
12850000   -193695.28    1.6955146 0.0052794055    72.387519    64.925659    64.371432    19399.009 
12855000   -193466.92    1.7168136 -1.2595448e-05    72.571519    64.976026    64.699772    19411.768 
12860000   -193367.14    1.7236752 0.0018238867    73.335683    64.648858    64.751122    19424.527 
12865000   -193277.92     1.702393 -0.0034155227     74.39196    64.366536     64.60022    19437.266 
12870000   -193253.72    1.7192444 0.0017662314    74.142161    64.272566    64.359768    19450.001 
12875000   -193433.79    1.6601315 -0.0029452857    73.249752      65.2361    64.007768    19462.738 
12880000   -193347.29    1.7161839 0.0018786505    73.374249    65.156379    63.786924    19475.466 
12885000   -193802.69    1.6512601 0.0017223055    72.714368    64.693693    64.163259    19488.237 
12890000   -193814.09    1.7047978 0.0039319002    72.941486    64.536446    64.084439    19500.998 
12895000      -193642    1.7647402 0.0023549584    73.484452    64.130274    64.478772    19513.771 
12900000   -193403.05    1.7117821 -0.0045979217    73.882442    64.825076    64.254617    19526.517 
12905000   -193086.73    1.6881896 -0.00079303727    73.266299    65.023104    64.318217    19539.228 
12910000   -193211.16    1.6539216 0.0030825189    73.142241    64.579562    64.500671    19551.971 
12915000   -193036.69    1.7344345 0.0016161696    73.519916    64.367806    64.814388    19564.727 
12920000   -193184.43    1.7069405 -0.0025813571     73.20836    64.502168     65.25821    19577.472 
12925000   -193650.82    1.6584086 0.0029876783    73.056199    64.156405    65.287635    19590.228 
12930000   -193539.04    1.7036615 0.00086771485     73.61975    64.168984    64.885229     19602.95 
12935000   -193144.91    1.7177365 2.8027578e-05    73.658107    64.001302    65.052225    19615.663 
12940000   -193348.91    1.7353736 -0.0034419976    72.945372     64.73001    64.506397    19628.444 
12945000   -193561.95    1.6856788 0.0019830963     72.46451    64.412944    64.653464    19641.249 
12950000   -193398.27    1.7080253 0.00098663587    73.316837    64.414883    64.312885    19654.054 
12955000   -192766.75    1.6787685 -0.0011003194    74.124284    64.255278     64.72131    19666.807 
12960000    -193203.1    1.7103868 0.0002488358    73.965302     64.35225    64.513806    19679.515 
12965000    -193301.4    1.7376209 0.0016872911    73.835136    63.767931    65.016951    19692.254 
12970000   -193234.49    1.7294166 0.0015654674    74.398325    64.093475    64.562673    19704.998 
12975000   -193129.26    1.7186151 0.0023070387    74.362737    64.229877    64.438286    19717.711 
12980000   -193827.83    1.7131138 0.0058007761    72.317492     64.73018     64.14506    19730.435 
12985000   -194053.94    1.6571982 -0.00010682061    71.843116    64.963367    64.214448    19743.242 
12990000   -193692.32    1.7010353 0.00028095931    72.576331    64.805176    64.501455    19756.038 
12995000   -193555.96    1.7018264 0.0005672077    72.248322     64.85757    64.744237    19768.832 
13000000   -193644.16    1.7182585 -0.0019989489    72.528549    65.337525    64.112617    19781.607 
13005000   -193649.98    1.7109164 0.0027190726    72.289761    65.168373    64.151695    19794.422 
13010000   -193213.42    1.6747288 -0.0029271188     73.34406    65.080364    64.518777    19807.192 
13015000   -193276.97    1.7247357 -0.0029678904    73.204295    64.859447    64.629692    19819.946 
13020000   -193688.32    1.7129214 -0.00058685579    72.088957    64.674309    64.747991    19832.756 
13025000   -193856.17    1.6775183 0.00064713354    71.388576    64.676849    65.075172    19845.569 
13030000   -193588.01    1.7431651 0.0031372253    72.208706    64.691901    64.875676    19858.381 
13035000   -193460.26    1.6776737 -0.002746098    72.638925    64.885795     65.04247    19871.175 
13040000   -193889.63    1.6911682 0.00082344113    71.757452    64.158176     65.34094    19884.012 
13045000   -193666.45    1.6917286 -0.0026972125    73.148556    64.017501    65.190337    19896.875 
13050000   -193179.77    1.6913436 -0.00025472863    73.839134    64.754695    64.525568    19909.604 
13055000   -193609.43    1.7340582 0.0013870357    71.957256    65.052517    64.498401    19922.361 
13060000   -193225.41    1.6974933 0.00091396023    72.356632    65.191578    64.051186    19935.189 
13065000   -193808.14    1.7350621 0.0022616707    72.097057    65.227057    64.146359    19948.021 
13070000   -193045.66     1.673086 -0.0008623385    73.477599    64.676016    64.474375    19960.855 
13075000   -193201.89    1.6763442 -0.0026528629    73.201428    64.992017    64.700522    19973.569 
13080000   -193141.33    1.6728259 -0.00093438828     72.58867    65.200146    64.895465     19986.37 
13085000   -193473.21    1.7223316 0.00047323173    72.078817    65.044579    64.752948    19999.128 
13090000    -193402.2    1.6803233 -0.0017253864     72.46531    65.078786    64.887874    20011.925 
13095000   -193423.48    1.7224777 0.0037014095    72.044834    65.135561    64.557947    20024.728 
13100000   -193457.89    1.6722891 -0.00050953374    72.336706    65.018389    64.590423    20037.533 
13105000   -193391.68    1.6949693 -0.00019508767     72.95922    64.990607     64.78741    20050.326 
13110000   -192950.05    1.6532951 0.0018852169    73.379904    64.672558    65.075997    20063.044 
13115000      -193035     1.689402 0.0039076809    73.395434    64.456406    65.024147    20075.801 
13120000   -193309.34     1.744194 -0.00056643742    72.974708    64.506766     64.73371    20088.565 
13125000   -193414.78    1.7101926 0.0021577221    72.273891    64.372923     65.08569    20101.352 
13130000   -193637.94    1.6591399 -0.0008203913     72.18853    64.796488    64.943758    20114.091 
13135000   -193454.17    1.7264321 -0.0011778124    72.962161    64.568208    64.910922     20126.85 
13140000   -193541.37    1.6644798 0.0026501194    72.943774    64.367068    64.724549    20139.641 
13145000   -193562.96    1.7135566 0.0028003689    73.727557    64.212923    64.329476     20152.43 
13150000   -193283.96    1.7083122 8.0204867e-05    73.989237    63.889496    65.046915    20165.153 
13155000   -193424.66    1.6897205 -0.0038856139    73.719997    64.711241    64.486615    20177.938 
13160000   -193255.99    1.7153946 -0.0017189636    74.183044     64.30495    64.762797    20190.679 
13165000   -193332.63    1.6967755 0.0026032991    73.657376    64.764318    64.256551      20203.4 
13170000   -193454.69    1.6871202 -0.0019063255     72.82382    65.054618    64.343668    20216.147 
13175000   -193824.74    1.7257406 -7.3803648e-05    72.704098    64.709447    64.137581    20228.939 
13180000   -193399.93    1.7014532 -0.0009219538    73.306546    64.383442    64.338777    20241.767 
13185000   -193852.65    1.7099286 -0.0023466085    72.612592    64.395255    64.561228    20254.612 
13190000   -193130.56    1.7246274 0.0025037968    74.104301    64.414189    64.709639    20267.405 
13195000   -193176.96     1.661364 -0.001743338    74.105535    64.124817    64.837032    20280.108 
13200000   -193562.79    1.7131886 -0.0029436812    74.048723    63.537281    65.295106    20292.839 
13205000   -193819.03    1.6381388 -0.0003310556     72.53327    63.619613    65.635939    20305.638 
13210000   -193556.31    1.6475263 -0.0048324436    73.170349    63.722419    65.227544    20318.455 
13215000   -193349.22    1.6935819 0.0032588823    73.640656    63.676915    64.871229    20331.202 
13220000    -193282.9    1.6912285 0.00096476067    73.722621    63.258266     65.51669    20343.946 
13225000   -192887.79    1.7611995 0.0036710423     74.11744    63.381077    65.956863    20356.669 
13230000   -192791.57    1.7586467  0.003284422    74.761263    63.924488    65.100399    20369.331 
13235000   -192802.34    1.6918431 0.00011808319    73.952474    64.793637    64.523817    20382.051 
13240000   -193053.16    1.7099308 0.00085117172    73.217162    65.092352    64.335393    20394.803 
13245000   -192987.45    1.7461198 -0.00037496209    74.063793    65.046345    63.960984    20407.559 
13250000   -192627.49    1.6340558 -0.00055114776    75.340914    64.676518    63.954593    20420.311 
13255000   -192565.51    1.6887438 0.00023124439    74.278816    64.409298    64.871484    20433.034 
13260000   -192963.26    1.6794838 -0.0010394513    73.807955    64.600573    64.581343    20445.709 
13265000   -193359.63    1.6886786 -0.0010841664    73.266152    64.588821    64.749564    20458.432 
13270000   -192967.23    1.6339576 0.0012920533    73.387057    64.906961    64.345055    20471.165 
13275000   -193124.85    1.7194409 -0.00031833284    73.280881    64.404256    64.529141    20483.911 
13280000   -193125.29    1.6714371 0.0016911105    73.505908     64.33453    64.358607    20496.668 
13285000   -193182.82    1.7056126 0.0051173145    73.872784     64.26497    64.201675    20509.446 
13290000   -193236.22    1.7180233  0.002644336    74.496445    64.567015    64.138296    20522.153 
13295000   -193292.86    1.7450885 0.00069532365     74.98737    64.348594    64.189234     20534.83 
13300000   -193482.47    1.7511288 -0.00044378448    73.878165    64.891256     63.90592    20547.563 
13305000   -193803.83    1.7040048 0.0031358652    73.459523    64.652813    64.006482    20560.287 
13310000   -193509.51    1.7414496 -0.00018301119    73.763364     64.24729    64.323776    20573.045 
13315000   -193495.73    1.6941553 -0.00041082836     73.27597    64.869304    63.987899    20585.765 
13320000   -193669.66    1.6902846 0.0021167946    72.904005    64.324268    64.103366    20598.573 
13325000   -193732.96      1.68278 -0.0028981808    72.698669    64.169804    64.786315    20611.354 
13330000   -193214.16    1.6838889 -0.0016786655    72.366978    64.425582    65.196639    20624.163 
13335000   -193083.59    1.6632245 -0.0015358902    73.502977    64.500138    64.911312     20636.91 
13340000   -193573.17    1.7364101 0.0012263153    73.154647    65.188629     64.19642    20649.657 
13345000   -193542.72     1.698668 -0.0024826276    73.358683    64.709079    64.169291    20662.428 
13350000   -193555.13    1.7054153 -0.0029536017    72.845164    65.169109    63.650963    20675.206 
13355000   -193551.26    1.7166103 -0.0038840876    72.514415    65.700507    63.743177    20687.972 
13360000   -193163.08    1.7170886 -0.0015202239    73.559802    64.979227    63.960526     20700.72 
13365000   -193187.32    1.6360885 -0.00010251715    73.106591    65.133884      64.1096    20713.472 
13370000   -193197.86    1.7256641 -0.0034260243    72.928264    65.297103    64.115016     20726.26 
13375000    -193956.5    1.6922608 -0.0018778634    71.643198    65.169375    64.129743    20739.028 
13380000   -193490.83    1.6916388 -0.00071065126    72.875768    64.969124    64.012667    20751.786 
13385000   -193445.19    1.7103932 0.0035727907    73.253201    65.063609    63.855883    20764.524 
13390000   -193556.24    1.6908789 0.0061922825    73.148973     64.78897    63.584452    20777.274 
13395000   -193181.26    1.7227108 0.00011829225    74.380942    64.877856    63.741426    20789.989 
13400000   -193308.13    1.7240716 -0.0016908374     73.40432    65.058527    64.630808    20802.729 
13405000   -193727.55    1.6942506 -0.0022776259    72.979583    64.460179    64.806056    20815.464 
13410000   -193455.99     1.689478 0.00037983075    72.483619    64.841247    64.642612    20828.258 
13415000   -193297.16    1.7250153 -0.0026037048    72.837007    64.498793     65.22152    20841.031 
13420000   -193108.54    1.7052716 -0.0015298269    72.927409    64.711992    64.966578    20853.767 
13425000   -193150.83    1.7274629 0.0013555223    73.659091    64.715326    64.533044    20866.486 
13430000   -193761.69    1.6961716  -0.00380595    71.328032    65.036803    64.737645    20879.273 
13435000   -193879.23    1.6858097 0.00054992051    72.078345    64.874493     64.31129    20892.108 
13440000   -193522.91     1.726545 0.00067855384    72.477567    64.054307    65.130151    20904.974 
13445000   -193143.36    1.6657528 -0.0013174347    72.612325    64.652435    65.039387    20917.715 
13450000   -193373.26    1.6884351 -0.004573387    72.753009    64.684571    65.012706    20930.437 
13455000   -193106.73    1.6726468 -0.0010957987    73.782946    65.202596     64.36707    20943.175 
13460000   -193102.03    1.6458565 -0.0011182252    73.179117    65.662561    64.230643    20955.861 
13465000   -193653.99    1.7335181 0.0022196845    72.556312    65.389386    64.049438    20968.579 
13470000   -193809.26    1.7023157 -0.00096858886    71.417919    65.511417    64.533254    20981.362 
13475000   -194098.24    1.7082736 0.0018166141    70.935749    65.507107    64.197885    20994.201 
13480000   -194070.49    1.6918917 0.0035893925    71.145385    64.787386    64.462926    21007.108 
13485000   -193621.92    1.6667009 -0.0027929518    72.702247    64.294481    64.975089     21019.93 
13490000   -193507.62    1.7404038 0.0047857138    72.628463    64.564489    64.562869    21032.721 
13495000   -193786.39     1.701055 -3.072356e-05    72.146355    64.924083    64.424067    21045.516 
13500000   -193820.66    1.6909761 0.00085267815    71.517654    65.001537    64.648712    21058.356 
13505000   -193744.17     1.680954 0.00081753364    71.789972     64.87806    64.597476    21071.218 
13510000   -193628.25    1.6819796 0.0007605156    72.524445    64.947433    64.175177    21084.035 
13515000   -193675.26    1.6891968 -0.0015922451    72.095507    65.420304    64.150848    21096.831 
13520000   -194089.93    1.6798645 0.0032646937    70.749637    65.266221    64.630265      21109.7 
13525000   -193900.23    1.6632409 0.0011911768    71.936948    65.219194    64.446431     21122.55 
13530000   -193723.61    1.6530914 0.0016738879     72.24579    65.086552    64.185313    21135.412 
13535000   -193787.35    1.6228058 -0.0016754524    72.247982    65.400886    63.961602    21148.259 
13540000   -193499.22    1.7067077 -0.0030105857    72.156758    65.238675    64.545653    21161.088 
13545000   -193505.36    1.7041528 -0.00094199159     72.44752    64.866747    64.578476      21173.9 
13550000   -193355.59     1.746636 -0.00026156252    72.527843    64.509042    65.191566    21186.764 
13555000   -193510.09    1.7055235 -0.0061657798    72.328288    64.787201    65.095211     21199.58 
13560000    -193502.1    1.7194108 0.00075250155    72.416578    64.770334    64.717896    21212.407 
13565000   -193235.24    1.7134134 0.0048079259    72.920369    64.515426    64.814375    21225.169 
13570000   -193283.59     1.692752 0.00027634198    72.024889    65.278082    64.664478    21237.994 
13575000    -193122.2    1.7491609 -0.0039460961    72.522092    65.345543    64.759553    21250.789 
13580000   -192960.74    1.6984996 -0.00015623472    73.657206    64.989454    64.359565    21263.533 
13585000   -193216.72    1.6863272 -0.0023865826    72.685994     65.01105    64.752071    21276.283 
13590000   -193605.21    1.7220284 0.0023413718    71.486897    65.378171    64.545382    21289.079 
13595000   -193467.81    1.6953879 0.00020963997    72.204154    64.842697    65.308681    21301.941 
13600000   -193252.74    1.6764824 0.0018147777    72.164091    64.966998    65.084783    21314.723 
13605000   -193061.67    1.6568957 -0.002220125      72.7002    64.908945    64.948864    21327.461 
13610000   -193359.03    1.7200401 -7.9288037e-05     72.64519    64.625504    64.899154    21340.243 
13615000    -193561.2    1.7361177 -0.00051303401     72.60369    64.843227    64.538345     21353.06 
13620000   -193256.18    1.7046731 -0.0049076366    72.655589    64.931502    64.958466    21365.807 
13625000    -193474.9    1.7107381 0.0022413911    72.730813    64.748675    64.747439    21378.562 
13630000   -193041.31    1.6617647 -0.0016270845    73.711493    64.420413    64.712454    21391.295 
13635000   -193130.94      1.66327 0.0014637061    74.134013    64.810171    63.917614    21404.033 
13640000   -193221.18    1.7307573 -0.0018791987    74.179001    64.495442    64.744839    21416.744 
13645000      -193260    1.6541677 -0.00097794941    74.080183    63.931308    65.012247    21429.512 
13650000   -193549.83    1.7368243 0.0047391786    73.641153    63.897211    64.825494    21442.281 
13655000   -193408.81    1.6738562 -0.0034628188    73.257325     64.71751    64.529616    21455.047 
13660000    -193604.4    1.7798628 -8.2334644e-05    72.438675    64.493032    64.745331     21467.83 
13665000   -193526.64    1.7300059 -0.0015097604    72.110205    64.831381    64.698669    21480.628 
13670000   -193722.45     1.654549 0.0040696014    71.766905    65.277432    64.289417    21493.466 
13675000   -193648.94    1.6786803 -0.00091218636    71.665857    65.769305    64.145987    21506.252 
13680000   -193463.07    1.7114927 0.00078073861     72.81977     65.02635    64.418502    21519.084 
13685000   -193333.03    1.6886298 -0.0037293394    74.119957    64.754174    64.414092    21531.828 
13690000   -193424.35    1.6900768 0.0012987329    73.980747    64.716257    64.029578    21544.551 
13695000   -193704.29    1.7046153 -0.00072653486    72.828321    65.096709    64.148873    21557.281 
13700000   -193991.97    1.6599481 -0.0017066641    72.241329    64.525304    64.743531    21570.069 
13705000   -193867.85    1.6729863 -0.0024691418    71.860659    65.161091    64.495617    21582.901 
13710000   -193330.93    1.7024643 0.0030142728    72.119382    65.160119    64.566682    21595.763 
13715000   -193339.36    1.7815564 0.0017585424    72.105614     64.93054    64.860251    21608.538 
13720000   -193609.32    1.7055815 -0.0016780121    72.610516    64.520931    64.796665    21621.316 
13725000   -193624.42    1.7234812 -0.0023711623    72.433473    64.116305    65.727432    21634.126 
13730000   -193660.14    1.6871777 -0.0017389079    71.790878    64.654668    65.343355     21646.91 
13735000   -193396.77    1.7164644 0.0028762057    71.499582    65.003929    65.085775    21659.747 
13740000   -193173.67    1.7280402 0.0017659768    73.279599    64.591331     65.02489    21672.537 
13745000   -193187.78    1.6844693 0.00035129314    72.417409    65.491971    64.438176    21685.292 
13750000   -193850.17    1.7240743 0.0018267186    71.348296    65.107128    64.469836    21698.039 
13755000   -193734.11    1.7239985 0.0007027221    72.424905    64.981043    64.620761    21710.867 
13760000   -193399.96     1.666384 -0.001877338    73.628626    64.738596    64.882614    21723.632 
13765000   -193570.33    1.7342795 0.00068230951    71.769635    64.720194    65.289786    21736.427 
13770000   -193665.54    1.7393979 0.0019345634    71.108859    64.355907    65.594116    21749.253 
13775000   -193764.31    1.6612695 0.0012214744    70.978886    64.713251    65.125172     21762.12 
13780000   -193470.69    1.7123543  0.003147034    71.896691    64.825727    64.874123     21774.94 
13785000   -193167.56    1.6655722 -0.0016350362    73.244965    65.245379    64.668836    21787.699 
13790000   -192964.63    1.6861991 -0.0035574559    73.344676    65.321376    64.690778    21800.445 
13795000    -193353.9    1.6679901 -0.0011032324    72.168464    65.179906    64.762287    21813.188 
13800000    -193514.5    1.7486023 0.00068495191    71.316443    65.029078    65.228108    21826.044 
13805000   -193314.35    1.6924191 -0.00070844797      72.4077    64.593103    65.186867    21838.866 
13810000   -193587.92    1.7171902 0.0016075927     72.69283    64.780183    64.586931    21851.667 
13815000   -193135.91    1.7060039 0.00082110864    72.921951    64.753459    64.734057    21864.433 
13820000   -193627.12    1.7401211 0.0028126115    72.262273    64.651041    64.791924    21877.225 
13825000   -193665.65     1.704306 -0.00045740412    72.032064    64.745111    64.690311    21890.016 
13830000   -193466.41    1.6890314 7.4337635e-05    72.668429    65.479849    64.114855    21902.811 
13835000    -193705.4    1.7021712 0.0030850728    71.676313    65.376823    64.468224    21915.608 
13840000   -193664.35    1.6669208 -0.0020754274    71.649757     65.19642    65.164392    21928.486 
13845000   -193529.23    1.7031655 -0.0031448998    72.148338    64.865874    65.186181    21941.317 
13850000   -193452.61    1.6697168 0.0042894092    71.828268    64.770758    64.787592    21954.054 
13855000   -193351.01     1.669196 -0.00051047377    71.614078    65.176189    65.106927    21966.892 
13860000    -193612.9    1.7284356 -0.00089519327    71.719911    65.152255    64.938112    21979.693 
13865000   -194077.82    1.6357425 -0.00062664579     70.64417    65.240247    65.278726    21992.536 
13870000   -193829.96    1.6600832 -0.0064262699     71.74263    65.122346    65.190805    22005.339 
13875000   -193719.63    1.6729198 -0.0036452867    71.161008    65.061763    65.108415     22018.15 
13880000   -193784.99    1.7286555 -0.0017172783    70.635907    64.890678    64.925491    22030.992 
13885000   -193819.88    1.6736951 -0.0026875326    71.893816    64.751113    64.707889    22043.804 
13890000   -193483.75    1.7124709 -0.0011612721    73.012169    64.284492    65.028936    22056.571 
13895000   -193595.83    1.7272226 0.00021011862      71.8077    65.081969    64.659596    22069.373 
13900000   -193833.57    1.7251187 -0.0037003855    72.375159    64.550264    65.026709     22082.23 
13905000   -194108.66    1.6958133 0.0029022293    71.525286    64.220218    64.974578    22095.084 
13910000   -193946.48    1.7294577 -0.00059485249    71.252654    64.659107    64.902646    22107.924 
13915000   -193641.22    1.6947663 -0.00014174341     73.01869    64.579468    64.736749     22120.75 
13920000   -194118.75    1.6627622 0.0023199059    72.023138    64.946549    64.380549    22133.559 
13925000   -194156.99    1.6952558 -0.0034784568    72.338592    64.530152    64.773049    22146.432 
13930000      -193831    1.6938039 0.0023241703    72.543479    64.732329     64.34181    22159.256 
13935000   -193365.98    1.7287091 0.0026932808    73.153137    64.291938    64.709045    22172.047 
13940000   -193071.79    1.7018754 0.0015134915    73.123832    64.635046     64.73542     22184.83 
13945000    -193294.5    1.7056968 0.00052599562    72.513956     65.25337    64.622028    22197.621 
13950000   -193250.15    1.7214112 0.0012667528    73.818813    64.831038    64.148521    22210.372 
13955000   -193819.39    1.6862356 0.0018596107    71.419328    64.928314    64.736975    22223.188 
13960000   -193626.66    1.7158054 -0.0032949208    71.963848    65.156248    64.621105    22236.037 
13965000   -193367.36    1.6840425 0.00069950316    72.786304    64.994021     64.81353     22248.83 
13970000   -193488.04    1.7041756 -0.0017107999    73.215011    65.134264     64.08882    22261.622 
13975000   -193400.01    1.7178557 -0.0021159495    73.574294    65.265072    64.123608    22274.388 
13980000   -193401.11    1.7518621 0.00035133214    72.394501    65.434064    64.165296     22287.13 
13985000   -193632.63    1.7211384 -0.0016565671    72.952491      64.8754    64.352077      22299.9 
13990000   -193437.14    1.7212422 -0.00021985891    72.748923    65.394256    64.026953    22312.672 
13995000    -193635.3    1.7440862 0.00070882461    72.634004     64.76864    64.310804    22325.468 
14000000   -193411.86     1.650917 -0.0020008111    73.591615    64.778879    64.192653     22338.26 
14005000   -193262.99    1.6843621 0.00010418595    73.077538    65.065503    64.385195    22351.022 
14010000    -192978.5    1.6843153 0.00091647333    74.274218    64.950871    64.374734    22363.759 
14015000   -193200.98    1.7412443 0.0030733023    74.098675    64.946757    64.005566    22376.491 
14020000   -193268.57    1.6528651 -0.0015875288    74.148193    64.854348    64.054447    22389.245 
14025000   -193476.11    1.6769959 6.3003144e-05    72.805229    64.953892    64.253255    22402.017 
14030000   -193605.05     1.722131 -0.0014428812    72.070354     65.10567    64.151564    22414.813 
14035000    -193619.2     1.704455 0.0030972438    72.147081    64.610761    64.535095    22427.625 
14040000   -193642.57    1.7020092 -0.001995114    72.157739     64.93381    64.700136    22440.473 
14045000   -193634.67    1.6991657 0.0026708434    72.212971    64.935634    64.495122     22453.32 
14050000   -193858.33    1.6721915 -0.0020722937    72.402711    64.982528    64.174447    22466.133 
14055000   -193833.94     1.722129 -0.0032364194    71.716039    64.956505    64.729913    22478.945 
14060000   -193877.75    1.6900714 0.00089024675    72.146792    65.055435    64.247976    22491.747 
14065000   -193803.84    1.7239322 0.0033208877    71.238556    65.326146    64.269444    22504.558 
14070000   -193792.57    1.7000228 0.00010078644    71.834829    65.070571     64.21048    22517.412 
14075000   -193162.16    1.7637726 -0.0022230502    72.165148     65.15449    64.936911    22530.237 
14080000    -193620.7    1.6768903 -0.0033130597    72.189538     65.09094    64.704406    22543.076 
14085000   -193480.75    1.6827968 0.00097635302    73.735083      64.4334    64.442535    22555.861 
14090000   -193606.29    1.6836063 -0.0012803232    73.301339    63.900199    65.059609    22568.612 
14095000   -193835.18    1.6574867 0.0017800934    72.522699    64.323042    64.670345    22581.452 
14100000   -193520.25     1.723073 0.0028035292    73.779978    64.198387    64.738344    22594.203 
14105000   -193193.35      1.65215 -0.0019412597    72.770855     64.76624    64.659425     22606.93 
14110000   -193434.53    1.6668664 -0.0014652831    72.639614    64.743493    64.491071    22619.768 
14115000   -193441.62    1.6989654 -0.00044122262    73.112717     65.32529    63.954646    22632.545 
14120000   -193249.46    1.7012161 0.0011669512    73.260486    65.191003    64.197967    22645.307 
14125000   -193496.07     1.722191 -0.0016548367    73.119975    64.548849     64.78676     22658.05 
14130000    -193300.2    1.6958718 -0.00099662757    73.309049    64.266731    64.854626    22670.813 
14135000   -193778.38     1.650265 -0.0012951935    72.105044    64.568162    64.880956    22683.601 
14140000    -193874.7    1.6897865 -0.0014068914    70.916627    64.840729    65.238137    22696.399 
14145000   -193492.86    1.6752691 0.00087210925    72.763353    64.198702    64.911127    22709.214 
14150000   -193425.96     1.730503 -0.0020147255     72.30596    64.159797    65.334039    22721.989 
14155000   -193944.42    1.7001327 -0.0022773995    71.180763    64.412891    65.342931    22734.797 
14160000   -194145.59    1.6861488 0.0027177627    70.965244     64.51263    65.138961     22747.64 
14165000   -194017.37    1.7239965 0.0023596595     71.61924    64.617043    64.526896    22760.436 
14170000   -193666.87    1.7003228 -0.0024232086    72.418951    64.919546     64.18437    22773.276 
14175000   -193829.32    1.6630856 -0.0020989697    71.070972    65.163009    64.657908    22786.108 
14180000   -193732.12    1.7351968 0.0018478231     71.67123    64.859387    64.381493    22799.013 
14185000   -193924.84     1.707407 -0.00094680694    72.224492    64.247306     64.86485    22811.923 
14190000   -193921.95    1.7055242 -0.0006045997    72.767011    64.881163    64.077223    22824.737 
14195000   -194021.78    1.7070882 -0.0034036354    72.281985     64.52093    64.698177    22837.494 
14200000   -194135.24    1.6813914 0.0023936823    72.044157    64.070863    64.892084    22850.327 
14205000    -193734.4    1.6477466 0.0042222443    72.327225    64.426938    64.517146     22863.19 
14210000   -193827.68    1.6542319 -5.9347777e-05    72.134071    64.272471    64.815244    22875.984 
14215000   -193232.66    1.7499685 -0.00038590224    73.300696    64.274722    64.943895     22888.75 
14220000   -193327.39    1.6805753 -0.0030670661    72.961031    63.976344    65.331587      22901.5 
14225000   -193621.38    1.6630145 -0.0013031742    72.482763    64.501175    64.904512    22914.253 
14230000   -193496.59    1.6941521 0.0015064822    72.827134    64.224461    65.014151    22927.002 
14235000   -193618.63    1.7224868 -0.0039763211    72.900773    64.720764    64.940495    22939.722 
14240000   -193442.01    1.6641524 0.00085638448     72.72616    64.374332    65.075764    22952.516 
14245000   -193229.18    1.7275703 0.00065998221    72.367635    64.807829    64.923337    22965.267 
14250000   -192959.24    1.6532172 -0.0018498536    73.295593     64.66317    64.956262    22978.001 
14255000   -193295.51    1.6648802 0.0011945257    72.456979    64.906697    64.624976    22990.753 
14260000   -193600.31    1.6935738  -0.00200863    73.148772    65.227466     64.00846     23003.51 
14265000   -193315.85    1.6685599 0.00075269932    73.350398    64.416365     64.76387    23016.246 
14270000   -192901.38    1.6991866 -0.001332877    73.852521    64.401996    65.117647    23028.975 
14275000   -193330.18    1.6624148 0.00055600162    73.360486    64.463335    64.796177    23041.755 
14280000   -192856.26    1.7261562 0.0060616573     73.19126    64.694242    64.758646    23054.437 
14285000   -193051.67    1.6980207 0.0072151038    73.480636    64.661188    64.556037    23067.155 
14290000   -193012.88    1.7144995 -0.0014306304    73.245872    65.129304    64.468217    23079.889 
14295000    -193336.5    1.7380816 -0.0034714644    73.287442    64.793798    64.395858    23092.645 
14300000   -193102.04    1.6958152 0.0034482214    73.222969    64.502507     64.57871    23105.406 
14305000   -193532.45    1.7281349 0.00088167992    72.600781    64.543341    64.647121    23118.175 
14310000   -193640.08    1.7265601 -0.0023568192    72.310584    64.769498    64.682197     23130.92 
14315000   -193506.35    1.7210683 -0.0052587321    72.324899    64.675475    65.255366    23143.739 
14320000   -193164.25    1.6963284 0.0019274134    73.426458    64.301706    64.883369    23156.549 
14325000   -193249.25    1.7465228 -0.00058455093    73.410997    64.770133    64.575991    23169.206 
14330000   -193346.48    1.6888335 0.0045780105    73.400997    64.604685    64.365852    23181.942 
14335000   -193460.49    1.7484186 0.0021352292    72.953595    64.525002     64.77233    23194.706 
14340000    -193404.4    1.7264995 -0.0012810825    72.761485    65.193697    64.536322    23207.468 
14345000   -193551.18    1.7133731 -0.00022833925    73.126149    64.897096    64.319165    23220.222 
14350000   -193563.91    1.7091087 -0.0022156772    72.908034    65.074033    64.358491    23232.916 
14355000   -193100.21    1.7021748 -0.0021734095     73.94413    64.407364    64.827943    23245.684 
14360000    -193314.4    1.6776574 -0.0012817258     72.99326    64.209217    65.310967    23258.419 
14365000   -193435.74    1.7096927 -0.00014261525    73.380697    64.007461    65.257371    23271.197 
14370000   -193726.71    1.7215247 -0.0004726245    73.247229     64.03675    64.989923    23283.916 
14375000   -193453.71    1.7036005 0.0039944092     73.89777    64.031967    64.666949    23296.661 
14380000   -193256.05    1.6941362 -0.0015436517    73.260504    64.498701    64.994761    23309.403 
14385000   -193514.83    1.6955179 -0.007216404    72.320318    64.909807     65.03274    23322.152 
14390000   -193632.61    1.7235643 0.0029787505    72.247558    65.074392    64.079362    23334.954 
14395000   -193430.05    1.7206933 -0.00026982618    72.478218    65.207232    64.327783    23347.742 
14400000   -193400.96    1.6622394 -3.9935887e-05    72.854767    64.680696    64.524891    23360.518 
14405000   -193552.65    1.6592912 0.00059467851    72.621945    64.400341    64.735313     23373.26 
14410000   -193636.58    1.7344787 0.0032392578    72.175881    64.435207    64.679529    23386.075 
14415000   -193606.85    1.6829749 0.0039726494    72.470545    64.048518    64.922989     23398.87 
14420000   -193156.98    1.7491158 0.0010348594    73.055227    64.460898    64.717245    23411.711 
14425000   -193362.62    1.6978128 -0.002587831    73.207754      64.9425     64.49693    23424.435 
14430000   -193341.85      1.64763 0.00075155781     72.93572    64.448987    64.936843    23437.196 
14435000   -193289.66    1.6677927 0.00087189544    72.980375    64.550156    64.865995    23449.926 
14440000   -193118.84    1.6966738 -0.0038929435    73.444938    64.504565    64.890521    23462.707 
14445000    -193346.4    1.7067139  0.001515622     72.67256    64.277143    65.191719    23475.484 
14450000   -193393.69    1.6999268    -0.002339    73.502055    64.522437    64.678841    23488.238 
14455000   -193428.85    1.6755486 -0.0032979944    73.164404    65.057273    64.351438    23500.953 
14460000   -193683.18     1.713787 -0.0010633928    71.461981    64.929667      64.9079    23513.767 
14465000   -193930.66    1.6798106 0.0005120255    71.809626    64.527378    64.769765    23526.549 
14470000   -194121.06    1.6523586  -0.00197839    71.661464    64.648087    64.723803    23539.456 
14475000    -194281.5    1.6818945  0.000814075    71.763333    64.308372    64.672783    23552.263 
14480000   -194217.51    1.6904846 -0.0013804927    71.417095    64.427118    64.805653    23565.138 
14485000   -193852.62    1.7057962 -0.0020128953    72.019974    64.740209    64.848112     23577.97 
14490000   -193749.88    1.7328471 -0.00013575511    72.230418    65.007458    64.445269    23590.762 
14495000   -193174.29    1.7152105 0.0057222176    72.586973    64.636277    64.946546    23603.559 
14500000    -193291.1     1.684594 -0.0041099566    72.945108    64.628486    64.873203    23616.304 
14505000   -193389.75    1.6692703 -0.0014491596    71.862193    65.004237    65.014155     23629.01 
14510000   -193526.07    1.7875009 -0.00048423518    71.664865    64.632056    65.393049    23641.786 
14515000   -193727.36    1.7600393 0.0050765711    71.577801    64.472392    65.258282    23654.586 
14520000   -193853.31    1.6864376 -0.00075300011    71.185697    64.885538    64.915135    23667.401 
14525000   -193568.63    1.6690088 0.0004770694    71.573385    64.861974    64.953839    23680.196 
14530000   -193823.85    1.6673797 5.3876538e-05    71.865879     64.87227    64.454994    23693.024 
14535000   -193790.69    1.7028364 0.0028917541    71.628876    64.741493    64.846221    23705.885 
14540000   -194023.43    1.6899847  0.001303815    72.448562    65.007045    64.088052    23718.689 
14545000    -193732.2    1.6864355 0.00026515471    72.576246    65.127314    64.172189    23731.469 
14550000   -193931.93    1.7447734 0.00023593973    72.403061    65.220635    63.988559    23744.267 
14555000   -193971.09     1.675043 -0.0010939835     70.99202    65.196958    64.384677    23757.099 
14560000    -193670.3    1.6461473 -0.0027213712    72.273839    65.058769    64.381742    23769.931 
14565000   -193729.88     1.703113 0.00086058875    72.075601    64.988064    64.577899    23782.685 
14570000   -193727.66    1.6919855 0.0017377568    72.100305    64.942514    64.695975    23795.484 
14575000   -193476.25     1.710299 0.0023763768    72.389606    64.391008      65.2284    23808.232 
14580000   -193644.98    1.6737743 0.00089775866    72.065408    65.168273    64.353591    23821.052 
14585000   -193685.01    1.6707307 -0.0014587166    72.392244    65.215297    64.508715    23833.828 
14590000   -193499.33    1.6534276 0.00055611371    73.027338    64.688747    64.733108    23846.623 
14595000   -192812.58    1.6886203 -0.00011034287     74.46094    64.461174    64.785327    23859.337 
14600000    -192878.1    1.6820087 -0.005487958    74.140181    64.978643    64.679986    23872.029 
14605000   -193398.61    1.6788963 -0.0013573418    72.920651     64.92125    64.709661    23884.756 
14610000   -193637.25    1.7056022   0.00499163    72.392272    64.792498    64.421197    23897.516 
14615000   -193687.08    1.7352783 0.0032772643    71.660739    64.556039    64.791639    23910.333 
14620000   -193578.61    1.7127919 0.0026949837    71.796053    64.806673    64.545192    23923.145 
14625000   -193552.61    1.7255453 0.00038792632    72.653494    64.547155    65.021974     23935.94 
14630000   -193862.91    1.7135006 -0.0025046215    72.194329    65.052455    64.839337    23948.697 
14635000   -193118.05    1.7047048 -0.0033887106    73.104512    65.080269    64.504667     23961.46 
14640000   -192949.04    1.7032289 0.00068105644    74.696402    64.796248    63.819846    23974.213 
14645000   -192885.91    1.7054414   0.00279622    74.246991    64.527797    64.567638     23986.87 
14650000    -193593.7    1.7060581 -0.0031747076    72.309901    64.684376    64.820153    23999.624 
14655000   -193172.17    1.7007687 0.0033699218    72.982053    64.480168    64.697468     24012.44 
14660000   -193403.95    1.7125673    0.0044573     73.68283    63.632906    65.088673    24025.195 
14665000   -193596.81     1.696009 -0.0022843893    73.350823    63.946856    64.863321    24037.927 
14670000   -193622.27     1.704067 0.00085143346    72.274787    64.739445    64.675704    24050.688 
14675000   -193507.07    1.6893369 0.0039544846    73.225642    64.803439    64.055204     24063.46 
14680000    -192979.2    1.7456911 -0.003512415    74.229518    64.250493    64.906464    24076.216 
14685000   -193159.72    1.6993766 -0.0019351519    73.301298    64.428089    64.725002    24088.932 
14690000    -193645.2    1.6715041 -0.0009019922    72.464488    64.958204    64.347564    24101.757 
14695000   -193818.59    1.6544999 0.00062825835    72.174945    65.550479     63.72526    24114.533 
14700000   -193489.59    1.6458583 -0.0013905658    72.676898    65.256918    64.105315    24127.328 
14705000   -193441.78    1.6697471 0.0011138433    72.454389    65.008349    64.492487    24140.094 
14710000   -193254.91    1.7194997 0.00044131471    73.256861    65.045756    64.063447    24152.862 
14715000    -193150.5    1.7094072 -0.0007864366    73.630753     64.99914    64.329028    24165.594 
14720000   -193219.02     1.673676 0.00070497495    73.999686     64.85308    64.273786    24178.297 
14725000   -193666.27    1.7285165 0.00033248214    72.296495    64.928614    64.631847    24191.066 
14730000   -193522.74    1.6693892 -0.0010466689    71.875241     65.69486    63.948665    24203.848 
14735000   -193574.14    1.7053467 -0.0014847742    71.864665    65.495253    64.262861    24216.704 
14740000   -193662.93    1.7130913 0.0015321115    72.924473    65.258145    63.950574    24229.498 
14745000   -193941.33    1.7423702 0.0026941136    71.585788    65.008157     64.43282    24242.296 
14750000   -193881.01    1.6308281 -0.0067783261    72.076215    65.535004    64.235602    24255.161 
14755000      -193599    1.7299267 -0.00042281169    72.581442    64.916353    64.552803    24267.988 
14760000    -193582.2    1.6949819 -0.0025100973    72.001692    64.986214    64.584781    24280.764 
14765000   -193773.02    1.6827293 -0.00097823966    71.200404     65.30069    64.554107    24293.596 
14770000   -194008.83    1.7323645 0.0022920728    69.932623    65.758441    64.369747    24306.471 
14775000    -194296.6    1.6639493 -0.0024354648     69.76415    65.577923    64.753761    24319.368 
14780000   -193833.15    1.7171472 -0.0011235854     71.26101    65.721709     64.36104    24332.203 
14785000    -193675.1    1.7657644 -0.00096420678    73.071149    65.194254    64.137209    24345.005 
14790000   -193748.41    1.6688063 0.0021240095    71.531076    65.531709    64.222068    24357.774 
14795000   -194035.78     1.698113 0.0021984253    70.822252    65.605835    64.491478    24370.584 
14800000    -194287.6    1.6869807 6.3853387e-05    71.162877    65.178797    64.346325    24383.456 
14805000   -193826.54    1.7014449 -0.00071023472    71.631939    64.645636    64.931677    24396.244 
14810000   -194060.77    1.6861503 -0.0046926145    70.957482    65.044238    64.950751    24409.016 
14815000   -194114.77    1.6750095 0.0031097397    71.210174    64.716787    64.887121    24421.874 
14820000   -194110.68    1.7169037 -0.0030411628    71.189138    65.394393    64.616077    24434.682 
14825000   -194067.38    1.7121562 0.0010923924    70.277642    65.240652    65.062446    24447.502 
14830000   -193838.58    1.6844837 -0.001077409    70.935128    64.984026    65.270795    24460.383 
14835000   -193960.59    1.6823666 -0.00034771127     69.80948    64.626545    65.817809     24473.22 
14840000   -193837.63    1.7653312 -0.001051791    70.425617    64.970201    65.196785    24486.103 
14845000   -193861.17     1.677492 -0.0029885078    71.557644    64.917985    64.960931    24498.942 
14850000   -193584.54    1.7024713 0.0027787396     71.99112    64.875325    64.787213    24511.715 
14855000   -193776.06    1.6832164 0.0024649879    71.760838    64.578117    64.980421    24524.559 
14860000   -193675.08    1.7093935 -9.6116384e-05    71.820296    64.486043    65.457897    24537.403 
14865000   -193161.02    1.6889963 -0.0011430997    72.313092    64.492633    65.469234    24550.186 
14870000   -193212.59    1.6907906 0.00048575318     72.65505    64.404741    65.319049    24562.955 
14875000   -193001.55    1.7143091 0.0040667393    73.371552    64.109546    65.205928    24575.665 
14880000   -193498.65    1.6640433 -0.0029218858    71.895516    64.596063    65.281169    24588.403 
14885000   -193947.44     1.684115 -0.0036267076    71.044896    64.916508    64.879023    24601.212 
14890000   -193648.97    1.7302771 0.0010120675    72.419689    64.917424     64.56766    24614.069 
14895000   -193349.53    1.6817257 -0.00027929885    73.745629    64.729358    64.399687    24626.771 
14900000    -193027.5    1.6990461 -0.001055373    73.878072    64.520017     64.69133    24639.501 
14905000   -193328.09    1.6826929 -0.0014792866    72.801972    64.666451     64.59974    24652.256 
14910000   -193349.77    1.7214755 -0.00063150928    73.264191    64.615692    64.411739     24665.02 
14915000   -192985.35    1.7114379 0.0011394215    74.346045    64.446973    64.651503     24677.71 
14920000   -192787.28    1.7105924 -0.00014380939    74.922366     64.65972    64.335162    24690.418 
14925000   -193276.79    1.6743746 0.0026015438    73.938774     64.62097    64.232469    24703.147 
14930000   -193177.43    1.6977267 0.0037797447    74.055094    65.024744     63.81771    24715.894 
14935000   -193216.68    1.7158924 -0.00090648461    74.258669    65.140309    63.741929    24728.602 
14940000   -192848.93    1.7196048 -0.0027658458    74.406592     64.98946     64.11684    24741.333 
14945000   -193181.08    1.7124387 0.0025141632    73.458749    64.870798    64.384404    24754.065 
14950000   -193448.81    1.7399719 0.0036578621    72.990676    64.579693      64.3355    24766.825 
14955000   -193567.51    1.7600835 0.00047569673    73.070923    65.180203    64.085938    24779.593 
14960000   -193617.69    1.6587544 -0.0019864995    72.186026    65.304504    64.710152    24792.375 
14965000      -193385    1.7235059 -0.0010877649    72.922086    65.167855    64.621373    24805.164 
14970000   -193366.66    1.7154295 0.0026738454    73.072571     65.03337    64.350129    24817.932 
14975000   -193661.63    1.6995738 0.00030387365    71.956168    64.720387    64.684275    24830.712 
14980000   -193480.36    1.6846697 -0.0011397411    72.541571     64.91274    64.376473    24843.556 
14985000   -192936.08    1.7622323 0.0042104272    74.467563    64.337851    64.372732    24856.355 
14990000   -192946.44    1.7203034 -0.0017172176    74.335985    64.750506    64.731317    24869.073 
14995000   -193020.33    1.6937621 -0.00059732369    73.236274    65.262591    64.482574    24881.823 
15000000   -192939.27    1.6850565 -0.00028694067    73.624621    65.155929    64.434706    24894.576 
15005000   -192726.43    1.6739715 0.00021387515    73.992519    64.794914    64.499101     24907.29 
15010000   -193185.05    1.6957249 0.00097096607    72.786985    64.940841    64.455094    24920.075 
15015000   -193113.75    1.6747721 -0.007270109    73.139293    65.237594    64.633456     24932.79 
15020000   -193761.06    1.6705595 -0.0033375652    71.396636    64.998975    64.773022    24945.563 
15025000   -194157.37    1.6726965 0.0023002545    71.127816    64.920221     64.78995    24958.424 
15030000    -193633.6    1.7404409 -0.0034571354    73.030015    64.558818      64.7046    24971.291 
15035000   -193751.74    1.6665833 -0.0018174035    73.005892    64.774335    64.462422     24984.02 
15040000   -193433.74    1.7529781 -0.0023275606     73.60304     64.73135    64.780003    24996.788 
15045000   -193689.01    1.7298531 -0.00022568313    72.868747    64.823989    64.488386     25009.55 
15050000   -193604.24     1.731295 -0.0018195047    72.463871    64.369905    64.969893    25022.313 
15055000   -193315.16    1.7058077 -0.0024542104    72.590952    64.512691    65.034181    25035.113 
15060000   -193367.44    1.7540963  0.001634541    73.193294    63.606851       65.161    25047.848 
15065000   -193553.42    1.7565083 0.0038507805    73.260685    63.492503    65.255522    25060.608 
15070000   -193532.45    1.6588284 -0.0020735323    73.292809    63.981405     65.19095    25073.364 
15075000   -193439.04    1.7057409 -0.0054734488    73.578768    64.307933    65.259861    25086.116 
15080000   -193140.44    1.7196227 0.0008090408    73.832203    64.876678    64.602245    25098.886 
15085000   -193025.68    1.7154282 0.0024219511    73.271499    64.909249    64.454803     25111.57 
15090000   -193188.89    1.6827429 -0.0025624103    72.758978     64.37927     64.87502    25124.349 
15095000   -193525.98    1.6540035 -0.0018444592    72.939626    63.797952    65.488246    25137.124 
15100000   -193564.52     1.666794 -0.0024744429    73.188811    63.886069    65.377414    25149.869 
15105000   -193593.98    1.7577957 -0.00075496887    72.699174    64.042638    65.447873    25162.665 
15110000   -193233.46    1.7350507 0.00016802815    73.002125    64.671699    64.976749    25175.432 
15115000   -193240.64    1.7213216 -0.003182367    73.681073    64.833756    64.361911    25188.196 
15120000   -193125.83    1.6685103 0.0028464706    73.240314    64.691517    64.555379    25200.914 
15125000   -193584.86    1.6545723 0.0024600894     72.60364    64.694591    64.675868    25213.637 
15130000   -193605.05     1.771569 -6.1765003e-05    72.813466    64.497028    64.796799    25226.458 
15135000   -193548.33    1.7058708 0.0045411437    72.598543    64.374231    64.678187    25239.217 
15140000   -193443.56    1.7508995 -0.0050260073    72.994191    64.669005    64.494923    25251.988 
15145000   -193692.49    1.7182184 -0.0030746052    71.860605    64.409956    65.246722    25264.796 
15150000   -193604.46    1.7114459 -0.0013963674    72.465294    64.730841     64.53449    25277.582 
15155000    -193626.7    1.6707011 0.0011775545    72.766195    65.056067    64.333703    25290.366 
15160000   -193507.56    1.7380572 -0.00086043523    73.086458    64.542961    64.605234    25303.075 
15165000   -193388.33    1.6635067 -0.0048319396    72.997629    64.395236    64.853756    25315.829 
15170000   -193363.14    1.6340115 -0.0051549956    72.692152    64.720386    64.898187    25328.606 
15175000   -193721.98    1.7426424 0.0047736473    72.148725    64.140622    64.950099     25341.42 
15180000   -193544.12    1.6524235 -0.002243943    73.496296    64.177828    64.748153     25354.23 
15185000   -193728.31    1.7111336 -0.0029975778     73.16129    64.050923    65.026804    25366.962 
15190000   -193635.12    1.7292722 0.0016317495    72.566433    64.599385    64.442674    25379.735 
15195000   -194022.14    1.6847466 0.00078883887    72.229487    64.321701     64.42005    25392.548 
15200000   -193642.28    1.6537454 -0.00077553049    72.629295    64.321585    64.713816    25405.365 
15205000   -193291.63    1.7066446 0.00063482122    73.671686    64.156096    64.481546    25418.137 
15210000   -192918.16    1.7142571 -5.307887e-05    74.242356    64.580117    64.057947    25430.921 
15215000   -193108.79    1.6921546 -0.0028666483    74.600137    63.986743    64.553754     25443.67 
15220000   -192748.61    1.7659983 4.0173331e-05    74.757144    63.884533    64.729215    25456.395 
15225000   -193376.56    1.7224104 0.00013059389    73.915254    63.805008     64.71755    25469.183 
15230000   -193666.86    1.7091788 0.0028132435    73.490442    63.800989    64.934602    25481.942 
15235000   -193998.14    1.7202296 0.0014801328    73.008818    63.836396    64.961606    25494.687 
15240000   -193430.13     1.684936 0.0011827059    73.810124    63.744719    64.783627    25507.506 
15245000   -193596.47    1.7305212 0.00017744775    72.817361    64.276987    64.618146    25520.295 
15250000   -193591.18    1.6718954 0.00055089574    72.501413    64.318179    64.774975    25533.077 
15255000   -193760.86    1.7306652 0.0046206906    72.037602    64.770366    64.611836      25545.9 
15260000   -193413.33    1.6603611 0.0057952359    72.614938      64.4406    64.981888    25558.705 
15265000   -193454.29    1.6916857 -0.0031140199    73.334478    64.352813    64.891628    25571.457 
15270000   -193380.99    1.7137641 -0.0015905392    72.826541    64.751205    64.698229    25584.249 
15275000   -193566.33    1.6818378 -0.00091810113     72.59658    64.983042    64.529573    25597.019 
15280000   -193261.41    1.7050114 -0.00039333244     72.85099    64.977285    64.705191    25609.804 
15285000   -193279.25    1.6711019 0.00069079001     72.11242    64.651602    65.298728    25622.549 
15290000   -193886.25    1.6750087 -0.00077011593    71.795317     65.08819    64.525541    25635.347 
15295000   -193820.12    1.6902053 0.00045232965    72.783604    64.898216    63.982955    25648.152 
15300000   -193635.07    1.6612761 0.0015193109    72.436304    64.877983    64.321497    25660.944 
15305000   -193561.24    1.6936602 0.0020116527    72.268359    64.972336    64.216972    25673.767 
15310000   -193334.91    1.6590394 -0.001470074    73.763854      64.1649    64.611118    25686.602 
15315000   -192986.92    1.7233539 -0.0022734594    74.294853    64.591597    64.421747    25699.357 
15320000    -193467.3    1.7027876 0.0070949985    73.449243    64.012332    64.657644    25712.056 
15325000   -193398.88    1.6770811 0.00073705534    73.381199    64.468397    64.471705    25724.806 
15330000   -193312.82    1.7262518 0.0038465452    73.682461    64.667434    64.177248    25737.594 
15335000    -192632.4    1.6991898 -0.0021760847    75.369052    64.806729    64.315941    25750.276 
15340000   -193057.49     1.707476 0.0022464983    74.018021    64.611715    64.304723    25763.024 
15345000   -193358.05    1.7154749  0.000292346     72.89498    64.440197    64.952921    25775.736 
15350000   -193424.98    1.6803039  0.004466024    72.830433    64.230592    64.936434    25788.468 
15355000   -193302.33    1.7137916 -0.00084244667    73.952965    65.036605    64.045509    25801.203 
15360000   -193313.44    1.7155929 0.0014052969    73.754426    64.930555     64.13645    25813.979 
15365000   -193476.34    1.7009932 -0.0018294671    72.881255    65.297534    64.262077    25826.778 
15370000   -193556.62    1.6976736 0.00022696997    72.613029    64.728473     64.66903    25839.597 
15375000    -193537.3    1.7557653 0.0039086011    72.685673    64.196348    64.619413    25852.375 
15380000   -193447.31    1.7147374 -0.0019781457    72.101477    64.713083    64.764142    25865.173 
15385000   -193817.83    1.7245878 0.0032176312    71.764958    65.033918    64.365754    25877.987 
15390000   -193389.75    1.7114779 -0.0015417639    72.879118    65.005898     64.40396    25890.856 
15395000   -193308.45    1.7087247 0.00012351868    73.182305    65.144431    64.318581    25903.639 
15400000   -193134.97    1.6892973 9.1361366e-05    73.841527    64.822967    64.453584    25916.366 
15405000   -193065.69    1.7073338 -0.0016617654    73.850184    64.851621    64.561438    25929.058 
15410000   -193079.77    1.6658729 0.00040560778    73.934168      64.7761     64.38134    25941.803 
15415000   -193227.95    1.7297098 0.0026936693    73.216073    64.476547    64.569885    25954.555 
15420000   -193037.42    1.6763602 -0.0035559678    74.024923    63.803909    65.149409    25967.269 
15425000   -193211.11     1.676812 4.2597331e-05    74.369981    63.236739    65.359349     25979.99 
15430000    -193246.1    1.6889734 0.0030147103    73.570639    63.317689    65.639693    25992.719 
15435000   -193513.83    1.7076702 -0.0011339615    73.212894    63.920371    65.097068    26005.535 
15440000   -193914.76    1.6971242 -0.0020772013    72.262203    64.479795    64.690135    26018.353 
15445000   -193206.58    1.6612253 -0.0026826737    73.252496    64.422214    64.818802     26031.15 
15450000   -193209.12     1.691125 -0.0010385947    73.324949    64.299821    64.932955    26043.962 
15455000   -193235.19    1.6701212 0.0032143328    73.595373    63.981935    64.851725    26056.713 
15460000   -193344.67    1.7257173 -7.1916731e-05    73.408144    64.518901    64.722746    26069.436 
15465000   -193324.97    1.7117551 0.00054607277     73.07471    64.572698    65.095248    26082.254 
15470000   -192813.22    1.7507994 0.0051228275    74.350398    64.569238     64.99442     26094.94 
15475000   -192852.22    1.7210597 -0.0014507651    74.913077    64.402301    64.885607    26107.625 
15480000   -192776.87    1.6796071 0.00070712586    73.954289     64.30279    65.107966    26120.319 
15485000   -193299.11    1.7360018 -0.00034394215    72.167872    64.978767    64.672994    26133.049 
15490000   -193165.02    1.6950221  0.002679894    73.407593    64.844997    64.356884    26145.795 
15495000   -192762.98    1.6493797 0.0021584213    74.742253    65.246372    64.145652    26158.495 
15500000   -192707.48    1.6498797 -0.0019610602    74.410537    64.492809    65.171383    26171.166 
15505000   -193133.51    1.6724085 0.0036221085    73.886228    64.294835    64.646524    26183.849 
15510000   -192933.17     1.720635 -0.0021106653    74.408992    64.137178    64.963212    26196.553 
15515000   -192797.76    1.7287886 -0.0020601855    74.827152    64.171438     64.78913     26209.31 
15520000   -192576.43    1.6861807 -0.00023919736     75.45674    64.311784    64.399486    26221.991 
15525000   -192876.74    1.7479422 -0.00093659205    74.887866    64.500653    64.485955    26234.719 
15530000   -193049.78    1.6525697 -0.0034188982    74.765046    64.626068    64.356428    26247.454 
15535000   -193238.28    1.7576641 0.0018858865    73.883713    64.284958    64.410451    26260.177 
15540000    -193593.1    1.6854682 0.00093086769    72.500906    64.461994    65.073779    26272.939 
15545000   -193539.43    1.6939172 0.0065585153    72.131899    64.434299    65.028928    26285.723 
15550000   -193104.66    1.7466789 -0.0025354528    73.769109    63.694889    65.727647    26298.481 
15555000   -193113.25    1.6719335 -0.0040030593    73.715487    64.040832    65.394688     26311.21 
15560000   -193630.29    1.6922602 0.0004644782    72.899437    64.638403    64.564495    26323.962 
15565000   -193440.75    1.6890944 0.0014086816    72.415547    65.365936     64.32473    26336.775 
15570000   -193495.52    1.7633929 0.0019056159    72.296867    64.722681    65.054351    26349.549 
15575000   -193244.01    1.7088977 0.00058307663    72.567387    64.628011    65.406165    26362.277 
15580000   -193564.48    1.7156521 -0.0011684334    73.073969    64.140789    65.317264    26375.018 
15585000   -193396.43    1.6753045 -0.0031459682    73.044807    64.254935    65.500315    26387.766 
15590000   -193317.32    1.7143697 -0.0030657602    72.742536    64.676625    65.003902    26400.522 
15595000   -193497.54    1.7057171  0.002002214    73.114115    64.344176    64.719899    26413.281 
15600000   -193491.78    1.7140401 0.0051592658     71.68053    64.260035     65.20019    26426.029 
15605000   -193626.59    1.6731407 0.00041466888    71.461981    64.317053    65.592059     26438.89 
15610000   -193486.91    1.6823247 -0.0015507006    72.339436    64.634545    65.157902    26451.699 
15615000   -193274.19    1.7043626 0.00086586779    72.660697    64.984046     64.84237    26464.482 
15620000   -193158.78     1.686755 0.00089323987    73.311639    64.894314    64.635502     26477.21 
15625000   -193425.27    1.7341718 -0.0032387538    71.976571    64.926986     65.09631    26489.969 
15630000   -193890.81    1.7266089 0.0017701722    71.292781    64.674545    64.905723    26502.782 
15635000   -193360.41    1.7474396 -0.0015332547    72.207646    64.705264    65.203317    26515.559 
15640000   -193480.48    1.7177564 -0.0029197173    72.286416    64.860621    64.901813    26528.366 
15645000   -193817.37    1.6749006  6.32647e-05    70.943169    65.348667    64.853416    26541.177 
15650000   -193675.94    1.7937103 -0.00059600178    71.585548    64.775333    65.163351    26554.029 
15655000    -193832.9    1.6708408 0.0046779506    71.239845    64.725921    65.007863    26566.821 
15660000   -193544.22      1.70767 -0.0014019861    71.948487    64.855072    65.031493    26579.615 
15665000   -193545.27    1.6884483 -0.00041982874    72.455445    65.043703    64.644862    26592.423 
15670000   -193462.91    1.7173691 0.0039114874     73.04092    64.280866    64.616234    26605.209 
15675000   -193771.93    1.6939682 0.0045940598    71.435035    64.921394    64.339049    26617.983 
15680000   -193740.34    1.6504328 -0.00083088683    72.209492    64.252369    65.041849    26630.788 
15685000   -193432.81    1.6625534 0.0025781671    72.889457    64.159971    65.186378    26643.562 
15690000    -193077.3    1.6768104 -0.0012148713    73.636582    64.038303    65.274094    26656.317 
15695000   -193426.76    1.6862726 0.0010813897    73.028367    64.103973    65.018284     26669.07 
15700000   -193430.97    1.7054719 -0.0025867026    73.985088    64.448428    64.676466    26681.777 
15705000   -193232.92    1.7553395 -0.0017234461    73.341987    64.590249    64.803177    26694.489 
15710000   -193246.96    1.7360875 -0.0017119055    73.593644    64.259075    65.026992    26707.223 
15715000   -193334.99    1.7283689 -0.00072747769    73.288647    64.285353     65.11242     26719.95 
15720000   -192836.64    1.6947787 -0.0056007642    74.467961    64.082568    65.311315    26732.655 
15725000   -192801.37     1.713516 -0.0015579963    73.495759    63.526734      65.8778    26745.336 
15730000   -193195.35    1.7165947 0.0016110132    72.502357    63.674668    65.666554    26758.121 
15735000   -193266.32    1.6819071 -0.0014831604    73.523729    63.868997     65.28041    26770.832 
15740000   -193354.17     1.716629   0.00114521    73.497493    64.131204    65.293776     26783.58 
15745000   -193303.61      1.70493 0.0016550494    73.378165    63.907981    65.527322    26796.293 
15750000   -193532.15    1.6705945 -0.0024742314    72.657087    64.423968    65.495626     26809.01 
15755000   -193464.63    1.6840687 -0.00092634915    72.425485    64.557792    65.389389    26821.774 
15760000    -193806.5    1.6828249 0.00047987657    71.138184    64.358574    65.564359    26834.516 
15765000   -193650.12     1.691797 -0.00086579368     71.66423    64.304344    65.325938    26847.338 
15770000   -193914.61    1.7200654 0.00051535564    71.664765    64.158957    65.062998    26860.216 
15775000   -193666.99    1.7575158 -0.0014968583    71.986428    64.342285    65.384942    26873.067 
15780000   -193548.85    1.6603511 0.00023446783    72.564938     64.64939     64.90468    26885.837 
15785000    -193656.4    1.7103125 -0.0023963821    72.186296    64.799067    64.964626     26898.65 
15790000   -193592.16     1.714063 0.0014871928    71.896327    64.517014    65.180917    26911.466 
15795000   -193656.41    1.6790409 0.0018557216    72.563322    63.941269    65.109321     26924.28 
15800000   -193228.24    1.7008508 -0.0045742038    73.505704    64.218238    65.157203    26937.034 
15805000    -193251.4    1.7199683 0.0014156433    72.799598    63.944722    65.284003    26949.803 
15810000   -193354.17    1.6957856 -0.00038450524    72.540189    64.644872     64.75926    26962.631 
15815000   -193147.83    1.7179623 0.0018074871    72.927428    64.587604    64.849206    26975.415 
15820000   -193352.41    1.6489719 0.0041650823    72.701316    64.806514    64.693168    26988.157 
15825000   -193447.72    1.7158841 0.00073727352    72.954111    65.478868    64.105401    27000.874 
15830000    -193435.2    1.6741193 0.00096400988    72.367559    65.477852    64.270264    27013.669 
15835000   -193381.66    1.7404448 -0.00031294529    72.705731    65.181965    63.996758     27026.47 
15840000   -193841.91    1.6792538 0.00065649125    72.361244     64.28129    64.372114    27039.341 
15845000   -193685.74    1.6739581 -0.001891649    73.347876    64.260434    64.604164    27052.133 
15850000   -193167.23    1.7410196 -0.0045728609    73.473133    64.828291    64.639923    27064.869 
15855000   -193259.79    1.6695454 0.0011819777    73.087583    64.888181    64.441123    27077.619 
15860000   -193163.21    1.7073558 -0.0020599296    73.069925    64.752873    64.727263    27090.349 
15865000   -193855.16     1.671246 -0.001076729    72.247155    64.869315    64.347188    27103.175 
15870000   -193816.22    1.6896121 -0.0021628217    72.549161    64.612811    64.752683    27115.996 
15875000   -193398.67    1.7264316 -0.00068790468    73.791241     64.76228    64.281803    27128.768 
15880000   -193125.42    1.6709517 -0.0032997938    73.995474    64.307776    64.725995    27141.498 
15885000   -193268.38    1.6868888 -0.0012602274    72.651008    64.732375    64.936238     27154.24 
15890000   -193268.72     1.735397 -9.8502483e-06    73.168368     64.66506    64.829638    27167.013 
15895000   -193766.95    1.7207975 0.0053557375    72.890942    64.577529    64.194038    27179.727 
15900000   -193718.99    1.7341332 0.0010486841    73.021947    64.587329    64.615985    27192.541 
15905000   -193819.34    1.6420977 0.0019098559    73.049298     64.24723    64.967345    27205.311 
15910000   -193526.09    1.6974364 0.0020774657    72.354618    64.877959    64.778179    27218.038 
15915000    -193860.7    1.6944913 -0.0033706345    71.758504    65.311555       64.535    27230.857 
15920000   -193756.92      1.71681 -0.0014429602     73.26365    64.629689    64.250587    27243.643 
15925000   -193904.65    1.6937451 0.0018633397    72.432501    64.491811     64.33138     27256.45 
15930000   -193873.11    1.7229066 -0.0037552837    71.919843    64.926021    64.516896    27269.275 
15935000    -193877.9    1.7378126 -0.0010494092    71.421214     64.72754    64.750056    27282.092 
15940000   -193293.95     1.634047 -0.0041176969    73.024359    64.181567    65.441611    27294.906 
15945000   -193530.44    1.7299495 0.0023290108    72.457442    64.172451    65.192148     27307.66 
15950000   -193994.18    1.6397276 -0.0052264646    71.211307    65.129522    64.649598    27320.431 
15955000    -193705.2    1.6558351 -0.00055413961    70.884907    65.124814    64.589104    27333.263 
15960000   -193932.96    1.6728092 -0.0009913659    71.589737    64.927305    64.330627    27346.138 
15965000   -193697.56    1.7021789 0.00091303303     71.68202    65.312758     64.17243    27358.982 
15970000   -193435.03    1.6656431 -0.0042791624    72.587396    65.119516    64.693285    27371.811 
15975000   -193495.14    1.6963492 0.0016852192    72.801541    64.822638    64.436884     27384.59 
15980000   -194041.59    1.6796371 -0.0044199719     72.09122    64.714085    64.739312     27397.37 
15985000   -194180.57    1.6898268 3.980535e-05    72.037253    64.809938    64.156983    27410.182 
15990000   -193580.11    1.7135283 0.00099035121    71.827451    65.161383     64.38976    27422.967 
15995000   -193539.48    1.6973912 -0.0025142569    73.239967    65.494351    63.790178    27435.789 
16000000   -193736.05    1.6890184 0.0029540912    72.251712     65.32309    63.971206    27448.565 
16005000   -193470.67    1.7379244 -0.0024585787    72.683895    65.060023    64.479743    27461.325 
16010000   -193348.63    1.6995559 -0.0048236517    73.606018    64.502536    64.652077    27474.081 
16015000   -193431.09    1.7443047 0.0035991503    73.494012    64.624268    64.433116    27486.793 
16020000    -193495.5    1.6619261 -0.00064340704     72.77144    65.020955    64.500866    27499.538 
16025000   -193817.54    1.6605645 0.0018879005    72.345043    65.078465     64.33546    27512.301 
16030000   -193756.08    1.6800848 0.00088549005    72.677304    65.316434     64.30374    27525.026 
16035000   -193567.51    1.6975424 0.0016637716     72.40248    65.320851    64.221549    27537.758 
16040000   -193636.97    1.7162295 -0.0028216728    72.290515    65.032705    64.532406     27550.53 
16045000    -193543.5    1.7264697 -4.7030344e-05    72.318232    64.662963    64.878503    27563.335 
16050000   -193629.76    1.6773364 0.0014885715    72.288346    64.090655    65.168177    27576.135 
16055000   -193713.55    1.7699957 0.0019865384    72.516432    64.278831    64.548743    27588.953 
16060000   -193752.35    1.7132158 -0.0017781296    72.424264    64.570628    64.815564    27601.727 
16065000    -193529.5     1.702948 0.00063530007    72.985461    64.575135    64.662711    27614.511 
16070000   -193652.87    1.7045606 -0.0030142168    72.904517    64.532667    64.760684    27627.269 
16075000   -193869.15    1.7024112 -0.0003454618    72.554792    64.279992    64.534884    27640.025 
16080000   -193799.39     1.726952 -0.0010962364    71.659371    64.786059     64.72931    27652.818 
16085000   -194063.31    1.7098447 -0.0012605578    71.864774      64.2802    64.792599    27665.708 
16090000   -194016.66    1.6692478 -0.00078749303    71.932746    64.084551    64.884933    27678.519 
16095000   -193740.79    1.6702542 -0.002458087      72.5836    64.464564    64.557687    27691.336 
16100000   -193730.26    1.7213472 0.0027461152    72.712075    64.817027     63.99915    27704.113 
16105000   -193712.16    1.6913613 0.00013504563    72.176517    64.912548    64.469643    27716.913 
16110000   -193919.28    1.6361602 -0.0046355506    72.124141    64.966014    64.556503    27729.717 
16115000   -193699.59    1.6956146 -2.1885738e-05    72.245787    65.012307    64.540432    27742.499 
16120000   -193560.93    1.7266402 -0.0019312019    72.267356    64.721083    64.906511    27755.316 
16125000   -193876.83    1.6791982 0.0028357565    71.707239    64.501673    64.871768    27768.121 
16130000    -193724.8     1.700922 -0.0022028907    71.455684    64.401364    65.090601     27780.94 
16135000   -193519.41    1.7301402 0.00098139155    72.981407     64.84485    63.990736    27793.755 
16140000   -193037.29    1.7150609 -0.0015233526    73.762359    64.501727    64.678681    27806.483 
16145000   -193366.84    1.6899832 -0.0011440799    73.279424    64.365598     64.69748    27819.215 
16150000   -192940.09    1.6997463 -0.0054616655    73.475556    64.567522    65.261697    27831.938 
16155000   -193297.55    1.7017464 -0.0021725432    72.332435    65.233976    64.663655    27844.668 
16160000   -193268.22    1.7043476 -0.00070056647    72.384403    65.214839    64.761741    27857.404 
16165000    -193814.9    1.6490625 -0.0028957849    71.351958    65.527446    64.267911    27870.171 
16170000   -193638.26    1.7364914 0.0019463562    71.465618    65.040719     64.85013    27883.006 
16175000   -193161.42    1.6991808 0.0006106636    72.597705    64.698436    64.912817    27895.826 
16180000   -193675.07    1.7297384 0.0017231954     72.07632    63.964197    65.229155    27908.619 
16185000   -193578.37    1.7153738 -0.00035194092    72.213998    64.503351    64.827389    27921.406 
16190000   -193763.82     1.665421 0.00085555873    71.886371    64.567371     64.60627    27934.226 
16195000   -193661.56    1.7639813 0.0024705705    71.792091    64.647982    64.626968    27947.033 
16200000   -194025.97    1.7017736 0.0010948972     70.88246    65.073309     64.33236    27959.882 
16205000   -193581.67    1.7090878 -0.0018021182    72.378057     64.59154    65.061067    27972.685 
16210000   -193982.56    1.6305909 0.0016132665    73.078432    63.806618    64.957256    27985.468 
16215000   -193668.72    1.6824285 -0.00083085589    72.056347    63.941021    65.506468    27998.264 
16220000   -193927.88    1.6932917 0.00071819596    71.761707    64.108184    65.330298    28011.136 
16225000   -193743.45    1.6599948 0.0013795542    72.933602    64.502896     64.84595    28023.919 
16230000   -193785.67    1.6415956 0.0013499291    71.788758    65.342376    64.352581    28036.671 
16235000   -193708.78    1.7265086 0.0018703122    71.191311    65.363394    64.497753    28049.501 
16240000   -193498.93    1.6879468 -0.0014617579    72.355562    65.044252    64.369083    28062.303 
16245000   -193641.35    1.7106982 0.00074126786    73.207554    64.422531    64.577567    28075.084 
16250000   -193747.87    1.7070537 -0.00090861064    73.448496    64.452522    64.733895      28087.9 
16255000    -193996.3    1.7033946 0.0018184302    72.383382     64.58675    64.797333     28100.69 
16260000   -193818.63    1.7020367 0.0015801135    71.926261    64.971323    64.377587    28113.476 
16265000   -193753.59    1.6953958 -0.00047294364    71.999558     65.43708    64.207085     28126.27 
16270000   -193671.26    1.6625354 0.00046342414    72.910987    65.026759    64.042257    28139.077 
16275000   -193517.62    1.6639195 -0.00092387493    72.530708    65.141429    64.244628     28151.86 
16280000   -193887.08    1.7016644 -0.00068902093    71.748662    65.065355    64.415281    28164.631 
16285000   -193924.81    1.7192765 0.0017122528    71.801072    65.026763    64.224272    28177.443 
16290000   -193535.38    1.7133786 -0.0018208077    73.266961    64.306664    64.780722    28190.227 
16295000   -193551.91     1.673059 -0.0032713206    72.918731    64.655177    64.686205    28202.968 
16300000   -193809.82    1.7496635 0.0038531099    72.355303    64.689425    64.388484    28215.791 
16305000   -193529.28    1.6846706 -0.0057837493    71.812352    65.283393    64.623096    28228.584 
16310000   -193719.73    1.6827274 4.7970429e-06    71.958443    65.020367    64.381856    28241.395 
16315000   -193395.43    1.6620874 -0.00057220874    73.696296    65.077876    64.036303    28254.196 
16320000    -193343.4    1.7436392 0.0046571128    73.310648    64.769561    64.219321    28266.932 
16325000   -193707.38    1.6629264  0.003093469    72.535759    64.507584    64.324485    28279.712 
16330000   -193160.33    1.7287497 9.7981456e-05    73.233551    64.688412    64.748859    28292.465 
16335000   -193188.42    1.7150035 7.6520564e-05    73.428833    64.979563    64.664523    28305.227 
16340000    -193176.2    1.7143654 -0.00020485743    73.933894    64.609655    64.503201    28318.008 
16345000   -193148.78    1.7043426 0.00030526855    73.704121    64.567729    64.619528     28330.73 
16350000   -193275.81      1.72126 -0.0030985778     73.46936    64.833217    64.304239    28343.449 
16355000   -193893.63    1.7083498 -0.00034542118    73.169317    64.333781    64.239958    28356.174 
16360000   -193927.77      1.70158 -0.00016092158    71.983837    64.656158    64.662114    28368.955 
16365000   -193919.72    1.7258874 -0.00095681149    72.610311    64.967944    64.224926    28381.779 
16370000   -193093.93    1.6719776 -0.0036587105    73.724302    65.264029    64.079078    28394.531 
16375000   -193384.57    1.6970673 0.0013500337    73.545159    65.385352    63.589757    28407.277 
16380000    -193290.1    1.6848617 0.0004264294    73.837192    65.550739    63.589288    28420.025 
16385000   -193567.69    1.6904364 -0.001487923    72.681548    64.785729    64.268301    28432.771 
16390000   -193682.42    1.6882795  0.003276519    72.450487    64.320539    64.683594    28445.624 
16395000    -193643.7    1.6952552 -0.0039899822    73.022061    63.988421    65.306267    28458.394 
16400000    -193219.8    1.6722789 2.6048906e-05    73.653931    63.819664    65.105137    28471.147 
16405000   -193351.08    1.7110969 0.0031816688    72.627275      64.3498    64.716314    28483.893 
16410000   -193434.92    1.6645558 -0.0068854788    72.792525    64.868829    64.587862    28496.695 
16415000   -193660.69    1.7130146 -0.00078794134    72.432904    64.901869    64.684941    28509.522 
16420000   -193359.98    1.6698681 0.0015997861    73.568065    64.867532     64.36324    28522.287 
16425000    -193321.4    1.7818401 -6.5928699e-05    73.434361     64.55541    64.780786     28534.98 
16430000   -193478.84    1.7486555 -0.0021066114    73.194936    64.443571    64.756177    28547.699 
16435000   -193413.04    1.7147247 -0.0018923203    73.610886    64.876349    64.082211    28560.491 
16440000   -193013.42    1.7526576 0.0006412239    73.868546    64.545127    64.477412    28573.246 
16445000   -193066.23    1.6901418 -0.0019135723    73.673789     64.80379    64.566988    28585.983 
16450000   -193062.88    1.7300517 -0.0035223336    73.947337    64.353232     64.90796    28598.702 
16455000   -193463.07    1.7031377 -0.0011996776    72.193053    64.737648    65.206041    28611.472 
16460000   -193271.19     1.687866 0.00097209879    72.203684    64.759159     65.36217    28624.238 
16465000   -193163.73     1.708491 -0.00052639991    72.776665    64.590639    65.115663    28636.991 
16470000   -193157.22    1.6929467 -0.0021204944    72.526548    64.763526    64.798631    28649.731 
16475000   -193039.07    1.7023478 -0.0046637739    72.947075    64.462519    65.235422    28662.549 
16480000   -192982.75    1.7184596 -0.0011773742    74.495287     64.17514    64.616009    28675.275 
16485000   -193097.48    1.6404765 0.0024475491    73.932105    64.235432    64.828869    28687.971 
16490000   -193248.64    1.7106967 -0.00099069114    73.390041    64.096336     65.39215    28700.677 
16495000   -193773.64    1.6813271 0.0011322747    72.451861    64.215822    65.022458    28713.482 
16500000   -193421.75    1.7056222 0.00063601738    73.328654    64.117404    65.067701    28726.233 
16505000   -193450.35    1.6605784 3.7215276e-05    73.017538     64.35708     64.74063    28738.989 
16510000   -193612.34     1.682803 -0.00063299774    73.464824    64.484943     64.33323    28751.735 
16515000   -193414.69    1.6955039 -0.0014565573    72.200202    64.956989    64.674522    28764.535 
16520000   -193776.09    1.7069481 0.0004492744    72.110404    64.710431    64.529143    28777.374 
16525000   -193946.01    1.6850963 0.0022947155    72.374215    64.398011    64.432074    28790.251 
16530000   -193564.44    1.7275065 -0.00072171005    72.680422     64.80537    64.537772    28803.075 
16535000   -193732.21    1.6630356 -0.0065036426    72.434502    65.332594    64.170295    28815.852 
16540000   -194017.12    1.7269132 0.00093905106    71.661385    65.357867    64.257073    28828.677 
16545000   -193750.31    1.7002062 -0.0022371342    72.468479    64.855233     64.05232    28841.455 
16550000    -193723.6    1.6563368  0.003495572    71.942226    64.606125    64.355504    28854.258 
16555000   -193786.54    1.6931961 -0.0028963517    71.789489    65.020955    64.244245    28867.136 
16560000   -193951.12     1.655186 0.0012951923    71.632344    65.013357    64.180404    28879.978 
16565000   -193443.58    1.7301315 -0.0010413209    72.659211    65.108765    64.544057    28892.773 
16570000   -193597.47    1.7148762 0.0018138585    71.670487    64.848187    64.969134    28905.586 
16575000    -193321.9    1.7320874 -0.00042624702    72.711921    64.727433    64.724673    28918.336 
16580000   -193704.81    1.7095154 0.0013703096    72.426168    64.814543    64.560354    28931.079 
16585000   -193523.61    1.7355047 -0.00068741387     72.26058    64.830161    64.890477    28943.855 
16590000   -193838.11    1.7009164 0.0025603594    71.775691    64.687868    64.796934    28956.637 
16595000   -194042.46    1.7259812 0.00053094775    72.442828    64.675172    64.267511    28969.457 
16600000    -193818.9    1.6800029 -0.00029140269    72.462503    65.028181    63.963671    28982.276 
16605000   -193760.58    1.7313142 0.00023423108    72.073881    64.499334    64.775515    28995.121 
16610000   -193961.88    1.7120771 -6.1476328e-05    71.963717    64.961126    64.370679    29007.974 
16615000   -193657.45    1.6519866 -0.00088460539     72.48215    64.767723     64.62978    29020.832 
16620000   -193301.21    1.6972446 -0.0013222599    73.709757    64.759048    64.207263    29033.614 
16625000   -193091.73    1.6774224 -0.0030236109    72.678195    64.994803    64.546206    29046.399 
16630000   -193590.32    1.6861664 0.0015010783    72.002458    65.143451    64.086198     29059.19 
16635000   -193393.58    1.6723862 -0.00027265483    72.971275    65.032756    64.010956    29072.011 
16640000   -193357.63     1.684864 0.0015184516    73.429104     65.04269    63.841425    29084.792 
16645000   -193440.76    1.7486297 0.0039590906    73.629747    64.577136    64.160638    29097.568 
16650000   -193822.17    1.7272922 -0.0077609927    71.872763    64.577178    65.108618    29110.327 
16655000   -193976.08    1.7290499 -0.00060806066    71.560486    64.701566    64.425371    29123.174 
16660000   -193536.83    1.7029423 -0.0019350432    72.447744    64.688616    64.796755    29135.986 
16665000   -193433.44     1.661628 -0.0035881488    73.264398    64.297118    64.756897    29148.783 
16670000   -193542.15    1.6918049 -0.0060028321    73.109716    64.832888    64.392057    29161.559 
16675000   -193599.91    1.7425697 -0.00094528837    72.400658     64.78562    64.484471    29174.355 
16680000   -193361.94    1.7386118 0.0052661534    72.384796    64.786509     64.31353     29187.15 
16685000   -193477.53    1.6823583 -0.0012133129     72.28671    65.313563     64.24449    29199.972 
16690000   -193525.34    1.6833263 0.0012403536    72.841153    65.488488    63.729068      29212.8 
16695000   -193803.28    1.7193756 0.0022722428    72.332863    64.809672    64.287519     29225.54 
16700000   -194037.23    1.6843377 -0.0021927304    71.485194    65.120074    64.338948     29238.38 
16705000   -193692.81    1.6934663 -0.0019759709     72.34071     64.73931    64.531209    29251.212 
16710000   -193683.17    1.6839216 0.0036268454    72.686099    64.605605    64.294465    29264.057 
16715000   -193700.77     1.667771 -0.00043191055    71.908121    64.809695    64.888916    29276.869 
16720000   -193537.25    1.7421902 -0.0015476164    72.607682      64.9386     64.88978    29289.662 
16725000   -193486.98    1.7199621 0.00089891516    72.722082    64.347625    65.171188    29302.434 
16730000   -194033.07    1.7017776 -0.00028364376    70.756862    64.872487     65.01891    29315.286 
16735000   -193662.59    1.7428276 0.00094149226    72.002285    64.857932    64.494844    29328.125 
16740000   -193424.05     1.724587 -0.00092289794    72.467177    64.985492     64.39815    29340.972 
16745000    -193365.8     1.732099 0.0037364933    73.064618    64.889188    64.102917    29353.747 
16750000   -193550.45    1.6869435 0.00086553081    73.643714    64.337019    64.302809    29366.514 
16755000   -193750.48    1.7081306  0.003805009    72.920283    64.129528    64.589914    29379.272 
16760000   -193831.28    1.6656274 -0.00079958591    72.224789    64.602163    64.654727    29392.038 
16765000   -193815.04     1.743638 0.00023545372    72.543984    64.881682    64.212124    29404.811 
16770000   -193531.94    1.6790654 -0.0018762376    73.302834    64.563265    64.472015    29417.571 
16775000   -193457.14     1.661754 0.00023542367    72.545335    64.711975    64.802391    29430.389 
16780000   -193082.44     1.670056 0.00011463271     74.10009     64.39014     64.66774    29443.147 
16785000   -192620.39    1.6599653 0.0022840085    73.953116      64.9803    64.598125    29455.832 
16790000   -193344.36    1.6861023 -0.0010286432    72.251235    64.586735    65.010153    29468.548 
16795000   -193168.89    1.7104321 -0.0015988948    72.230956    65.109208    64.527255    29481.335 
16800000   -193462.33    1.7217057 -0.00016865509    71.670431    65.077907    65.028603    29494.146 
16805000   -193396.68    1.6817842 0.0032491904    72.712034    64.835332    64.814569    29506.984 
16810000   -193457.31    1.7404633 -0.0027121033    72.919957    64.597464    65.112622    29519.753 
16815000   -193313.88    1.7344839 -0.00078189036    73.204415    64.132868    65.017985    29532.514 
16820000   -193642.66    1.6683037 0.0003874535    72.387574    64.387536    64.817401    29545.316 
16825000   -193412.04    1.6870351 -0.0036102421    72.667745    64.808713    64.816674    29558.095 
16830000   -193603.83    1.7029281 -0.0012759721    72.320477    64.353563    65.085557    29570.849 
16835000   -193567.47    1.6825674 -0.0052487863    73.027258    64.098495    65.332373    29583.633 
16840000   -193146.35    1.7451769 0.0013862752    74.164645    64.145972    64.908135    29596.346 
16845000   -193412.39    1.6966795 0.0059860592    72.809649    64.093962    64.871284    29609.115 
16850000    -193704.3    1.7221502 0.00046415168     71.67625    63.992715    65.517563    29621.909 
16855000   -193388.61    1.7706928 0.00053301593    72.725287    64.330406    64.942614    29634.707 
16860000   -193378.41    1.7051588 -0.0014145355     72.86366    64.449284    64.705702    29647.524 
16865000   -193691.26    1.6876601 -0.0043083264    71.723748     64.48281    65.159014    29660.329 
16870000   -193418.69    1.6925595 0.0012468471    72.416992     64.61873    65.193099     29673.12 
16875000   -193509.24    1.6891839 0.0021132978     72.28448    65.119612    64.557787    29685.925 
16880000   -193501.85    1.7367521 0.0014131063    73.073272    64.602024    64.568759    29698.742 
16885000   -193358.18    1.7288827 0.00032047116    72.194461    64.375044    65.260096    29711.528 
16890000   -193436.77    1.7548621 0.0042771689    72.351613    64.316625    65.322647     29724.35 
16895000   -193524.66    1.6917404 0.0013350624     71.97928    64.654154    65.054697    29737.077 
16900000   -193889.14    1.7238434 0.00015625157    72.511649    64.513345    64.507563    29749.899 
16905000   -193403.89    1.6977684 -0.0020882004    73.287247    65.431053    63.871818    29762.658 
16910000   -193420.29    1.6748196 0.0012478094     72.96571      65.0622    64.130949    29775.438 
16915000   -193642.37    1.6894016 -0.00099853755    72.834156    64.925622    64.460431    29788.185 
16920000   -192967.77    1.7352017 0.0049884266    73.574226    64.291051    64.818153     29800.93 
16925000    -193035.7    1.6587825 0.0012078335    73.881487    64.175266    65.001973    29813.646 
16930000   -193355.51    1.7197248 -0.0019720051    73.557226    64.839245    64.599326    29826.385 
16935000   -193368.15     1.670739 -0.0011469737    74.014189    64.560569    64.649774      29839.1 
16940000   -192907.55    1.6898012 0.0018572671    74.153437    65.204358    63.939143    29851.808 
16945000   -193189.98     1.743613 -0.00056982327    72.990328    65.276003    64.101313    29864.532 
16950000   -193636.61    1.7130884 0.0029635709    72.526299    65.052011    64.011297    29877.302 
16955000      -193310    1.7163152 0.0020711973    72.713104    64.854514    64.577348    29890.072 
16960000   -193447.22    1.7048827 -0.00017971206    72.555932    64.773595    64.666929    29902.865 
16965000   -193336.95    1.7227881 0.0052899032    72.403964    65.357583    64.386405     29915.66 
16970000   -193277.17    1.6863244 0.0010521996    73.036549    64.862186    64.559605    29928.405 
16975000   -193160.83    1.6907065 0.00091120238    73.403451    64.214642    64.716105     29941.19 
16980000   -193628.93    1.7059444 -0.0025122174     72.17157     64.39477    64.896411    29953.943 
16985000   -193769.03    1.7059247 -0.0021983454    72.064133    64.800123    64.719608    29966.773 
16990000   -193907.13    1.6688555 0.0023612524     72.23836     64.59748    64.555615    29979.611 
16995000   -193320.59    1.7375609 -0.0027609277     74.12177     63.78887    64.987687    29992.421 
17000000   -193456.54    1.6491287 0.00077933808    73.481227    64.242114    64.609457    30005.128 
17005000   -193644.55    1.6749334 0.0022707298    72.527789    64.298801    65.132087    30017.924 
17010000      -193657    1.6892001 -0.0003452269    72.623141    64.516396    64.783829    30030.697 
17015000   -193841.77    1.6774415 -0.00046323804    71.644454    64.357509    64.966582    30043.485 
17020000   -193875.25    1.6948798 -0.0020171206    71.714317    64.316758    65.244828    30056.396 
17025000   -193745.32    1.6892878 0.00034250908    71.618252    64.588171    65.236661    30069.195 
17030000   -193426.38    1.6562605 -0.0020130099     73.48747     64.55686    64.469506    30082.026 
17035000   -193499.03     1.705961 -0.00052803653     72.72132     64.29716    64.900777    30094.834 
17040000   -193935.88    1.6376451 -0.0017718008    71.837334     64.30354      65.1174    30107.666 
17045000   -193806.73    1.7058834 0.00014771438     72.61988    64.155336    65.199167    30120.463 
17050000   -193913.15    1.7157895 -0.001757023    72.180757    63.824542    65.712118    30133.263 
17055000   -193437.68    1.6843605 -0.0014643676    72.867269    64.395697    65.266713    30146.107 
17060000   -193309.65    1.6764255 -0.0023666288    73.150775    64.015102    65.054181    30158.909 
17065000    -193842.6    1.6416508 -0.0018485419    71.350272       64.912    64.560418    30171.708 
17070000   -193888.65    1.6647754 -0.0033681146    71.395573    64.812987    64.848672    30184.559 
17075000   -193873.98    1.6704766 0.0010901181    71.373114    64.834881    64.781237    30197.377 
17080000   -193739.94    1.7236117 -0.0012911276    71.227596    64.822862     64.89145    30210.239 
17085000   -193676.26    1.6814536 0.0015262396    71.319265    64.549044    65.129043    30223.102 
17090000   -193538.89    1.7141815 -0.0020839992     72.25933    64.407594    65.235975    30235.927 
17095000   -193868.98    1.7222861 -0.0029699552    72.049971     64.71436    65.130451    30248.707 
17100000   -193852.75     1.717036 0.0049136359    71.707462    65.160023    64.506668    30261.528 
17105000   -193666.84    1.6534334 -1.737063e-05    73.126413    65.007066    64.316777    30274.271 
17110000   -193473.39      1.61943 0.00024294042    72.252555    65.597104    63.725769    30287.031 
17115000   -193756.82    1.6911756 -0.001007853    70.942195    64.846793    64.883408    30299.873 
17120000    -193848.4    1.7009572 0.0012964741    71.406804    64.458484    65.230826    30312.724 
17125000   -193994.08    1.7025358 0.0018618144    71.070591     64.18467    65.609798    30325.533 
17130000   -193566.14    1.6934263 0.0047648642    72.265105    64.135141    65.305029    30338.355 
17135000   -193231.36     1.689301 -0.0025435022    72.730494     64.85251    64.735983    30351.105 
17140000   -193546.65     1.681703 0.00043332366    71.177314    65.619293    64.486503    30363.886 
17145000   -193438.18    1.6997414 -0.00016761346    72.363615    65.205097    64.283318    30376.721 
17150000   -193336.01    1.6704793 0.0025166304    73.377365    64.365752    64.467524    30389.495 
17155000   -193711.74    1.7267179 0.0014751085    71.851055    64.268295     65.11917    30402.295 
17160000   -193740.21    1.7111173  0.003240821    72.209649    63.911276    65.184138    30415.073 
17165000   -193605.04    1.7159703 0.0005919602    71.916316    64.142916    65.679963    30427.895 
17170000   -194026.98    1.6377015 -0.001147839      71.3724    64.836415    64.818187    30440.703 
17175000   -193733.14      1.72865 -0.0030571241    71.221736     64.88943    64.922949    30453.562 
17180000   -193487.77    1.6905654 0.0021297188     71.33359    64.898801      64.7032    30466.398 
17185000   -193789.96    1.7111472 -0.0035111644    71.632468    64.582437    64.739949    30479.223 
17190000   -194056.08    1.6615789 -0.0035729737    71.722894    64.854047    64.931565    30492.135 
17195000   -193424.15    1.7016517 -0.00066457413    72.623245     64.36421    65.458021    30504.952 
17200000   -193528.93    1.6690679  0.001496198    72.438202     63.93019    65.529418    30517.705 
17205000   -193551.22    1.6639795 0.0015841665    71.057635    64.598328    65.173513    30530.469 
17210000   -193442.54    1.6999378 0.00020646214    71.330373    65.197547    64.572765    30543.293 
17215000   -193748.75    1.6649311 -0.0017280309    72.298745     64.61848    64.586156    30556.116 
17220000   -194019.86    1.7096406 0.00081572233    72.557006    64.024159    64.589337    30568.896 
17225000   -194041.22    1.7238474 -0.0010833073    71.875123    63.408533    65.711285    30581.729 
17230000    -193792.2    1.7489893 0.0006507534    73.364464    62.882048    65.795101    30594.524 
17235000   -193729.79    1.7099362 0.0015203207    73.406567    62.984389    65.482061    30607.249 
17240000   -193575.03    1.6980089 -0.00023340536    73.061388    63.606879    65.150578    30620.011 
17245000   -193363.75    1.7477815 0.00043536791    73.819278    64.070915       64.972    30632.774 
17250000   -193338.25    1.6892179 -0.0017188218    73.298439    64.423307    64.921563    30645.536 
17255000   -193681.28    1.6898819 -0.0017881387    71.788242    64.531205    65.135082    30658.306 
17260000    -193155.1     1.743816 0.0020173226     73.59315    64.296256    64.951628    30671.055 
17265000   -193470.42    1.6641003 0.00077590206    73.269291    63.946734    64.871663    30683.741 
17270000   -193327.57    1.6920798 -0.00078643591    73.455941     64.40049    64.747285    30696.483 
17275000   -193097.84    1.7501056 0.0005251153    73.932699    64.030934    64.980875    30709.178 
17280000   -193216.84    1.7266558 0.00087894149    73.414633    63.932577    65.183296    30721.904 
17285000   -193485.62    1.6947699 0.00050201271    72.842581    63.803671    65.346649    30734.621 
17290000   -193043.98    1.7134904 -0.00010327367    74.300278    63.842029    65.316988    30747.347 
17295000   -193031.54    1.6778032 0.0035393555    74.150811    63.882124    65.181931    30759.961 
17300000   -193203.38    1.6750546 -0.0020620077    73.942341    64.196862    64.596516    30772.618 
17305000   -193033.69    1.6860107 -0.0016559746    73.512783    64.639239    64.477365    30785.298 
17310000   -193018.37    1.7047145 0.00064599715    73.313128    64.322971    64.575989    30798.006 
17315000   -193555.51    1.7555005 -0.0013758198    71.985697    64.249707    64.864706    30810.788 
17320000   -193831.62     1.676764 0.0017998151    71.876402    63.990524    64.908337    30823.604 
17325000   -193667.08    1.6930916 0.0024589426    73.313367    64.153724    64.545907    30836.371 
17330000   -193611.34    1.6744679 0.0011331609    74.263334    64.177678    64.693747    30849.106 
17335000   -193529.88    1.7020775 -0.001379473    73.718641    64.027872    64.769105    30861.789 
17340000   -193767.46    1.6807982 0.0028849168    72.801552     64.67792    64.232371    30874.518 
17345000    -193529.8    1.7206598  0.001221375    73.174585    64.383031    64.650672    30887.327 
17350000   -193019.34    1.6812899 -0.0039828842    74.595822    64.555861    64.763306    30900.088 
17355000   -193253.79    1.7018889 -0.001383111     73.31707     64.74105    64.638921    30912.811 
17360000   -193597.16    1.6960002 0.0029317591    72.750053    64.513494    64.689293    30925.529 
17365000   -193483.02    1.7108585 -1.2108976e-06    73.883564    64.863481    63.810305    30938.318 
17370000      -193286    1.7055462 0.0035345174    73.555982    64.894591    64.077276    30951.041 
17375000   -193596.23    1.6929192 -0.0036091008    72.912675    64.931814    63.836907    30963.774 
17380000   -193648.95    1.6920197 0.0028698667    72.561643    64.840289    64.115493    30976.619 
17385000    -193480.7    1.7088361 0.0012312094     73.50756    64.227122    64.871747    30989.367 
17390000    -193175.4    1.7344058 -0.00045735082    73.401434    64.015172    65.348788    31002.132 
17395000   -193618.57    1.7212878 -0.001698809    72.358972    64.685503     64.73393     31014.91 
17400000   -193816.93    1.7313898 0.00045428648     72.38329    64.668313    64.463341    31027.683 
17405000   -193900.66    1.7716423 0.0011291445    71.327425    65.206998    64.364716    31040.449 
17410000    -193689.6    1.7526302 0.0059843945     72.62181    64.626983    64.068903    31053.216 
17415000   -193239.18    1.7484691 -0.0027703865    73.240662    65.136772    64.344213    31066.012 
17420000   -193221.08    1.6207491 0.0041675625    72.704578    64.781357    64.586186    31078.726 
17425000   -193628.02    1.7012048 0.00089240493    72.706031    64.108717     65.16528    31091.481 
17430000   -193721.25    1.6935383 -0.0007228018    72.833939    64.146346    65.230867    31104.279 
17435000   -193604.13    1.6663283 0.0029864403    72.754693    64.517047    64.880486    31117.003 
17440000    -193482.6    1.7188389 -0.0019357242    72.627881    64.723181    64.785573    31129.758 
17445000   -193312.16    1.6880293 0.0004044512    72.381962    64.846935    64.786272    31142.525 
17450000   -193129.25    1.6963263 -0.0010735754    72.722128    64.860408    64.663145    31155.314 
17455000    -193344.9      1.67662 -0.0012346454    71.806655     64.91837    64.776401    31168.163 
17460000   -193444.25    1.6708262 0.0063835627    72.041887    64.743529    64.489648    31180.988 
17465000   -193410.02    1.7076928  0.002073645    73.255161    65.034117    64.237508    31193.767 
17470000   -193419.49    1.6882964 -0.00089145225    73.473455    64.930635    64.264089    31206.506 
17475000   -193188.05    1.6421614 -0.0020614876    72.650332     65.12812    64.772469     31219.29 
17480000   -193364.74    1.7165381 0.0010396849    72.824928    64.980779    64.463229    31232.058 
17485000   -193448.53     1.768489 -0.00043942088    72.944713    64.866159    64.659392    31244.802 
17490000   -193359.17    1.6843197 0.0043503275    72.063714    64.843338    64.703556    31257.531 
17495000    -193263.1    1.7076834 0.0016191162    72.169218    65.133731    64.790496     31270.29 
17500000   -193539.13    1.7280032 -0.0034758604    72.209218    64.975417    64.885982    31283.027 
17505000   -193396.24    1.6937646 -0.00016756714    72.583518    65.184027    64.724745     31295.83 
17510000   -193165.53     1.659221 0.0020944917    73.176268    64.955201    64.700963     31308.64 
17515000   -193591.79    1.7135294 -0.0010565401    72.571938    64.728244    65.184461    31321.348 
17520000   -193400.93    1.6683314 -0.0024980163    72.364349    65.173134    64.662954     31334.12 
17525000   -193629.13    1.7252223 -0.00078862344    71.876904    65.601811    64.247879    31346.852 
17530000   -193182.77    1.6411493 0.0016560859    72.793784    65.180939    64.156024    31359.601 
17535000    -193164.2    1.7407967 0.0021630703     72.77674    64.905178    64.310151    31372.367 
17540000   -193660.01    1.6638724 0.0016502947       72.006    65.156849    64.610188    31385.116 
17545000    -193673.5    1.6838197 0.0027878804    72.741957    64.754598    64.681956    31397.852 
17550000   -193455.63    1.7129471 0.00028745164    73.015758    64.355524    64.927748    31410.615 
17555000   -193338.92    1.6889861 0.0005732906     72.52871    64.996894    64.792249    31423.345 
17560000   -193679.62    1.7111548 0.0016468826    71.929401    64.319833     65.02836    31436.129 
17565000   -193482.32    1.6780484 0.0019331576    72.930746    64.669416    64.212485    31448.944 
17570000   -193457.83    1.7032871 -0.0037020375    73.252488    64.467317     64.93439    31461.734 
17575000   -193404.61     1.702778 0.0028851754     72.92058    64.415381    64.855333    31474.483 
17580000   -193782.86    1.7311355 0.00025262051    72.105597    65.014485    64.773413    31487.199 
17585000   -193658.38     1.678303 -0.00071268727    72.571646     64.65664    64.611628    31499.946 
17590000   -193451.08    1.6638632 -0.0033873741    71.937701    65.129575    64.470753    31512.713 
17595000   -193183.78    1.7120302 -0.0019303913    71.628882    65.006844    64.934235    31525.508 
17600000   -193522.14    1.6834188 -0.0021602698    71.406619    64.915543    65.242352    31538.357 
17605000   -193351.74    1.7227847 0.0026112063    72.539053    64.866114    64.687843    31551.128 
17610000   -193207.64    1.6594534 -0.0027082266    72.029915    65.335516    64.652022    31563.951 
17615000   -193825.45    1.7072645 0.0028818925    71.907431    64.768584    64.272004    31576.758 
17620000   -194045.15    1.7038301 0.0021024256    71.676294    65.479116    63.678554    31589.606 
17625000    -193895.4     1.656724 -0.0010545812    72.011145    64.810267    64.717299    31602.372 
17630000   -193816.13    1.6936916 -0.0010232249    71.681982    64.638522     65.20506    31615.151 
17635000   -194049.07    1.7063826 -0.0022668587    71.566484    64.005986    65.694931    31627.986 
17640000   -194057.94    1.6408153 -0.0032031074    71.626204    64.304381    65.461375    31640.735 
17645000    -193960.8    1.6690435  0.001113331    71.357074    64.702899    65.039633    31653.557 
17650000   -193712.37      1.74092 0.0019419874    71.855582    64.518509    64.931153    31666.372 
17655000    -193550.1    1.6548503 -0.0045339545    73.226248    64.451211    64.845029    31679.135 
17660000   -193521.89    1.7107162 0.00015184347    73.336172    64.488558    64.726469    31691.876 
17665000   -193671.15    1.7056909 0.0055281447    73.258967    63.876597    64.928469    31704.657 
17670000   -193444.31    1.7139469 0.0022170901    72.960361    64.053656    65.306028    31717.419 
17675000   -193742.23    1.7233867 -0.0021284791    72.107528    64.194859    65.500514    31730.163 
17680000   -193252.19    1.7532586 0.00058427605    73.146416    64.322103    65.318271    31742.904 
17685000   -193459.91    1.6556671 0.0046752357    72.376628    63.920209    65.731739    31755.662 
17690000   -193889.36    1.7176407 -0.0016633354     71.42145    64.280633    65.488827    31768.475 
17695000   -193724.11    1.6781339 -5.8803346e-05    72.129399    64.711835    64.970265    31781.222 
17700000   -193816.59    1.6933472 -0.0018299144    71.980601    64.619847    64.969239     31794.01 
17705000   -193537.27    1.7354702 -0.00065875425    73.192871    63.970645    65.176103    31806.829 
17710000   -193182.71    1.6773364 0.0038055306    73.114507    64.014412    65.444382    31819.541 
17715000   -193544.03    1.6842708 -0.0029302451    73.257313    63.930547    65.480939    31832.227 
17720000   -193578.33    1.6949525 0.0022508615    73.007046     64.23375    64.976718    31844.976 
17725000   -193493.59    1.6761513 0.00039050785    72.979072    64.665751    64.807724    31857.728 
17730000   -193649.89    1.7320659 0.00017135315    73.108812    64.191015    64.924394    31870.471 
17735000   -193946.31     1.784734 -0.0011926702    72.097803    64.635396    64.863674    31883.233 
17740000   -193622.46    1.6782005 0.00020585805    72.546148    64.011021    65.352867    31895.982 
17745000   -193502.92    1.6530095 -4.4915722e-05    72.185079    64.150167    65.130111    31908.768 
17750000   -193053.33    1.7097142 0.00011446028    73.792122    64.287295    64.887087     31921.51 
17755000   -193181.01    1.7020817 0.0031612514    73.498528    64.224048    65.192578    31934.235 
17760000   -193456.38    1.6944531 -0.0022504502    72.276693    64.471696    65.252804    31946.988 
17765000   -193865.59    1.6779939 0.0057713514    72.096703    63.919357    65.007672    31959.765 
17770000   -193375.97    1.6811062 -0.00097327164    73.354239     64.86472    64.334581    31972.493 
17775000   -192984.45    1.7151156 -0.0010918984    73.296877    64.989516    64.669625    31985.269 
17780000   -193360.28    1.7016261 -0.0038452784    71.983104    64.794013    65.298288    31998.037 
17785000   -193656.14    1.6851129 0.0031459838    71.878199    64.245379    65.066656    32010.897 
17790000   -193241.42    1.7247712  0.000761547    73.081857    64.283533    65.025174    32023.671 
17795000   -193436.03    1.7479587 0.00057123039    73.570388    64.270459    64.601098    32036.403 
17800000      -193343    1.6918692 0.0029842667    73.418082    64.454056    64.362753     32049.14 
17805000   -193688.26    1.7001816 0.0015521448    72.830589    64.709029    64.238399    32061.896 
17810000   -193682.26    1.6729108 -0.00098875672    72.366801     64.68601    64.521136     32074.64 
17815000   -194025.69    1.6828085 -0.001123087    71.420475    65.243431    64.232197    32087.465 
17820000   -193701.02    1.6854191 0.0013779123    72.327224    64.637788    64.378707    32100.345 
17825000   -193169.72    1.7323627 0.0012942768    73.289407      64.7709    64.199861    32113.132 
17830000   -193450.52    1.7314428 0.00044770434     72.26382    65.100859    64.184293    32125.939 
17835000   -193708.58    1.7302259 0.0005245996    72.438579    64.993592    64.125092    32138.733 
17840000   -193915.74    1.6793862 0.00095361208    72.846738    65.018349    63.795431    32151.491 
17845000   -193499.99    1.6773573 0.0028834279    73.557714    65.110701    63.716297    32164.203 
17850000   -193534.33    1.7377333 -0.0014139032    73.091797      65.0375    63.977835    32176.955 
17855000   -193148.62     1.698672 -0.0017914018    74.599555    64.549366    64.460983     32189.65 
17860000   -192945.21    1.6924414 0.00038547319    74.244154     64.59312    64.475521    32202.354 
17865000   -192951.53    1.7157729 -0.00070739964     73.89166    64.451116    64.602055     32215.06 
17870000   -192959.57    1.6980043 -0.0034566537    73.955356    64.903791    64.202276    32227.822 
17875000    -193258.4    1.7441318 -0.00084826058    74.237728     65.39815    63.571307    32240.533 
17880000   -193522.82    1.6980026 -0.0035275746    73.530713    65.777706    63.605514    32253.236 
17885000   -193754.45    1.6979316 0.0035229051    71.762269    65.436771    63.773385    32266.027 
17890000   -193337.89    1.6711336 -0.00054399878    71.658403    65.702475    64.280641    32278.823 
17895000    -193140.5    1.6558714 0.0017686103    72.273585    64.879852    64.532297    32291.602 
17900000   -193362.99    1.6829336 0.0013164358    73.160776    64.612373    64.418872    32304.387 
17905000   -193546.72      1.69821 0.00030830483    72.784504     64.56651    64.889476    32317.124 
17910000   -193799.53    1.7114226 -0.0005241232    72.089151    65.108578    64.602683    32329.895 
17915000   -193537.56    1.6786293 0.0013709526    72.128046    65.184151    64.495314    32342.676 
17920000   -193449.67    1.6907067 0.0029748759    72.047124    65.284726     64.39531    32355.447 
17925000   -193394.88    1.7083692 -0.0027127299    73.158821     65.20431    64.341504     32368.18 
17930000   -193051.11    1.7235521 0.0013926544    73.749093    64.572102    64.391433    32380.879 
17935000   -193333.04    1.6806428  0.002647763    72.398522    64.191782    65.178715    32393.672 
17940000   -193427.27    1.7165113 -0.0015418205    72.694001     64.43999    65.051231    32406.418 
17945000   -193440.57    1.7145676 3.5257274e-05     72.48013     64.61527    64.810788    32419.177 
17950000   -193431.11    1.6947802 0.0034063673    73.174626    64.337709    64.709199    32431.936 
17955000   -193295.19    1.6873784 0.0010966501    73.388307    64.876413    64.333734    32444.662 
17960000   -193758.37    1.7056309 0.00073224084    72.389941    64.736439    64.306916    32457.442 
17965000   -193218.66    1.7176275 -0.0017868128    73.255722    64.761967    64.377483    32470.223 
17970000   -193185.04    1.6881547 -0.0020243357    73.264671    64.291657    65.177371    32482.929 
17975000   -193514.41    1.7386694 -0.00033230356    72.179777    64.499186    65.032509    32495.706 
17980000   -193333.74     1.688037  0.003935208    72.679476     64.40935    64.973212    32508.448 
17985000   -192887.21    1.6945692 -0.0043350497    74.201882    64.562157     64.87244    32521.186 
17990000   -193142.27    1.6980632 0.00066046542    73.434995    64.815043    64.293656    32533.872 
17995000   -193838.97    1.7299505 -0.0013649497    72.415728    64.923411    64.438468    32546.619 
18000000   -193589.17    1.7121776 -0.00068400706    72.848567    64.835178    64.487569    32559.366 
18005000   -193508.99    1.6913673 0.00039145234    72.700371    64.783792    64.729771    32572.135 
18010000   -193589.25    1.7027264 0.0045806328    72.037473    64.921858    64.514301    32584.885 
18015000   -193760.85    1.7012806 0.0032218349     72.47229    64.642361     64.48832    32597.599 
18020000   -193599.55    1.6916391 0.0013778206    71.656031    64.786118    64.915547    32610.379 
18025000    -193703.5    1.6379057 0.0022722432    71.636323    65.215396    64.425639     32623.17 
18030000   -193726.19    1.7325247 0.0026172117    71.426792    65.011718    64.602552    32635.987 
18035000   -193934.55    1.6525485 0.0018374883    71.294038     64.89402    64.734252      32648.8 
18040000   -193337.76    1.7378403 -0.0029710341      72.9225    64.076223    65.410611    32661.593 
18045000   -193352.01    1.7314621 0.00011288932     73.19293    64.074006    64.902156    32674.339 
18050000   -193246.44    1.7145183 0.0043232398    73.321378    64.170601    64.577523    32687.087 
18055000   -193489.22    1.6975509 -0.0012293664    72.418641    64.744419    65.014973    32699.824 
18060000   -193858.64    1.7042057 0.00010365493    73.401808    64.637006    64.559493    32712.586 
18065000   -193693.16    1.6967967 0.0032184421    72.705679    64.552477    64.374871    32725.294 
18070000   -193614.35    1.7231965 -0.0030526181    72.074144    64.486865    65.170952    32738.068 
18075000   -193615.86    1.6511244 -0.0011625534    72.521436     64.27243    64.845839    32750.859 
18080000   -193406.95    1.6823941 -0.0015311268    72.146497    64.764601    64.826782    32763.631 
18085000   -193265.21    1.7070135 -0.0037676227    73.409248     64.51416    64.984366    32776.389 
18090000   -193383.43    1.6826636  -0.00338331    74.233126    64.464014    64.469501    32789.109 
18095000   -193309.17    1.7137239 0.0019704849    73.365533    64.473655    64.559958    32801.846 
18100000   -193684.98     1.685964 -0.0036445308    72.128607    64.374165    65.430411    32814.634 
18105000   -193687.34    1.7487964  0.001255675    73.183562    64.141199    64.917627    32827.422 
18110000    -193387.6    1.6739805 0.0019568292    72.721288    64.077888    65.354213    32840.127 
18115000    -193411.1    1.6721867 0.00010706372    72.303948    64.236954    65.200928    32852.862 
18120000   -193608.56    1.6975944 0.0020759923    71.937428    64.821835    64.834003    32865.674 
18125000   -193178.04    1.7210686 -0.00056581117    73.576619    64.617809    64.941018    32878.428 
18130000   -193329.97    1.7225419 -0.0011852352    73.878505    64.127914    64.833117    32891.162 
18135000   -193652.95    1.7081506 -0.00049613268      73.0829    64.240152     64.67237    32903.906 
18140000   -193300.66    1.7131518 -0.0024874641    74.020236    63.840668    64.936512    32916.638 
18145000   -193378.63    1.7127562 -0.0011735224    72.887987     64.27011    65.034534    32929.365 
18150000   -193267.69    1.7168435 -0.0015686012    73.627734    64.303462    64.800861    32942.085 
18155000   -193032.13    1.5982205 0.0020262893    73.743273    64.768583    64.535552    32954.759 
18160000   -193349.48    1.7032231 -0.0025528372    73.844842     64.33804    64.771993    32967.432 
18165000   -193497.74    1.7094986 0.0028613363    73.366898    64.774228    64.385388    32980.144 
18170000   -193135.59    1.6584942 -0.00016517262    73.782264     65.22352    64.307161    32992.862 
18175000   -193002.84    1.7070178 0.00026055588    73.663187    64.935892    64.696271    33005.513 
18180000    -193434.1    1.6889425 -0.00019102362    72.206708    65.382937    64.423336    33018.233 
18185000   -193614.31     1.703527  0.001987198    72.000405     64.82399    64.810316    33030.985 
18190000   -193479.98    1.7090884 -0.0022539589     72.41653    64.704827    64.904945    33043.748 
18195000   -193635.98    1.7071373 0.0006543539    72.847063    64.029273    65.032623    33056.467 
18200000   -193764.17    1.7405546 0.00098284663    72.614731    64.547694    64.704417    33069.251 
18205000    -193826.8    1.6729176 0.0034270824    73.633704    64.684868    63.959476    33082.004 
18210000   -193584.04    1.7012186 2.3492594e-05    73.153933    64.774002    64.443017    33094.714 
18215000   -193462.48    1.6738998 -0.0010385002     73.74591    64.105203    64.411658    33107.419 
18220000   -193421.69    1.6933013 -0.0031633837    73.390462    64.032042     65.20952    33120.148 
18225000   -193692.98    1.7046722 -0.0024216325     72.67917     64.35031    64.787185    33132.903 
18230000   -193595.24    1.6602844 0.00051746592    71.901298    64.298126    65.054266    33145.671 
18235000   -193586.66    1.6947773 -0.0022064975    72.361701    64.952997    64.440613    33158.473 
18240000    -193208.2     1.690241 0.00014371589    73.846275    64.654568    64.508022    33171.176 
18245000   -193322.61    1.7130275 0.0026757326    73.555633    65.023545    64.146548    33183.863 
18250000      -193325    1.7182405 -0.0017510283    73.089576    64.990789    64.491147    33196.578 
18255000   -193644.73    1.6902544 0.0044156524    73.553252    65.027821    63.719963    33209.317 
18260000   -193496.82    1.6872631 0.00039491247      72.9101    65.181811    63.877283    33222.053 
18265000   -193474.02    1.6902164 0.0015738315    72.069995    64.975846    64.478528    33234.819 
18270000   -193677.76    1.7308232 -0.0045860934    72.464649    65.730186    63.760328    33247.629 
18275000   -193373.51    1.6934045  0.001391337    72.252179      65.4281    64.172462    33260.396 
18280000   -193416.76    1.7338193 -0.0018385501    72.659731    64.700498    64.613993    33273.179 
18285000   -193589.51    1.7239829 -0.00050183189    72.113346    64.685204    64.733951    33286.021 
18290000   -193832.89    1.7369924 0.0026315612    71.677106    64.857735    64.771238    33298.812 
18295000   -193467.22    1.7531075 -0.003023449    72.374351    64.395612     65.46163    33311.584 
18300000   -193155.85    1.7310978 0.00017130077    72.338945    64.971199    65.063965    33324.305 
18305000   -193148.27    1.6999048 0.0019676402    72.385486    65.296662     64.57095    33337.052 
18310000   -193261.52    1.6697654 0.0012340702    73.155051    64.782911    64.976237    33349.773 
18315000   -193351.77    1.7349426 0.0015269637    72.640626    64.546762    64.933705    33362.508 
18320000   -193384.19    1.7098681  0.004069313    72.397111    64.275955    65.022782    33375.189 
18325000    -193691.5    1.7339455 0.0072821773    72.039615     63.98496    64.907475    33387.954 
18330000   -193393.85     1.707742 0.0048640159    72.880357    64.670254    64.394997    33400.739 
18335000   -193251.34    1.7262572 -0.00077193449    73.838551    65.323087    63.813583    33413.456 
18340000   -193174.97    1.6481721 -0.001074531    74.191849    65.364133    63.704271    33426.144 
18345000   -193210.15    1.6950265 0.0010314452    73.771914    64.711792     64.63984     33438.82 
18350000   -193564.58    1.7253352 -0.00081238917    72.993592    64.654736    65.025888     33451.54 
18355000   -193402.11    1.7434702 -0.00024977963    72.998346    64.414562    65.249678    33464.299 
18360000   -193311.04    1.7196782 0.00077326785     73.14552    64.457532    65.022499    33477.043 
18365000   -193395.09     1.702161 0.0040249325    72.912599    64.620464    64.413439    33489.777 
18370000   -193349.68    1.6852124 -0.0020952636     72.94759    64.879638    64.336739    33502.508 
18375000   -193180.35    1.7144931 -0.0018803942    73.225893    65.357261    64.308801     33515.26 
18380000   -193238.95    1.6850473 -0.0034770224    72.727524    65.706464    64.361375    33528.012 
18385000   -193158.96    1.6801339 0.0021060838    73.686563    64.865051    64.033535    33540.772 
18390000    -193549.8    1.7063461 -0.00033577209    73.021053    65.266032    64.095984    33553.469 
18395000    -193913.2    1.7338724 0.00029920551    72.239915     64.86799     64.39758    33566.215 
18400000   -193753.13    1.6973936 -0.0043323449    72.405587    64.847712    64.732325    33578.964 
18405000   -193647.66    1.6795501 0.0013063282    71.993465    64.775996     65.06365    33591.724 
18410000   -193701.79    1.7468266 0.00041830052    72.143685    64.851037    64.611548    33604.502 
18415000   -193639.48    1.6778993 -0.0030824319    72.722224    64.576402    65.177963    33617.254 
18420000   -194137.98    1.7330693 -0.0039710597    71.981826    64.723739    64.965053    33630.093 
18425000   -194196.64    1.6635076 0.00067112944    71.480177     65.13233    64.379743    33642.894 
18430000   -193623.13    1.7044678 0.00062095687     72.66023    64.435376     64.84153    33655.634 
18435000   -193030.85    1.6770756 0.0025453663    73.317556    65.039485    64.162603    33668.353 
18440000   -193065.46     1.701817 -0.0019340154    72.905611    64.844882    64.724816    33681.074 
18445000   -193786.59    1.6451449 0.00071927387    72.472806    64.290647    65.114356    33693.857 
18450000   -193408.46    1.6974137 0.00067231882    72.908586    64.870999    64.624869    33706.611 
18455000   -193429.22    1.7291578 0.00017553648    73.029502    64.984947    64.284881    33719.317 
18460000   -193666.49    1.7388729 0.0018347764    72.349577    65.013102    64.203844    33732.065 
18465000   -194118.31    1.6760938 -0.00030162943    71.841994    64.667854    64.260331    33744.864 
18470000   -193801.81    1.7259852 0.00059671934    72.798109    64.503136    64.417357    33757.661 
18475000   -193084.79    1.6680325 0.00012742491    74.326036      64.1324    64.758341    33770.335 
18480000   -193135.39    1.7021185 -0.0045627613    73.472495    64.347167    65.251904    33783.039 
18485000   -193843.93    1.6852109 0.0055413652    71.088945    64.438351    65.010193    33795.817 
18490000   -194036.09    1.6498185 0.0011911236    70.996584    65.118584    64.648729    33808.641 
18495000   -193829.74    1.6445091  0.001192586    70.995907    65.187361    64.530962    33821.532 
18500000   -193275.89    1.6942035 0.00035802677    73.256125    64.895688    64.525319    33834.303 
18505000   -193655.07     1.711436 -0.0016632163    73.137052     64.74676    64.456052    33847.072 
18510000   -193831.54    1.7096823 0.0014843873    71.851714    64.700745    64.738913    33859.898 
18515000   -193510.04    1.6424066 0.00095982068    72.201023    64.970561    64.473103    33872.737 
18520000   -193390.34     1.713022 0.0032894473    73.481762    64.836524    63.838795     33885.55 
18525000   -193160.33    1.7236953 -0.00059483081    73.780749    64.279616    64.907214    33898.264 
18530000   -193378.63    1.6771922 0.00081650889    73.546777    63.708999    65.549153     33910.99 
18535000   -193480.93    1.6299319 -0.0018587262    72.877723    63.719727     65.75984    33923.725 
18540000   -193703.56    1.6445259 0.0027810318    71.797649     64.69487    64.872939    33936.513 
18545000   -194020.51    1.7061325 -0.001218569    71.240534    64.493568    65.043697    33949.319 
18550000   -194022.95    1.6939326 0.0025247619    71.280017    64.872402    64.638647    33962.213 
18555000   -193825.92    1.7068912 0.00032331977    72.139557    64.649435    64.744846    33975.031 
18560000   -193779.37    1.6634164 -0.00067463542    71.907431    64.519972     65.02291    33987.798 
18565000   -193872.57    1.6927362 0.0020763881    70.773594    64.215108    65.795733    34000.603 
18570000   -193748.96    1.6873713 -0.00094946868    71.229868    64.240278    65.738129    34013.388 
18575000   -193873.95    1.7121107 -8.0558578e-05    71.626875    63.995906    65.569688    34026.174 
18580000   -193161.49    1.7514234 -0.00025904568    72.826399     64.47467    65.680312    34038.951 
18585000   -193287.08    1.6984873 -0.0016184839    73.623664    64.089419    64.994691    34051.621 
18590000   -193451.44     1.757159 0.00055993891    72.815595     64.70157    64.729134    34064.383 
18595000   -193645.72    1.6810616 0.0023396544    72.952857    64.545539    64.745578    34077.141 
18600000   -193533.27    1.6724702 -0.0042049937    72.099267    64.454597    65.357585    34089.914 
18605000   -194014.24     1.682238 0.0035278159    72.043857     63.91728    65.165545    34102.732 
18610000   -193925.93    1.6599285 0.0054523656    72.226221     64.08905    64.837819    34115.489 
18615000   -193640.92    1.6716929 0.0033000246    73.371796    63.923853    64.779776     34128.28 
18620000   -193561.83    1.7053265 0.0031435616    72.251563     64.33173    65.143913    34141.042 
18625000   -193805.95    1.7195177 0.0034612611    72.683216    64.420264    64.347585    34153.795 
18630000   -193480.22    1.7145903 -0.0016394078    72.506613    64.982178    64.433427     34166.57 
18635000   -193649.31    1.7309048 -0.001835319    72.211337    64.803086    64.658965    34179.387 
18640000    -193587.1    1.6929341 -5.7191031e-05    73.018244    64.695212    64.587121    34192.158 
18645000   -193937.12    1.6776339 0.00080514592    72.330428     64.48648    64.680993    34204.952 
18650000   -193623.53    1.6963557 -0.001651849    72.539218    64.793064    64.696777     34217.73 
18655000   -193684.49    1.6475142 -0.0032480887    71.524763    65.104215    64.856661    34230.526 
18660000   -194044.08    1.6858827 -0.0028332328     71.46808    64.544272    65.016264    34243.396 
18665000   -193773.67    1.7380726 -0.00061826368    72.335886    65.121735    64.501674    34256.174 
18670000   -193323.41    1.7514528 -0.00023612142    72.841378    65.341221    64.743646    34268.942 
18675000   -193335.21    1.6603323 0.0006779268    73.287986    64.933725    64.306372    34281.623 
18680000   -193390.53    1.7145041 0.0040106559    73.038764     64.62296    64.530844    34294.362 
18685000   -193853.29    1.6893227 0.0023488674    71.821845    64.629146    64.905624    34307.096 
18690000   -193791.71     1.691592 -0.0020503253    71.806581     64.69381    64.944452     34319.86 
18695000    -193627.7    1.7147755 0.0067568877    72.014928     64.42844    64.899037    34332.628 
18700000   -193647.61    1.6280345 -0.0011545355    73.226152    64.203605    64.826281    34345.368 
18705000   -193843.37    1.6563054 -0.0014347253    73.665209     64.89737    63.760722    34358.099 
18710000   -193710.07    1.7216612 0.00055050522     72.90437    64.383059    64.638447    34370.873 
18715000   -193741.23    1.7213901 0.0010176977    71.398201    64.574894     64.75947    34383.707 
18720000   -193249.89    1.7398932 0.00093782311    72.375683     64.85338    64.947407    34396.518 
18725000   -193220.22     1.660819 0.0028359988    73.578864    64.518236    64.378483    34409.255 
18730000   -193448.28    1.7271224 -0.000647475    72.956893    64.467616     64.58203    34422.072 
18735000   -193339.12    1.6483728 0.0022224114    72.477099    64.951306    64.338078    34434.824 
18740000   -193349.61    1.6963702 -0.00076302305    72.817877    64.904849    64.655706    34447.548 
18745000   -193567.31    1.6789882 0.0004796399    73.665778    64.611633    64.262262    34460.323 
18750000   -193394.37    1.6657261  -0.00205712    73.266901    64.727397    64.565057    34473.074 
18755000   -193675.74    1.6797545 -0.0020927982    72.896436    65.076007    64.320823    34485.866 
18760000   -193749.28    1.7035295 -0.001487441    73.369853    64.302511    64.614887    34498.571 
18765000   -193892.74    1.7317713 -0.0026563084    72.784836    64.783837    64.141711    34511.326 
18770000   -193739.73    1.7042253 -0.0011997911    71.952596    64.878545    64.325273    34524.152 
18775000   -193771.78    1.7251959 -0.0026140681     72.17648    64.700633    64.442042    34536.974 
18780000   -193647.62    1.6915304 -0.0019835425     72.19613    64.730914     64.42752    34549.771 
18785000   -193480.34    1.7480773 -0.0053808145     73.19773    64.904177    64.199947    34562.516 
18790000   -193674.38    1.7127037 -0.0039423263    72.806196    64.837267    64.189146    34575.254 
18795000   -193659.65    1.6546633 0.00077966094    72.859579    65.070427    63.999011    34587.975 
18800000   -193618.96    1.6791612 -0.0037405675    72.437148    64.770641    64.693482    34600.688 
18805000   -193238.28    1.7338483 -0.004257828    73.721087    64.373065      64.5972    34613.411 
18810000   -192772.85    1.7179172  0.008410806    74.883807    64.003104    64.481983    34626.081 
18815000   -192556.88    1.6750865 -0.0024239532     75.00456      64.2883    64.694927    34638.754 
18820000   -192968.88    1.6989266 0.0057409106    74.247474    64.595423    64.581083    34651.392 
18825000   -193429.63    1.7451419 0.0016478287    73.675106    64.929596     64.11167    34664.065 
18830000   -193624.39    1.7047457 0.0006539948     72.55588    64.766302    64.475257    34676.795 
18835000   -193713.64    1.6962119 0.0046617341     72.30942    63.900315    64.774785    34689.539 
18840000   -193566.23    1.7679004 0.00073636199    73.406105    64.439281    64.632813    34702.302 
18845000   -193262.99    1.7435187 0.00021106745    73.512337    64.163276    64.866104    34714.986 
18850000   -193252.64    1.7139253 0.0029327227    73.696426    64.234307    64.741492    34727.739 
18855000   -193449.71    1.6780828 0.0013975543    73.424201     63.66357    65.218059    34740.447 
18860000    -193279.8    1.7415539 0.0018717786    73.341816    63.723029    65.515441    34753.211 
18865000   -193412.15    1.7416658 0.0036392688    72.791364    64.078521    65.191882    34766.036 
18870000   -193806.02    1.7226507 0.0020766476    72.611924    64.011374    65.110068    34778.767 
18875000   -193400.24    1.7055133 -0.0028305329    73.012205    64.070661    65.357048    34791.545 
18880000   -193343.43    1.6794259 -0.00084195525    73.341466    64.094122    65.072831    34804.266 
18885000   -192890.65    1.6706322 0.0021735099    73.664788    64.651115    64.769506    34816.977 
18890000   -193129.74    1.7260046 -0.0016297054    73.674223    64.529108     64.75856    34829.717 
18895000   -193549.04    1.7392325 -0.0035595378    73.417568    65.115981    64.029698    34842.376 
18900000   -193548.11    1.6870183 -0.00056160449     73.07747    64.834531     64.39823    34855.099 
18905000   -192912.46    1.6609523 -0.0023384733     73.82503    64.617663    64.670698    34867.804 
18910000   -193156.64    1.6896904 0.0033727387     73.28899    64.816096    64.166983    34880.576 
18915000      -193186    1.6909527 -0.0013536688    72.493675    65.016966    64.689976    34893.349 
18920000   -192979.39    1.6580652 0.00033068272    73.519019    64.575442    64.745165    34906.057 
18925000    -192777.9    1.6900241 0.0053588979    74.261446     64.22286    64.874505    34918.755 
18930000   -192912.43    1.6809557 -0.0049254088      74.5249    64.376083    64.944583    34931.461 
18935000   -192894.75    1.7011506 0.00033260832     73.85346    64.310396     65.21466    34944.128 
18940000   -193335.17    1.7310063 -0.00038976505    71.888701    64.618678    65.358319    34956.822 
18945000   -193463.56    1.7246357 0.0043319939    71.937441    64.325909    65.470372    34969.587 
18950000   -193199.76    1.6728942 -0.0028350764    72.823962     64.90285    64.942179     34982.36 
18955000   -193536.96    1.7191926 0.00073327864    72.951901    64.421385    65.064613    34995.112 
18960000   -193361.31    1.7454032 0.00067022156    72.933543     64.50013    65.214459    35007.847 
18965000   -193219.16    1.7196758 -0.0022345448    73.463419    64.111181    65.020178    35020.602 
18970000      -193421    1.7291039 -5.8287038e-05     71.73349    64.778417    65.260524    35033.365 
18975000   -193451.56    1.6752225 -0.0020903816    71.672008    64.837419    65.147539    35046.206 
18980000    -193279.4    1.7199667 0.0011457817    72.526842    64.616347    64.955265    35058.995 
18985000   -192867.38    1.7343426 0.00079805489    73.701551    64.663675    64.582325     35071.74 
18990000    -193441.6    1.7218382 0.0045996782    72.625315    64.734254    64.493989    35084.494 
18995000   -193330.48    1.6370676 -0.0036376467     73.01272    64.678267    65.204942     35097.23 
19000000   -193428.39    1.7085755 -0.002011848    72.482199    64.647098    65.177681    35109.981 
19005000   -193230.42    1.7060483 7.942468e-05    73.094532     65.17387    64.620209    35122.731 
19010000   -193227.92     1.711255 0.00031663511    72.587718    65.493589    64.215371    35135.476 
19015000   -193393.88    1.7427357 0.0010281977    71.487462     65.26045    64.661236    35148.274 
19020000   -193688.69    1.7382849 0.0074125995    70.252709    65.047788    65.125424    35161.083 
19025000    -193303.9    1.6718046 0.0010882429    73.075869    64.945448    64.577142    35173.839 
19030000   -193379.09    1.6605917 -0.0011770735    72.937306    64.769705    64.651589    35186.568 
19035000   -193581.61    1.7190301 -0.0002027507    71.662131    65.231918    64.665868     35199.34 
19040000   -193877.83    1.7080654 0.0020661712    71.752984    65.114651    64.386849    35212.092 
19045000   -193760.74    1.6963716  0.001664615    71.900106    65.022876    64.629525    35224.875 
19050000   -193323.11    1.7264455 -0.0014678959    73.873558    64.256048    64.776691    35237.619 
19055000   -193349.83    1.7288073 -6.7085356e-05    72.841582     64.25793    65.289814    35250.326 
19060000   -194182.13    1.7387532 0.0020679529    70.716234    64.614458    65.411087    35263.119 
19065000   -193991.39    1.6971328 -0.0033205151    70.728937    64.501902    65.796562    35275.919 
19070000      -193676    1.6976211 0.00053236811    71.676048    64.132328    65.711289    35288.697 
19075000   -193739.92      1.72873 0.00047641603    71.142695    64.901451    65.192266    35301.457 
19080000   -193882.28     1.745987 0.0046597716     70.40993    65.215349    65.111603    35314.292 
19085000   -193403.17    1.7239094 0.00058717028    71.004683    64.952245    65.563118    35327.088 
19090000    -193634.7    1.7198516 -0.00095876158     72.10581     64.13109     65.35754    35339.872 
19095000   -193699.36    1.6441841 -0.0031279056    72.443777    64.143197     65.22365    35352.621 
19100000   -193662.23    1.6724296 0.0023568613    73.522502    63.816762    65.067627    35365.384 
19105000   -193572.52    1.6956305 -7.798923e-05    73.026138    63.826717    65.405045    35378.168 
19110000   -193594.94      1.66793  0.001336387     72.37952      64.0401    65.272598    35390.932 
19115000   -193924.22    1.7501945 -0.00036949205    72.688214    63.848474    65.295742    35403.697 
19120000    -193834.6    1.6814513 0.0014109664    72.041564    64.458849    65.127682     35416.49 
19125000    -193331.4    1.6680041 -0.00072489021    72.874407    64.540349     65.04176    35429.248 
19130000   -193132.81    1.6961108 0.0026573387    74.019752    64.074265    64.608222    35442.011 
19135000   -193503.37    1.6963351 -0.0015130482    72.666493    63.782571    65.483623    35454.727 
19140000   -193835.18    1.7566477 -0.0017334103    73.061825    63.940256    65.152686    35467.465 
19145000   -193189.71    1.6889166 0.0038470649    73.808094     64.40916    64.635502    35480.113 
19150000   -193250.73    1.6891625 -0.0025598071    73.254514     65.07236    64.413773    35492.801 
19155000    -193463.5    1.6786426 0.0021866944    72.820432    64.973468    64.285673     35505.53 
19160000   -193487.75    1.7230652 0.00090077982    73.352945    64.645677    64.425612    35518.232 
19165000   -193424.14    1.6784857 0.0040099208    73.464479    64.756605    64.170461    35530.935 
19170000    -193536.1    1.7187051 0.00025843952    72.509441    64.359934    64.831965    35543.643 
19175000   -193235.16    1.7583303 -0.0021352867    73.542403    64.775541    64.419377     35556.36 
19180000   -192838.73    1.7323874 0.0035926671    73.949588    64.429251    64.653697    35569.085 
19185000   -193302.63    1.7111679 0.00074009974    73.106014    64.868868    64.648646    35581.806 
19190000   -193180.78    1.6786097 0.0015991818    73.661787    64.863999    64.572667    35594.502 
19195000   -193189.77    1.7031493  0.002639185    73.522455    64.791446    64.384128    35607.193 
19200000   -193208.63    1.7345402 -0.0040842306    73.050495    65.145745    64.556951    35619.932 
19205000   -193629.26    1.7268639 -0.0026189138    72.042315    64.852973    64.887997    35632.727 
19210000   -193475.44    1.7078426 0.0007049912    72.674864     64.41212    64.804259    35645.561 
19215000   -193260.63    1.6958516 0.00099383663    73.783166    64.473617     64.67008    35658.324 
19220000    -193211.2    1.6574353 -0.00014743493    73.529699    65.195089    64.418819    35671.046 
19225000   -193207.86    1.6845229 -0.0022338796    73.448355     65.02536    64.394064    35683.761 
19230000   -193412.02    1.6865107 0.0014915932    72.460853    65.439391    64.091087    35696.532 
19235000   -193526.81    1.6753467 0.0005521521    72.281657    64.609361    64.624917    35709.342 
19240000   -193688.25     1.743104 0.0011230035    72.199054     65.11469    64.492603     35722.14 
19245000   -193347.47    1.6902702 -0.0023652943    72.706253    64.793337    64.717033    35734.916 
19250000   -193323.02    1.7288681 0.00021040575    73.318532    64.864467     64.24735    35747.652 
19255000   -193628.49    1.7019167 -0.00020020455    72.499876    64.390405     64.92572    35760.396 
19260000   -194254.97    1.7358845 0.0013661973     71.03441    64.294164    65.377797    35773.234 
19265000   -193964.29    1.6843458 -0.00039720089    71.768082    64.492889    65.254054    35786.094 
19270000   -193582.58    1.6517801 -0.0022583315    72.771029    64.412846    64.915409    35798.895 
19275000   -193354.08    1.7362468 0.00063182252     73.73322    64.080323    64.746866    35811.636 
19280000    -193288.1    1.6907568 -0.0037019353    72.465477    64.600162     64.87628    35824.378 
19285000   -193577.79    1.7010943 0.0005750817    71.519372     64.45642    65.162123     35837.15 
19290000   -193765.09    1.6963465 0.0025255599    71.393752    64.580772    64.950047    35849.949 
19295000   -193888.31    1.6937662 -0.0053983852    71.635296    64.695144     64.90209    35862.775 
19300000    -193527.5    1.7112368 0.0021907711    72.512934    64.558766    64.602991    35875.551 
19305000   -193648.42     1.678579 0.00032633547    72.279472    64.968886    64.336809    35888.296 
19310000    -193862.3     1.748428 0.00036810626    72.056358    64.898227    64.154266    35901.087 
19315000   -194059.47    1.6782098 -0.0001875086    71.117738    65.000597    64.379183    35913.921 
19320000   -194062.11    1.7431602 0.00080936689      71.4696    64.626738    64.678367    35926.755 
19325000   -193076.74    1.6661862 0.00063164929    73.588403    64.542251    65.032835    35939.552 
19330000   -193547.51    1.7191311 0.0034046918    71.932551    64.594148    64.774821    35952.272 
19335000   -193870.16    1.7378035 0.0041967831     71.67675    65.018676    64.502179    35965.024 
19340000      -193615    1.7039951 -0.00086730763    72.924855    65.080605    64.490083     35977.82 
19345000   -193569.95    1.6615378 -0.0041710205    73.565885    64.952182    64.383053    35990.493 
19350000   -193227.62    1.7512631 -0.00065510441    72.892542    65.215164    64.488114    36003.209 
19355000    -193218.2    1.6823934 -0.0039851742    72.716732    64.967492    64.872307    36015.953 
19360000   -193075.04     1.697183 0.0028191164    73.051827    64.512019    65.121519    36028.661 
19365000   -193521.29    1.6584518 0.0012907892    72.447198    64.937299     64.35626    36041.415 
19370000   -193788.42    1.7209994 -0.0016151255    71.982066    65.146218    64.585286    36054.187 
19375000   -193275.65    1.6687306 0.00080100799    72.815438    64.899044    64.779353    36066.853 
19380000   -193652.44    1.7201953 5.5313965e-05    72.498478    64.699923    64.867591    36079.578 
19385000   -193905.43    1.6933062 0.00039555354    72.048926    64.391418    64.825283      36092.3 
19390000   -193842.92    1.7327084 0.0020752091     71.83597    64.550927    65.150591    36105.133 
19395000   -193902.75    1.6383851 -0.0041075635    71.333065    64.936731    65.245678    36117.943 
19400000   -193866.62    1.6820482 0.0005774106    71.012976    65.090759    65.382554    36130.758 
19405000   -193853.24    1.6750683 -0.0028781033    71.635879    64.821952    65.315262    36143.597 
19410000   -194176.94    1.6761046 -0.0017727729    70.828251    64.251667    65.855387    36156.402 
19415000   -194097.65    1.7128289 0.0025170281    71.294148    64.538751    65.036221    36169.223 
19420000   -193592.75    1.7066825 3.684261e-05    72.024843    64.467012    64.969787    36182.023 
19425000   -193492.84    1.7094745 -0.0036046645    72.154953    64.626693    65.147102    36194.825 
19430000   -193724.97     1.760205 -0.0013378856    72.604029    64.314911    65.022579    36207.635 
19435000   -193612.03     1.709341 0.00022640646    72.950169    64.395475    64.808672    36220.428 
19440000   -193023.55    1.7145893 -0.0041283463    74.909259    64.757565     64.35349    36233.169 
19445000   -193112.05    1.6777666 -0.00035978358    73.481825    65.383665    64.203424    36245.836 
19450000   -193633.38    1.7149696 -0.0010740356     73.36283    65.037595     64.11017     36258.52 
19455000   -194090.24    1.6809562 0.0024220542    71.790546    64.858499    64.530261     36271.29 
19460000   -194048.83    1.6915944 0.00023545046    70.686005    64.654557    65.126352    36284.081 
19465000   -194188.27    1.6714256 -0.0052221572    71.131213    64.904309    64.759308     36296.96 
19470000   -194100.42    1.6778742 -0.0027955618    71.863199    64.800835     64.76315    36309.734 
19475000   -194022.24    1.7535043 0.0037784111    71.569149    64.512065    64.774064    36322.533 
19480000   -193834.77    1.6818889 -0.0013880645    71.816574    65.127227    64.812413    36335.345 
19485000   -193562.09    1.6760307 -0.0019670843    72.376988    64.944682    64.703491    36348.154 
19490000   -193948.42    1.7042076 -7.3102008e-05    71.127682    65.377472    64.399867    36360.963 
19495000   -193763.68    1.7438843 -0.00049170561    71.984843    64.971923    64.621001    36373.747 
19500000   -193688.34    1.6414717 -0.00011331014    72.747958    64.718629       64.653    36386.499 
19505000   -194009.61    1.7272893 -0.0020705251    71.275232    65.140281    64.852098    36399.242 
19510000   -193754.41    1.6516828 -0.0010609879     71.70535    64.937968    64.771364    36412.062 
19515000   -193513.97    1.6932747 -0.00033572498     72.16062    64.504257    64.828748    36424.814 
19520000    -193576.2    1.7362605 0.00018336189    72.076538    64.736936    64.948296    36437.602 
19525000   -193518.17    1.6852202 -0.00080835432    71.934801    64.642951    65.369865    36450.371 
19530000   -193312.53    1.7245027 0.0019563557    72.907006    64.035001    65.344666    36463.153 
19535000   -193133.82    1.6936455 -0.00050072574    72.684458      64.6932    65.122086    36475.883 
19540000   -193272.81    1.7300839 -0.0030485231    72.898155    64.597559    64.803071    36488.642 
19545000   -193248.48    1.7431558 -0.0056265534    73.277299    64.446655    65.012712    36501.401 
19550000   -193745.71    1.7433415  0.001381345    73.230913    64.664375    64.352688    36514.147 
19555000   -193319.72    1.6983112 0.00036621921    73.953121    64.411339    64.576656    36526.871 
19560000   -193709.35    1.7171634 0.0025198486    73.260236    63.904457    65.013241    36539.667 
19565000   -193483.62    1.6825277 -0.0025001749    73.678495    64.254544    64.832616     36552.38 
19570000      -193857    1.6922713 -0.0030356523    72.492609    64.775146    64.747598    36565.165 
19575000   -193717.13    1.6938981 -0.00057629835    72.148998    64.797167    64.704562    36577.925 
19580000   -193732.17    1.6812559 0.0047165543    71.932668    64.728642    64.455453    36590.704 
19585000   -193508.05     1.697171 -0.00089738249    72.259121    64.883978    64.761578    36603.471 
19590000   -193691.52    1.7209686  0.001758455    72.710573    64.483532    64.585798    36616.245 
19595000   -193577.87    1.6930134 -0.0009120688    73.232893     64.44522    64.516928    36628.997 
19600000    -193809.8    1.6948081 0.0009266611    72.400826    64.170152    64.911159    36641.781 
19605000   -193677.49    1.6999595 0.0016252367    71.931909    64.540805    65.002554    36654.541 
19610000   -193669.94    1.6948849 0.0053063168    72.530047    64.010756      64.8017     36667.33 
19615000   -193734.48    1.6894076 -0.0032541918    72.226383    64.533638    64.749292    36680.107 
19620000    -193737.3    1.6847735 0.00063358613    72.039452    64.682801    64.720138    36692.936 
19625000   -193647.61     1.699518 -0.0038446654     72.10539     64.85525    64.700962    36705.719 
19630000   -193420.11     1.646258 0.0023996144    73.083624    64.321764    64.647535    36718.529 
19635000   -193458.29    1.7455485 0.00015533192    72.854839    64.659869    64.442408     36731.28 
19640000   -193813.15    1.6814992 0.00035735148    72.225951    64.235731    64.984168    36744.007 
19645000   -193651.58    1.7036164 -0.0023274294     72.45885    64.129489    65.080637    36756.776 
19650000   -193737.52    1.7450059 0.00056484396    71.550343    64.570688    64.912221     36769.58 
19655000   -193480.93    1.7540373 -0.0019604278    72.475885    65.018251    64.613167    36782.361 
19660000   -193541.36     1.740403 0.0021366829    72.116089    64.619145    64.915092    36795.092 
19665000   -193289.33    1.7567813 -0.0042471543     73.73949    64.375053    64.524556    36807.839 
19670000   -193480.84    1.6812613 0.0018707956    72.877889    64.251586    64.886667    36820.595 
19675000   -193783.32    1.6747293  0.001082373    72.436963     64.54136    64.647929    36833.318 
19680000   -193736.47     1.710677 0.0010681795    73.107726    64.449413    64.286624    36846.049 
19685000   -193496.04    1.6502095 -0.00051348954    73.724955    64.885731    63.927431    36858.779 
19690000   -193288.12    1.6934265 -0.0010773584    73.795494    65.618354    63.421316    36871.489 
19695000   -193170.57    1.6428384 -0.0013799693    73.801907    65.278138    63.911527    36884.237 
19700000   -193360.54    1.6753681 0.0016518339    73.427888    64.421778     64.27861     36896.99 
19705000   -193291.62    1.6954896 -0.0022129628    73.671805    64.232225    64.802104    36909.704 
19710000   -193196.84    1.6447292 0.0014515515    73.284467    63.955368    65.204911    36922.454 
19715000   -193538.76    1.7178058 0.0016282846    72.701693    64.574439    64.633135    36935.164 
19720000   -193610.44    1.6914421 -0.00057471617    72.359147    65.054782    64.471968    36947.919 
19725000   -193594.87    1.7181982 -0.00058895542     72.83935    65.180336    64.412318    36960.692 
19730000   -193925.24    1.6783671 0.0025080249    72.491092    65.019142    64.260195    36973.434 
19735000   -193319.75    1.6655977 -0.0048989941    73.585463    64.822139    64.600674    36986.151 
19740000   -193401.85    1.7098411 0.00027006705    72.882649    64.491002    64.713016    36998.924 
19745000   -193819.59    1.7762219  0.001746746    71.849516    64.262631    65.009478    37011.701 
19750000    -193931.6    1.7162692 0.00090789986    71.477963    64.249666    64.948069    37024.534 
19755000   -193876.46    1.7180657 -0.00023206416    71.252644    64.677017    65.120407    37037.363 
19760000    -193439.2    1.6744335 -0.0024049659    72.815342    64.872243    64.418794    37050.156 
19765000   -193660.99    1.7050628 -0.0038136427    72.754957    64.622452     64.65769    37062.907 
19770000   -193716.75    1.7232958 -0.0016468785    72.513484    64.771161    64.753251    37075.705 
19775000   -193755.89    1.6588398 -0.00094037838    72.602802    65.377015    63.896806    37088.456 
19780000   -193041.65    1.7454441 -0.0013276579    73.834649    65.132039    64.508753    37101.209 
19785000   -192900.78    1.7110297 -0.0015454213    73.507194    64.961864    64.705734    37113.906 
19790000   -193301.21    1.7130464 0.0018227835    73.064446    64.971837    64.501494    37126.645 
19795000   -193377.91    1.6745743 0.00075131375    73.298918    64.629152    64.721282    37139.373 
19800000    -193490.6     1.732049 0.0068158791     73.42721    63.790366    64.898372    37152.124 
19805000   -193176.87    1.6689699 -0.0025549546    73.289378    64.112653    65.344954    37164.842 
19810000   -193710.27    1.6628933 0.00038643822    72.496774    64.491856    64.870789    37177.596 
19815000   -193539.47    1.7174703 0.0016129234    72.387642    64.369378    64.968474    37190.344 
19820000   -193305.49    1.6778307 0.0028943739    72.279102    63.956667    64.958197    37203.152 
19825000   -193147.35    1.7418535 0.00067229987    72.530454    64.764787    64.472463    37215.882 
19830000   -193624.96    1.6973495 0.0018556329     72.69606     64.47724    64.598749    37228.651 
19835000   -193250.61     1.700994 0.00026158468    73.349175    64.110262    65.007492    37241.387 
19840000   -193470.44    1.7023327 0.00014098956    72.560701     64.07085    65.112227     37254.11 
19845000   -193251.07    1.7508052 0.0027850162    73.260405    63.583672    65.468439    37266.907 
19850000   -193249.58    1.6908126 0.00082033856     74.14663    63.119483    65.673895    37279.604 
19855000   -193425.13    1.6766736 -0.0020129546    73.757589    63.306189    65.625014    37292.314 
19860000   -193544.44    1.6446458   0.00109166    72.921558    63.260848    65.980486     37305.02 
19865000   -193429.77    1.6835762 -0.0010381693    73.453952    63.209395    65.560517     37317.75 
19870000   -193610.69    1.6794381 -0.0011691808    73.478832    63.625574     65.03572    37330.515 
19875000   -193716.29    1.6945804 0.0023088689    72.289111    63.741895    65.400366    37343.281 
19880000    -193773.6    1.6654415 0.0028956961    72.534052    64.484233    64.777473    37356.092 
19885000   -193355.76    1.7116089 -0.0003938737    73.738555    64.230995    65.109696    37368.836 
19890000   -193347.41    1.6735523 0.0012398402    72.611643    64.380484    65.102138    37381.574 
19895000   -193762.16    1.7143045 -0.003121089    71.861953    64.760752    64.592841    37394.387 
19900000   -193609.65    1.6708716 -4.6792543e-05    72.022047    64.647025     64.84206    37407.188 
19905000   -193515.09    1.7091233 0.0024877984     72.60777    64.382593     64.87414    37420.026 
19910000   -193465.55    1.7182917 -0.0023313723    72.601331    64.149613    65.199136    37432.802 
19915000   -193780.27    1.6811196 0.00018390132    72.057915    64.529852    64.991506    37445.535 
19920000   -193523.64    1.7423034 0.00098061678     72.05802      65.3127    64.332758    37458.291 
19925000   -193760.61    1.6763399  0.001479984    71.128819    64.995099      64.6706    37471.119 
19930000   -193541.83    1.7294236 -0.0018497005    71.318159    65.459793    64.299708    37483.957 
19935000   -193720.74    1.7406586 -0.0045525417    71.712035    65.264891    64.745139    37496.731 
19940000   -193394.97     1.738113 0.0023589671    72.097159     65.14438    64.807752    37509.452 
19945000   -193210.42    1.7456119 -0.002342495    72.458501    65.162844     65.01631    37522.205 
19950000   -193497.98    1.7150626 -0.0017230159    72.456455    64.849568    64.851021    37534.926 
19955000   -193569.94    1.7050561 0.0037308385    72.359737    64.746773    64.861282    37547.595 
19960000   -193747.71     1.732803 0.0014833182    72.030091    64.624888    64.611726    37560.354 
19965000   -193910.25    1.6800859 0.0011634418     71.76257    64.696828    64.441898    37573.163 
19970000   -193758.83    1.6798942 -0.00036893044    72.034394    64.986873    64.622571    37585.946 
19975000   -193397.07    1.7010558 0.0014801928    72.492309    64.982037    64.835025    37598.716 
19980000   -193316.18    1.7188392 -0.0013287924     72.78588    64.964323    64.813328     37611.48 
19985000    -193204.4    1.6697874 -0.0010256823    73.141017    64.650231     64.72047    37624.209 
19990000    -193501.1    1.6510724 -0.0006106643    73.079293    64.433971    64.494426    37636.959 
19995000   -193373.86    1.7049333 0.0028160207    73.203329    64.465809    64.097181     37649.81 
20000000   -193728.07    1.6565312 0.0037365102    72.056161    65.235048    63.871796    37662.629 
20005000   -193677.42    1.6941711 -0.0011804385    72.664291     65.05589    64.158509    37675.436 
20010000    -193654.2    1.7149581 0.0018915367    73.381451    64.444279    64.569532    37688.184 
20015000   -193582.71    1.7024217 0.0046396603    73.318287    63.901847    65.028822    37700.885 
20020000   -193740.13    1.6742042 0.0035953762    72.207251    64.136549    65.039261    37713.659 
20025000   -193953.22    1.7005592 0.0017104631    71.995993    64.146439    64.952572    37726.442 
20030000   -193800.32    1.6671287 -0.0059905829    72.130317    64.450106    65.232192    37739.203 
20035000   -193526.93    1.6758451 -0.0026579035    73.134592    64.338436    65.130345    37751.952 
20040000    -193912.4    1.6965302 0.00095394464    72.855861    63.994414    65.246644    37764.722 
20045000   -193781.34    1.7448828 -0.0014750707    72.604446    64.475937    64.935377    37777.509 
20050000   -194008.82    1.7039516 0.00031101064    72.230617    64.616685    64.581252    37790.261 
20055000   -193729.22    1.6378356 -0.0024629721    72.176463    64.875481    64.278247     37803.07 
20060000   -193825.48    1.7228614 -0.0021667279    71.616367    64.767866    64.697725    37815.928 
20065000   -193599.18    1.7100484 9.1629204e-05     72.29868    64.260525    64.818211    37828.773 
20070000   -193626.86    1.6721162 -0.00015432758    72.249158    64.471072    64.837894    37841.571 
20075000   -193441.69     1.755663 -0.0057484111    72.562397    64.537239    65.028853    37854.329 
20080000   -193780.41    1.7281029 0.00010696718    71.539338    64.710849    64.934466    37867.143 
20085000   -193804.48     1.723787 0.00014021904    72.508797    64.729828    64.584227      37879.9 
20090000   -193714.56    1.7195384 -0.0037999856    72.531714    64.914936    64.581211    37892.641 
20095000   -193861.53    1.7464501 -1.2265492e-07    72.225332    64.692096    64.556453     37905.36 
20100000   -193797.94    1.7415183 0.00084911998    72.393655    64.368781    64.612034    37918.126 
20105000   -193644.49    1.6872969 -0.0035258836    71.776911    64.384429    65.086543     37930.93 
20110000   -193491.29    1.7302405 3.8065166e-05    72.034465    63.957064     65.38022    37943.756 
20115000   -193300.25    1.7292432 0.00046716259    72.621001    64.344216    65.535121    37956.503 
20120000   -193302.01    1.7198729 0.0031936234    72.690434    64.699982    64.685433    37969.218 
20125000   -193498.25     1.690427  -0.00106822     72.12355    64.589574    65.113146    37981.971 
20130000   -193820.04    1.6444138 0.0022758961     71.11349     65.17075    64.319763    37994.801 
20135000   -193849.99    1.7117931 0.00036517649    71.865404    65.058313     64.42209    38007.631 
20140000   -193661.87    1.7000312 0.0048804839    72.454153    64.391768    64.850638    38020.443 
20145000   -193532.98    1.7122471 0.0030293286    72.549455    64.575577    64.545108    38033.213 
20150000   -193950.02    1.7823467 0.0019245234    72.472999    64.642158    64.499934    38046.004 
20155000   -193633.87    1.7340685 -0.0017212839    72.635442    64.837018    64.644487     38058.81 
20160000   -193384.17    1.7339497 0.0030060026    72.966561    64.908086    64.048332    38071.549 
20165000   -193639.26     1.703555 0.0014814601    72.574751    65.320818    63.521581    38084.314 
20170000   -193764.48    1.7197514 0.0018887319    71.631754    65.254347    64.154555    38097.144 
20175000   -193392.34    1.7298991  0.004031871    72.251997    64.984393    64.499868    38109.933 
20180000   -193742.01    1.7133028 0.00025492844    72.195196    64.263396    65.057181    38122.697 
20185000   -193796.69    1.6929174 0.0013297548     72.03403    64.520847    64.973997    38135.474 
20190000   -193531.82    1.6777352 0.0054911709    72.469247    64.211109    64.900127    38148.245 
20195000   -193643.68    1.6957944 0.00013917399    72.080462    64.654998    65.216747     38161.01 
20200000   -193423.17    1.7028278 -0.0023879418    72.733927    64.752037    64.912112    38173.765 
20205000   -193230.18    1.6757714 0.00086384078    73.315241    65.056846    64.593893    38186.473 
20210000   -193501.66    1.6980171 -0.0038993642    72.831441    65.127834     64.67017    38199.171 
20215000   -193896.03     1.641317 0.0010135421    72.288262    64.901792    64.529293    38211.887 
20220000   -194052.83    1.6780038 -0.00083573067    71.704358    64.422639    65.019801    38224.697 
20225000    -194086.1    1.6825327 -0.00090549015    71.242433    64.222032    65.395371    38237.533 
20230000   -193519.22    1.6791824 0.0028197897    72.229117    64.289603    64.671291    38250.346 
20235000   -193056.77    1.7441493 0.0040975018    73.349223    64.322902    64.852444    38263.089 
20240000   -193291.41    1.7297698 -0.0027903256    73.064126    64.891687    64.696645    38275.847 
20245000   -193791.86    1.6441505 0.0013838413    72.068892    65.043441    64.409685    38288.595 
20250000   -193793.23    1.6767678 0.0023194509    72.476976    64.492162    64.660662    38301.367 
20255000   -193259.86    1.7022694 -0.000186492    73.027196    64.273657    65.264864    38314.112 
20260000   -193423.91    1.6562633 -6.2486964e-05    72.547081    64.743986    64.499788    38326.849 
20265000   -193852.31     1.655553 0.00068400427    72.339609     64.56662    64.297146    38339.621 
20270000   -193668.44    1.6623384 -0.0012767875    73.035296    64.518101    64.321394    38352.379 
20275000   -193853.29    1.7183244 2.7858855e-05    71.842939    64.809721    64.523011    38365.128 
20280000   -193682.05    1.7104604 0.0032700331    71.862242    64.585813    64.787683    38377.959 
20285000   -193525.05    1.6984566 0.0009868095    72.162731     64.41692    64.780734    38390.761 
20290000   -193644.04    1.6917978 -0.0026128264    72.074369    64.563981    64.995157    38403.541 
20295000   -193712.79    1.6990376 -0.0022395769      72.5118    64.729378     64.74117    38416.343 
20300000   -193893.76    1.7032532 0.00028783901    72.633337    64.439945    64.927193    38429.067 
20305000   -193933.93    1.6622792 6.8443555e-05    72.524225    64.576066    64.412769    38441.839 
20310000   -193732.91    1.7247062 -0.0037542457    72.372553    64.971778    64.526714    38454.582 
20315000   -193455.19    1.6957754 -0.00046808099    72.562117    65.153748    64.592272    38467.388 
20320000    -193341.3    1.6778079  0.002426747    73.159391    64.936286    64.635595    38480.097 
20325000   -193544.77     1.690058 -0.00088369402    71.554461    65.549542    64.488262    38492.842 
20330000   -193483.17    1.7109145 -0.00028225885      71.5559     65.23397    64.768915    38505.624 
20335000   -193462.58    1.7395196 0.0037809465     71.53094    65.091526    64.932377    38518.426 
20340000   -193222.66    1.6664816 0.0016943332    72.368648    64.445609    65.195622    38531.166 
20345000   -193656.41     1.717404 -8.5728208e-05    71.022824    64.792939     65.11558    38543.969 
20350000   -193551.58     1.692389 -0.0025961191    71.646189    64.184675    65.323563    38556.806 
20355000   -193249.78    1.7478447 0.0043536417    71.984349     64.37456    65.303299    38569.633 
20360000   -193290.47    1.6649863 0.0020825581    72.405078    64.842141    64.750143     38582.34 
20365000   -193069.25    1.6688967 -0.0021008479    72.946186    65.035281    64.803781    38595.056 
20370000   -193398.79    1.6655582  0.005184443    73.391294    64.933327    64.117215    38607.775 
20375000   -193219.35    1.6861579 0.00030730661    73.644955    64.526929    64.948232    38620.453 
20380000   -193261.79    1.6532452 0.0019990208    72.912594    64.464453    64.893992    38633.196 
20385000   -193638.02    1.7393186 -0.00054339017    71.852194    64.526319     65.06229    38645.918 
20390000    -193825.1    1.7270913 0.0023985285     72.29676    64.757188    64.645765    38658.747 
20395000   -193638.75    1.6857386 0.0019068195    73.026649     64.53344    64.751277    38671.548 
20400000   -193222.18     1.709123 -0.002612813    73.048767    64.691687    65.113422    38684.306 
20405000   -193006.48    1.7138527 -0.00066903798    73.496995    64.761167    64.985904    38696.992 
20410000   -193360.34     1.722349 -0.0031345023    72.441083    65.181386    64.350458    38709.765 
20415000   -193711.16    1.7057135 -0.0024458974    72.788424    64.587329    64.586432     38722.57 
20420000   -193716.29    1.7295786 -0.0026759316    72.096809    64.671251     65.01358    38735.338 
20425000   -193524.07    1.6625525 0.0026803423    72.197216    64.921343    64.886947    38748.152 
20430000   -193305.27    1.7112251 -0.0034373079     73.12301    65.320089    64.661639    38760.886 
20435000   -193011.28    1.6665264 0.0035804792    73.734229     64.84954    64.503807    38773.572 
20440000   -193044.35     1.694518 0.0054756113     73.29845    64.376418    64.918963    38786.294 
20445000   -193153.35    1.6778121 -0.00060208516    72.329765    64.550893    65.545924    38798.983 
20450000   -193346.83    1.7156111 -0.0024533179    73.118148    64.555691     65.13795    38811.681 
20455000   -193515.57    1.6794143 0.0036860726    73.716244    64.391172    64.231158    38824.398 
20460000   -193414.11    1.7506642 -0.0011058235    73.169778    64.877669    64.171748    38837.126 
20465000   -193838.73    1.6804062 0.0035228711    71.300901    64.669436    64.655589    38849.898 
20470000   -193647.46    1.6951271 -0.00024259991    71.796818    64.256235     65.28031    38862.728 
20475000   -193623.43    1.6532547  0.003189998    72.610705    64.037399      65.0003    38875.551 
20480000   -193996.24    1.6744554 -0.0033368522    71.557874    64.356853    65.088612    38888.412 
20485000   -193652.21    1.7064104 0.00049080402    72.328769    64.524489    64.817435    38901.228 
20490000   -193668.91    1.6728576 0.0011730986    72.030004     64.77852    65.110854    38914.032 
20495000   -193678.39    1.7258246 0.0025800277    71.942463    65.059201    64.478902    38926.837 
20500000   -193937.43    1.7609272 0.0015612913    71.573681    64.675398    64.745966    38939.641 
20505000   -193912.15    1.6789334 -0.00097407213    71.586849    65.193006    64.293015    38952.483 
20510000   -193768.49    1.7704621 0.0031125393    71.804596    65.513765    64.140442    38965.296 
20515000   -193431.93    1.7198506 0.0021948076    71.680823    65.562167    64.555523    38978.072 
20520000   -193618.39    1.6709164 0.0023918304    71.707821    64.611254    65.007247    38990.835 
20525000   -194121.73    1.7016677 0.0033326686    71.433102    64.643777    64.797297    39003.667 
20530000   -193622.41    1.7251083 0.00035977943    72.543445    64.836125     64.79813    39016.437 
20535000   -193620.54    1.7014576 -0.00027998191    72.043578    65.448457    64.315489    39029.168 
20540000   -193752.28    1.7016204 0.0025728732    71.689519    65.265588    64.528809    39041.925 
20545000   -193790.96    1.6529248 -0.0030126077    71.636912    64.858854    65.185181    39054.726 
20550000   -194113.12     1.681171 0.0055256784    70.884837    64.962896    64.721244     39067.49 
20555000   -193333.93    1.7425554 -0.00083990446    71.687494    65.173347    64.969948    39080.262 
20560000    -193862.1    1.7127489 0.0045575452    71.674067    64.888924    64.809981    39093.009 
20565000   -193415.06    1.6925467 0.00039183506    72.589888    64.771037    64.920539    39105.758 
20570000   -193578.94    1.6346285 -0.00052343084     72.43641    64.623296    65.027551    39118.558 
20575000   -193470.33    1.6897354 -0.00028087996    72.458015    64.549312    65.178904    39131.318 
20580000   -193422.32    1.7207038 0.0045901796    71.630808    64.703086    64.898297     39144.11 
20585000   -194039.28    1.7066313 0.0010630865    70.870893    64.735776    64.764823    39156.945 
20590000   -194405.71    1.6870637 0.00041782551    70.286223    64.641883    64.936003    39169.787 
20595000   -193930.94     1.755171 0.00050275537    71.933578    64.704791     64.60591    39182.654 
20600000   -193395.56    1.6730037 -0.0029450447    72.826924    64.486557    65.237471    39195.392 
20605000   -193491.13    1.7143424 0.0041607654    72.289314    65.022946     64.87611     39208.11 
20610000   -193395.07     1.691537 0.00025822965     71.75949    65.137612    65.046547    39220.849 
20615000   -193433.29    1.6869586 -0.0015229829    71.515228    64.995276    65.360652    39233.638 
20620000   -193289.16    1.7148843 -0.0023058853    72.802329    64.756856    64.998944    39246.364 
20625000   -193505.76      1.69013 0.0010530586    71.964084    64.456756    65.300221     39259.14 
20630000   -193488.14    1.6927864 0.0038684631    72.168749    64.190911    65.233661    39271.931 
20635000   -193308.91    1.7355725 -0.0013316885     73.30686      64.2929    64.773265    39284.705 
20640000    -193379.9    1.7137288 -0.00028928451    73.370549    64.389732    64.560372    39297.506 
20645000   -193539.25    1.6847736 -0.0016233349    72.827271    64.360661    64.863796      39310.3 
20650000   -193484.18    1.7265085 0.0028900621     73.05985    64.190048    65.000015    39323.049 
20655000   -193553.36    1.6960197 0.00092686475    72.607962     64.46816    65.052656    39335.772 
20660000    -193081.8    1.7244765 -0.0019476298    73.553492      64.6179    64.891873    39348.507 
20665000   -192997.61    1.7519746 -0.0055876612    73.643262    64.103014    65.345549    39361.247 
20670000   -193181.24    1.7126853 -0.0037298672    72.203062    64.070762    65.606302    39373.971 
20675000   -193681.17    1.7122403 0.0011249691    72.051609    64.162434    65.368657    39386.735 
20680000   -193511.62    1.7262307 0.00036579186    73.410823    64.425979    64.919412    39399.463 
20685000      -193291    1.6310736 0.0053194006    73.099596    64.713868    64.717841    39412.135 
20690000   -193673.85    1.6927838 -0.0028862199    72.114369    65.009434    64.916162     39424.87 
20695000    -193413.7    1.7231184 0.0022174853    72.211301    64.779072    64.718713    39437.579 
20700000   -193352.76    1.7052006 -0.0021973764    71.836717     64.87024    65.144258    39450.316 
20705000   -193379.79    1.6548374 -0.00074998322    72.494466    64.461819     65.05546    39463.072 
20710000   -193470.67    1.6833815 0.00038167738    72.356967    64.138204    65.539684    39475.773 
20715000   -193015.29    1.6931728 -0.0014296755    73.937028    64.171377     65.02763    39488.491 
20720000   -193166.98    1.7179998 -0.006889574    73.712977    64.293255    65.211367    39501.175 
20725000   -193772.41    1.7076439 0.0004807446    72.219238     64.40955    65.165836    39513.901 
20730000   -193905.01    1.6729336 0.00040487782    72.140923    64.726586    64.740775    39526.679 
20735000    -193716.6    1.6638431 -0.0025959668    71.515093    65.148586    65.065118    39539.458 
20740000   -193171.74    1.7229447 -0.0014389723    72.863489    65.015358    64.751789    39552.226 
20745000   -192818.49    1.7304167 -0.00087625359    73.344404    64.468977    64.762022    39564.938 
20750000   -193072.72    1.6591965 -0.0023044764    72.216179    65.480139    64.326028    39577.661 
20755000   -193636.01    1.7129648 -0.0037374962    72.597953    65.186779    64.464744    39590.428 
20760000   -193602.73     1.699214 -0.00019925318    73.233988    65.410124    63.864681    39603.134 
20765000   -193674.69    1.6831661 0.0024865282    71.891961    65.280029    64.501122    39615.896 
20770000   -193534.66    1.7205904 -0.0011167044    71.894426     65.35475    64.560791    39628.723 
20775000      -193548    1.7129963 -0.0018203511    72.129343    65.035736    64.620121    39641.506 
20780000   -193105.45    1.7221292 -0.0030353999    72.472016    65.124098    64.904525    39654.277 
20785000   -193313.27    1.6978801 0.00093259868    72.739855    64.791312    64.644612    39666.973 
20790000   -193708.61    1.7356592 -0.00063090859    72.815061    64.802208    64.693337    39679.722 
20795000   -193819.48    1.6730128 0.0050221268    72.350055    64.556766    64.984082    39692.447 
20800000   -193395.96    1.7092605 0.0031574846    73.229612    64.638891    64.745215    39705.142 
20805000   -193716.62    1.7382999 0.0010992989     72.48829    64.164239    65.034642      39717.9 
20810000   -193658.43    1.6947129 -0.0025813699    72.356416     64.45774     65.28194    39730.629 
20815000   -193543.75    1.7266505 -0.00013213255    73.442889    64.448983     64.60027    39743.405 
20820000   -193510.02    1.7297039 -0.005635264    73.092151    64.880172    64.746307    39756.164 
20825000   -193762.16    1.7127962 0.0014698981    72.529134     64.58382    64.851715    39768.898 
20830000   -193452.67    1.7326231 0.0026635616    73.557941    64.417697    64.466227    39781.631 
20835000   -193294.44    1.7375512 0.0034754563    73.595424    64.487707    64.448511    39794.364 
20840000   -193314.48    1.6942488 -0.0014346768    72.949937    64.854039     64.59385    39807.083 
20845000   -193256.89    1.6904534 0.0047421846    72.442134    64.918787    64.526488    39819.788 
20850000   -193596.65    1.7453759 -0.0032081695    72.203515     64.72969    64.986046    39832.535 
20855000   -193819.17    1.6624368 -0.00034120657    71.908387    64.683701    64.738214    39845.294 
20860000   -193661.42    1.7698731 0.0039797301    71.580649    65.164358    64.665332    39858.112 
20865000   -193645.94    1.6728054 0.0019134051    72.148745    65.299526    64.385493    39870.877 
20870000   -193483.77    1.6669288 -0.0024667704     72.13685    65.321066    64.295494    39883.677 
20875000   -193687.34    1.7034039 0.00036310448    71.689617    65.041418    64.581241    39896.434 
20880000   -193910.11    1.6348365 0.0037928721    71.018193    65.097125    64.278216     39909.28 
20885000   -193630.99    1.6885673 -0.0013600134    71.607108    64.717079     64.85048    39922.089 
20890000   -193374.14    1.7140596 -0.00061554948    72.393806    64.732224    64.669236    39934.928 
20895000   -193567.66    1.6963111 0.0002521204    72.065025    64.978821    64.622173    39947.692 
20900000    -193914.7    1.6806208 0.00031886124    71.789318    64.465259    64.931629    39960.442 
20905000   -193694.87    1.7288253 -0.0021028521    71.566014    65.034013    65.020118    39973.243 
20910000   -193556.05    1.7077484 -4.3872631e-05     71.28564    65.206982    65.181212    39986.015 
20915000   -193649.43    1.6957468 0.0028604355    71.473137    64.843489    65.038808    39998.799 
20920000   -193493.98      1.73122 0.00084086789    72.334299    64.923457     64.54285    40011.561 
20925000   -193129.31    1.6672773 0.00041013488    73.217854    65.502439    63.983662    40024.301 
20930000   -193101.91     1.682406 -0.00021807421    73.117633    65.456607    64.236439    40037.013 
20935000   -193490.47    1.7101829 -0.0038481347    72.460781    64.562325    64.978807    40049.737 
20940000   -193649.26    1.7362939 -0.00018033966    72.100469    64.500236    65.040462    40062.474 
20945000   -193514.64    1.7821129  0.001215786    72.871981    64.616463     64.75747    40075.213 
20950000   -193193.16    1.7385253 0.0032925361    73.587322    64.698596    64.378053    40087.942 
20955000   -193454.02    1.6803458 0.00043148754    72.810933    65.332873    64.120032     40100.68 
20960000   -193679.04    1.6965247 0.0020671787    72.462468     65.18324    63.885725    40113.413 
20965000   -194038.98     1.674731 0.00070291304    70.969661    65.234276    64.283578    40126.212 
20970000   -193779.33    1.6994885 0.0029506329    71.990525    64.897368     64.47257    40139.057 
20975000   -193704.09    1.6807421 -0.0028433783    73.066146    64.400907    64.726006    40151.827 
20980000   -193277.69    1.6709638 0.00091331714    73.459688    64.398445    64.816677    40164.586 
20985000   -193346.01    1.7228555 0.0043177082    73.011935    64.629468    64.556512    40177.296 
20990000   -193085.12    1.6645031 0.00077051733    73.113316    65.052112    64.482454    40190.017 
20995000   -193159.38     1.688497 0.00022439327      73.1487    64.372282    64.960975    40202.762 
21000000   -193306.71    1.7137798 0.0011820939     72.33895    64.776275    64.833197    40215.528 
21005000   -193240.64    1.6640147 -9.7016494e-05     72.92835    64.253569    65.029711    40228.284 
21010000   -193680.01    1.7504162 -0.00053074077    72.525362    63.881159    65.395513    40241.048 
21015000   -193491.95    1.6934418 0.0014705021    72.736798    63.785094    65.410542    40253.769 
21020000   -193358.22    1.7683341 -0.00097248595    73.638099    64.438607    64.904153    40266.517 
21025000   -193320.47    1.6798089 -0.00062655649     73.13145    64.475002    64.965445    40279.232 
21030000   -193777.44    1.6922463 0.00068250277    71.985809     64.64992    64.991147    40291.953 
21035000    -193760.7    1.7343235 0.0026002534    71.547856    64.045454    65.381429    40304.729 
21040000   -193457.08    1.7082564 -0.0018008923     71.86585      64.5671    65.344129    40317.568 
21045000   -193460.87    1.7314005 0.0040593225    72.907475    64.073544    65.203503    40330.296 
21050000   -193205.72    1.6986207 -0.001466642    73.917668    64.153077     64.93474    40343.056 
21055000      -193506    1.7309095 -0.001685998    73.745265    64.070857     64.74741    40355.802 
21060000   -193560.97    1.7278938 -0.0014197551    72.614247    64.534867    65.007027    40368.542 
21065000   -193457.76    1.6866508 0.0011420739    72.698981    64.391749    64.984813    40381.269 
21070000   -193370.05    1.7278049 0.0030464318    72.306772    64.494113    65.211841    40393.961 
21075000   -193326.52     1.708634 -0.00034307355     73.06861    64.202668    65.240974    40406.713 
21080000   -193503.63    1.6857528 -0.0021434348    72.411286    64.501351    65.352819    40419.485 
21085000   -193555.53     1.731534 -0.0011916939    71.966883    64.441484     65.28593     40432.25 
21090000   -193775.72    1.7221301 -0.0010075187    72.372777    64.927862    64.587501    40445.046 
21095000   -193201.93    1.6476691 -0.0017062835    72.870587    64.703461    65.029881    40457.777 
21100000   -193085.57    1.7093173 -0.00057679765    72.450132    65.024228    65.023858    40470.508 
21105000   -193490.15    1.6858479 0.0065045123    71.566425    65.059475     64.53653    40483.285 
21110000   -193636.64    1.6633051 0.0056764009    71.880759    65.142456    64.178198     40496.02 
21115000   -193756.21    1.7176461 -0.0015504033    72.635347     65.16623    63.997087    40508.811 
21120000   -193530.63    1.7187817 -0.0012080768    73.367855    64.244173    64.575704    40521.572 
21125000   -193065.87    1.7087328 0.00015482879    74.401032    63.981018    64.930226    40534.287 
21130000   -193181.45    1.6880506 0.0043701839    73.994819    64.003917    64.912306    40546.962 
21135000   -193345.15    1.7425214 0.00073229587    73.524696    64.304896    64.991155    40559.661 
21140000   -193556.65    1.6383616 0.0013643633    72.885312    64.377465    65.192621    40572.354 
21145000   -193187.38    1.7131414 0.0022881289    74.262694    63.847568    65.178204    40585.118 
21150000   -193293.28    1.6867756 -0.0018858909    73.259521    64.230599    64.996169    40597.803 
21155000   -193280.73    1.6685458 -0.00066989333    72.461081    64.893516    64.744399    40610.556 
21160000   -193878.43    1.7441416 -0.0034315976    72.479147    64.451903    64.577078     40623.31 
21165000   -193554.23    1.6461932 0.00084379105     73.19866    64.584657    64.428739    40636.073 
21170000   -193451.94     1.729359 -0.0011300578    73.178106    64.379003    64.612793    40648.845 
21175000   -193323.86    1.6812833 0.0060250568    73.233223    64.349482    64.592917    40661.539 
21180000   -193362.17    1.6670245 -0.0041477173     72.99448    64.325323    65.143917     40674.24 
21185000   -193634.64    1.7183218 0.0028082624    72.358773    64.450751    64.789656    40686.972 
21190000   -194080.31    1.7326083 -0.0011540144    71.561676    65.007505    64.504694    40699.804 
21195000   -193764.59    1.7043882 -0.00066126201    72.440695    65.140652    64.138958    40712.604 
21200000   -193400.93    1.6991352 0.0016384031    73.261709    64.828556    64.538608    40725.274 
21205000   -193244.34    1.7281176 0.0018686972    72.093179    64.893314     65.05644    40738.027 
21210000   -193248.24    1.6312753 0.0019292709    72.142944    64.895859    64.855206    40750.782 
21215000   -193771.04    1.7191743 -0.00014627109    71.706171    64.567645    64.932288    40763.554 
21220000   -193411.78    1.7118164 0.00016708672    72.257318     64.63022    65.024267    40776.367 
21225000   -193574.53    1.6634743 -0.00030607309    72.846335    64.688728    64.383315    40789.167 
21230000   -193283.96    1.6693613 -0.002082531    73.179419    64.562639    64.526394    40801.901 
21235000   -193404.21    1.6938803 -0.0028373563    73.396412    64.762708    64.340133    40814.641 
21240000   -193836.93    1.7269431 -0.0029995825    71.856409    64.994683    64.538782    40827.412 
21245000   -193962.23    1.7223515  0.001130206    71.308617    64.522036    65.264493    40840.185 
21250000   -193898.46    1.7216334 0.0042795349    72.008437    64.685458    64.454366    40852.963 
21255000   -193684.13    1.7021192 -0.0013862613    72.495427    64.920372    64.395515    40865.703 
21260000   -194090.14    1.6588538 0.0012575417    72.284495    64.810642    64.278221    40878.461 
21265000   -193715.69    1.6536116 -0.0014304833    72.356303    64.736741    64.569369    40891.213 
21270000   -193664.22    1.6706192 0.00091078031    72.281785    64.817192    64.512803    40904.008 
21275000   -193373.08    1.6612214 -0.003141847    72.919227    64.808736    64.618859    40916.734 
21280000   -193553.39    1.6979858 6.0594691e-05    73.556584    64.578189    64.283495      40929.5 
21285000   -193657.12    1.7040735 -0.0048312182      72.2174    64.493863    65.174191    40942.241 
21290000   -193792.94    1.7145956  0.001776879    72.432973     64.43341    64.589789    40955.049 
21295000   -194221.96    1.6670626 0.0010415124    71.388408     64.52337    64.486333    40967.875 
21300000   -194127.01    1.6606993 0.00025173881    70.976575    64.635649    64.912965    40980.713 
21305000   -194181.12    1.6563364 -0.0017008374    70.505603    65.208197    64.783015    40993.536 
21310000   -193789.67    1.7059466 -0.0020054033    71.479324    64.781527    64.919138    41006.362 
21315000    -193353.3    1.7158135 0.0010559282    72.736709    64.644406    64.846185     41019.16 
21320000   -193356.31    1.7408513 -0.0019933532    72.725031    64.457748    64.828854    41031.929 
21325000   -193406.76    1.7175308 -0.0035387405     72.47648    64.915856     64.52952     41044.72 
21330000    -193412.5    1.6911446 -6.2472541e-05    72.436827    64.874701    64.736244    41057.508 
21335000   -193427.17    1.7107021 -0.0001915839    72.983808     64.18297    64.983345    41070.247 
21340000   -193724.25    1.6745142 0.00049551803    72.605519    64.017158     65.02344    41083.028 
21345000   -193771.08      1.74319 0.0030307762    72.428454    63.923915    64.941782    41095.873 
21350000   -193637.81    1.7068011 -0.00062092588    72.872193    64.806287    64.294819    41108.657 
21355000   -193712.01    1.6620074 -0.00033303266    72.844226    64.526618    64.722019    41121.427 
21360000   -193396.17    1.6499787 -0.0019666742     72.51796    64.552286    65.069306    41134.212 
21365000   -193828.52    1.6964084 -0.0027169035    71.879954     64.71975    64.965908    41146.967 
21370000   -194142.48    1.6611449  0.001581704    71.915567    64.626838    64.682131    41159.813 
21375000   -193713.42    1.7116108 -4.686831e-05    71.468853    65.142735    64.559752    41172.643 
21380000   -193412.16    1.7371627 0.0025326571     71.04244    65.041458    65.109831     41185.41 
21385000   -193584.98     1.669204 -0.003026358    72.074305    64.606088    64.831281    41198.212 
21390000   -193439.47    1.7084373 0.00021670402    72.497108    64.343896    65.133141    41210.973 
21395000   -193259.37    1.7262551 0.00066377884    73.100655    64.595413    64.715897    41223.701 
21400000   -193642.47    1.7080996 -0.000618397    72.803666    64.788863    64.320399    41236.452 
21405000   -193907.85    1.7420842 0.00024511104    72.477797    64.548767    64.263054    41249.296 
21410000   -193963.23    1.7185168 0.0012718271     71.82393    64.283886    64.925228    41262.088 
21415000   -193859.26    1.7141559 -0.0049957954    71.695548    64.552155    65.301341    41274.854 
21420000   -194242.71    1.6600877 0.0011074162     71.24886    65.014376    64.458682     41287.67 
21425000   -193882.52     1.680799 -0.0011878979    71.340351    65.671278    64.176328      41300.5 
21430000    -193338.9    1.6850215 -0.0011449455     73.08944    64.956385    64.390272    41313.249 
21435000   -193443.97    1.6973093 -0.0017688137    73.489869    64.279638    64.910033     41325.95 
21440000   -193712.99    1.7182134 0.00033084827    72.087779    64.727555    65.081814    41338.706 
21445000   -193505.65    1.6459962 0.00066911297    72.771394    64.674814    64.695727    41351.406 
21450000   -193636.87    1.6862063 0.00045610838    72.987496    63.956071    64.974861    41364.135 
21455000   -193783.71    1.7369806 -0.00081127755    72.078824    64.313631    64.978392    41376.885 
21460000   -194026.56    1.7557266 -6.2379939e-05    70.921652     64.86379    65.018675    41389.687 
21465000    -193847.7    1.6884646 -0.0022423235    71.802886    64.452559    65.120026    41402.492 
21470000   -193481.58    1.6648841 -0.0027163331    73.130428    64.599129    64.685987    41415.214 
21475000   -193423.86    1.6577178 -0.0024017323    73.450053     64.98444    63.896073    41427.983 
21480000   -193531.57    1.7019781 0.00086794244    72.806484    64.834224    64.218407    41440.688 
21485000   -193634.49     1.733016 -0.0030769709    73.450778     64.66529    64.200379    41453.423 
21490000   -193717.23    1.7632943 0.0014773636    72.590181    64.482603    64.724523    41466.147 
21495000   -194056.16     1.665298 0.00063628995    71.492346    64.364943    65.079707    41478.949 
21500000   -194068.31    1.7507752 0.0010925022    71.425027    64.816531     64.86322     41491.76 
21505000   -193740.37    1.7311505 0.0041825626    72.177478    64.636124     64.39335    41504.559 
21510000   -193286.14    1.7448486 -0.0016779301    72.658027     65.24362    64.269471    41517.349 
21515000    -193252.7    1.6709113  -0.00211452    73.599899    64.720743    64.599164    41530.064 
21520000   -193379.58    1.6590865 0.0040488261    72.509805    64.720423    64.815498     41542.82 
21525000   -193218.43    1.6965875 0.00068418799    72.651322    64.514861    65.163938    41555.591 
21530000   -193058.65    1.6376323 -0.0026734616    72.898648    64.616196    65.231039    41568.341 
21535000   -193242.19    1.7563348 -0.0014619114    73.328139    64.659631    64.925289    41581.066 
21540000   -193592.94    1.7120972 0.00083809672    72.736743    64.687579    64.661338    41593.775 
21545000   -193901.19    1.7522027 0.0018752172    72.602897       64.372    64.288813    41606.565 
21550000   -193185.41    1.7283755 7.3887264e-05    73.553636    64.570624    64.552714    41619.355 
21555000   -193026.16    1.7139896 0.0029298325    73.255938    64.165729    65.202705    41632.067 
21560000   -193241.95    1.7332505 -0.003009186    72.197466     64.50218    65.129963     41644.84 
21565000   -193738.48    1.6735235 -0.0012771995    71.948293    64.806084    64.474828    41657.611 
21570000   -193824.28    1.7196627 -0.0022492343    72.002803    64.685718    64.588659    41670.422 
21575000   -193482.65    1.7163193 0.0022854346    72.355311     65.05066    64.252367    41683.221 
21580000   -193592.18    1.6964746 0.0024131818    71.447955    65.268436    64.443255    41696.044 
21585000    -193579.3    1.6936036 -0.0025796824    72.836992    65.031326    64.540329    41708.801 
21590000    -193634.9    1.7196068 -0.0020015075    71.983151    65.525299    64.616723    41721.541 
21595000   -193226.24    1.7247004 0.0030586737    72.766361    65.446575     64.19046    41734.275 
21600000   -192840.96    1.7314534 -0.0010991887    73.295055    65.186538     64.72208    41747.003 
21605000   -192916.73    1.6962573 -0.00014837839     73.75805    64.395573    65.206931    41759.657 
21610000   -193262.88    1.6874272 -0.0035843277    73.654902    64.553589    64.894267     41772.39 
21615000   -193554.26    1.6752969 0.00030739769    72.055727    64.509644    65.233012    41785.135 
21620000    -193712.5    1.6612843 0.00041810695    71.596614    64.809779    65.149887    41797.919 
21625000   -193446.36    1.7139844 -0.00014748319    72.566135    64.710012    65.115267    41810.716 
21630000   -193397.71     1.704505 -0.0031015222    73.242872    64.354432    65.052982    41823.462 
21635000   -193287.16     1.686847 0.00040245862    72.594647     64.37476    65.317799    41836.196 
21640000    -193393.9    1.6720587 -0.0017458223    71.927513    64.865703    65.350548    41848.948 
21645000   -193471.32    1.7124822 0.0015521266     71.70615    64.845684    65.009809     41861.71 
21650000   -193759.52    1.6414494 -0.00059630784    71.671136    65.466964     64.52537    41874.529 
21655000   -193774.27    1.7456343 -0.001458016    71.629556     65.13188    65.102448    41887.319 
21660000   -193579.61    1.7210136 0.00076187269    72.730315    64.459745    64.933104    41900.075 
21665000   -193535.54    1.6965091 -0.00082440598    72.326042    64.734616     64.72727    41912.851 
21670000   -193580.54    1.7030593 0.0010261712    71.675549    65.402794    64.571592    41925.641 
21675000   -193620.49    1.6975921 0.0028335229    72.340638    64.984987    64.281536    41938.461 
21680000   -193353.42    1.7012789 -0.0014664274    71.635128    65.585482    64.292221    41951.226 
21685000   -193630.74    1.7832444 0.00034478195    72.203592     65.04147    64.486661    41964.075 
21690000   -193403.82    1.7191459 0.0017863508      72.9868    64.303678    65.156429    41976.873 
21695000   -192933.86    1.6748184 0.00054747385    73.741176    64.467408    65.147958    41989.595 
21700000   -193310.69    1.7251935 -0.0059418707    73.144814    64.380165    65.480331    42002.324 
21705000   -193528.25    1.7323309 0.00082633058    72.632833    64.992892    64.640561    42015.049 
21710000   -193266.54    1.7065009 -0.0023059283    72.783872    65.300104    64.212062    42027.763 
21715000   -193275.14    1.6833377 -0.0011143714    72.176603    65.118327    64.824593    42040.545 
21720000   -193305.47    1.6774957 -0.0014064005    72.489535    64.892971    64.708578    42053.251 
21725000   -193625.49    1.6830169 -0.00024893365    72.668723     65.03096    64.245716    42065.983 
21730000   -193270.16    1.6384907 0.0032753577      72.4845    64.841012    64.594063    42078.757 
21735000    -193237.7    1.7026416 0.00019944255     72.68042    65.052148     64.61738    42091.519 
21740000   -193860.85    1.7080301 0.00039884483    71.716849    64.450785    65.128867    42104.268 
21745000   -193938.31    1.7234987 -0.0038443618    72.613909    64.325114    65.144026    42117.078 
21750000   -193322.08    1.6610289 -0.0011937844    73.119087    64.440382    65.059087    42129.794 
21755000   -193758.92    1.7089815 0.0022122484    72.608708    64.633881    64.966886    42142.505 
21760000   -193799.74    1.6695484 0.00050258819    73.017259    64.734569    64.346399    42155.279 
21765000   -193557.99    1.6841948 -0.00056632773    72.806005    64.593026    64.593797     42168.03 
21770000   -193401.96    1.6889274 -7.5050365e-05    73.102968     64.33523    64.756373    42180.843 
21775000   -192883.76     1.682211 -0.0030677556    73.984298    64.191723    65.155533    42193.512 
21780000    -192942.6    1.7013458 -5.9831183e-05    73.254483    64.311719    65.074106    42206.263 
21785000   -193189.35    1.6599779 0.0029100863    73.443042    64.925441    64.281643    42218.955 
21790000   -193153.17    1.6987405 0.0010353242    74.577839    64.561884    64.399376    42231.657 
21795000    -192822.9    1.6998914 0.0037411392    73.794421    64.711753    64.688653    42244.306 
21800000   -193047.56    1.6622136 0.0007687924    72.956985    64.529603    64.651426     42256.99 
21805000   -193534.82     1.696175 0.0030156311    72.626815    64.342272    64.516604    42269.768 
21810000   -193563.36    1.7044105 -0.0029482118    72.770903    64.701779    64.677281    42282.534 
21815000   -193540.76    1.6802095 -0.00040059361    72.314425    64.655115    65.033203    42295.289 
21820000   -193214.69    1.7007786 -0.00016045783    73.197744    64.773746    64.795683    42308.039 
21825000   -193542.49    1.6769518 -0.0003928614    72.968207    64.482194    64.739674    42320.819 
21830000   -193697.73    1.6830383 0.00087109692    72.133109     64.91899    64.668651    42333.617 
21835000   -193418.15    1.6722884 0.00097225926    73.090299    65.379625    63.838297    42346.421 
21840000   -193482.67    1.7360251 -0.0022474213    72.644871    65.506497    63.819155    42359.135 
21845000   -193572.96     1.715497 -0.00023095828    72.814421    64.608952     64.51267    42371.906 
21850000    -193638.7    1.7401248 0.0017418653    72.516012     64.21746    65.023593    42384.742 
21855000   -193285.22    1.7310245  0.002446267    73.337569    64.734107    64.569821    42397.463 
21860000   -193360.02     1.723508 0.0026609907    72.389737    65.268756    64.288035    42410.179 
21865000   -193158.22    1.6996251 0.0037368053    72.941698     65.44561    64.107403    42422.895 
21870000   -193380.08    1.6946992 -0.0031761435    72.197272    65.634059    64.189063    42435.668 
21875000   -193336.18    1.7076188 -0.0020527245    72.356269    65.211011    63.960733    42448.478 
21880000   -193214.92    1.6699043 0.0023295088    73.125749    65.133388    64.023159    42461.242 
21885000   -193052.69     1.719782  0.003254713    73.051131    64.927104    64.694463    42473.956 
21890000   -193241.85    1.7133319 -0.00018401679    73.375959    64.404487    64.943792    42486.722 
21895000   -193272.43    1.6997334 -3.5764705e-05    73.293406    64.655059    64.539078    42499.499 
21900000   -193336.03    1.6670605 0.0014467954    72.172353    65.432394    64.267927    42512.289 
21905000   -193075.17    1.6838682 -0.0014162125    73.193097     65.43225    64.008237    42525.046 
21910000   -193172.21    1.7496857 0.0036330254    72.790971    65.487571    63.981872    42537.819 
21915000   -193658.79    1.7455506 0.0016138628    71.858016    65.295815    64.107052    42550.659 
21920000   -193231.92    1.7300792 -0.0028807647    73.392814    64.860345    64.816102    42563.431 
21925000   -192983.81    1.6851366 0.00083109821    74.590503    64.070295    65.202292    42576.172 
21930000   -193580.91     1.690603 0.00078972208    73.506733    64.054582     65.10042    42588.864 
21935000   -193820.68    1.6959762 7.4633682e-05     72.53047    64.282606     65.09185    42601.661 
21940000   -193377.87    1.6778433 -0.0021966289    73.810462     64.25537    64.788742    42614.367 
21945000   -193236.44    1.7267631 0.00075533284    73.737425    64.059979    64.804156    42627.128 
21950000   -193354.88    1.6742785 0.0033341729    72.638205    64.573733    64.640949    42639.836 
21955000   -192972.36    1.6990723 0.0016387786    72.764961     64.68111    65.139313    42652.563 
21960000   -193042.62    1.7067124 -0.0040538461    73.519274    64.442575    65.367151    42665.261 
21965000   -193103.36    1.7263138  0.006805097    72.980046    64.262409    65.182733    42677.931 
21970000   -193204.67    1.6788363 -0.00047478492    72.662078    64.259835    65.528167    42690.622 
21975000   -193179.98    1.6730503 0.00045558316    73.258671    64.484657    64.939943    42703.385 
21980000   -193130.36    1.6632555 -0.0010447062    73.402211    64.753644    65.042531    42716.072 
21985000   -193296.69    1.7235717 -0.0013875661     72.96664    64.718051    64.453514    42728.762 
21990000   -194037.21    1.6504831 -0.0019287226    71.570426    64.842139    64.510476    42741.525 
21995000   -194108.13    1.6780093 -0.0030214406    71.763933    64.882126    64.471624    42754.386 
22000000   -194040.34    1.7335869 -0.0023677787       72.301     65.11536    64.178315    42767.171 
22005000   -193605.96    1.7096371 0.00087075534    73.027493    65.051965    64.123705    42779.916 
22010000   -193380.69    1.6759229 0.00046460412    72.027586      65.2952    64.679058    42792.642 
22015000   -193463.24    1.6639574 -0.0031857689    72.185526    64.975269    64.861892    42805.413 
22020000   -193603.87    1.7280701 -0.0037165391    72.380865    64.757869    64.847458     42818.22 
22025000   -193500.42    1.7182835 0.0018218191    72.468676    64.468476    64.779186    42830.973 
22030000   -193415.74    1.7274183 -0.00074789667    72.221621    65.031893    64.705068    42843.729 
22035000    -193487.1    1.6942611 -0.0034770742    73.321282    64.781679    64.550529    42856.505 
22040000   -193362.67    1.6903628 -0.0013967082    73.036739    64.841656    64.777037    42869.201 
22045000   -193242.12    1.6761225 -0.0018647129    73.625509    64.807446    64.620643    42881.978 
22050000   -193519.56    1.7577869 0.0025473724    71.952025    64.958383    64.541101    42894.724 
22055000   -193640.09    1.6997425 -0.0020297534    72.000774    64.668081    64.761211    42907.523 
22060000   -193710.57    1.6560978 0.0020082767    71.272234    64.741859    64.962609    42920.336 
22065000   -193203.59    1.7158545  -0.00293608    72.847554    65.343779    64.397176    42933.045 
22070000   -193304.12    1.6762796 -0.0009958076    72.692467    64.999617    64.875854    42945.792 
22075000   -193495.31    1.7205498 -0.0006347847    73.076572    65.218432    64.277181    42958.485 
22080000   -194000.41    1.6994152 0.00053604396    72.128143    65.062487    64.432581    42971.248 
22085000   -193924.86    1.6944904 0.0040425436    71.784416    65.031905    64.648852    42984.025 
22090000   -193480.35    1.7175111 -0.0019509604    72.727747    64.769206    64.630574    42996.769 
22095000   -193754.32    1.6730364 -0.00019843463    71.915936    65.236279    64.161153    43009.544 
22100000   -193952.21    1.6852169 -0.0018230911    70.998292    64.952047    64.897725    43022.375 
22105000   -193374.19    1.7193672   0.00305309    73.142875     64.30677    64.498515    43035.176 
22110000    -193122.7    1.7006764 0.0010905409    73.342206    64.672834    64.330322    43048.011 
22115000   -193408.06     1.717466 -0.0010485718    72.712928    65.372742     63.91178    43060.765 
22120000    -193486.7     1.694325 0.0023717988    72.924721    65.050382    64.204112     43073.52 
22125000   -193347.61    1.6540126  0.003512693    72.999246    64.469683    64.983563    43086.259 
22130000   -193626.58     1.740506 -0.00085038667    72.721556    64.740789    64.763186        43099 
22135000   -193392.25    1.7245004 0.0030906065    73.279039    64.653843    64.462899    43111.783 
22140000   -193753.84    1.7185013 0.0021027784    71.843816    65.040743    64.302208    43124.545 
22145000   -193717.42    1.6797066 0.0024584576    71.745415    65.463982    63.952337    43137.335 
22150000   -193947.42    1.7204397 0.00053870897    71.685722     64.67055    64.969678    43150.168 
22155000   -193437.82    1.6899207 0.00058486506    73.279053    64.670977    64.467995    43162.933 
22160000   -193256.05    1.6625146 3.7002118e-05    73.664467    64.478718     64.64461     43175.66 
22165000   -192948.78    1.6841874 -0.001237482    74.462105    64.037813    64.747611    43188.373 
22170000   -193278.04    1.6969229 -0.0018449163    73.599311    64.227494    64.824968    43201.101 
22175000   -193445.61    1.7310707 0.0074243291    72.852118    64.602931    64.192299    43213.789 
22180000   -193488.74    1.7364844 -0.00093133519    72.983857    64.495766    64.605966    43226.562 
22185000    -193193.3    1.6770706 0.00036773388    74.106823     64.20622    64.559004     43239.33 
22190000   -193625.02    1.7060777 -0.00031311171    73.789442     64.10661     64.38071     43252.07 
22195000   -193478.75    1.7269386 0.0014810974     73.72965    63.653968    65.183823    43264.834 
22200000   -193249.97    1.6908481 -0.0023633258    73.347259    64.252122    64.967465    43277.538 
22205000   -193691.27    1.6865979 0.00088419908    72.714646    64.680589    64.236011    43290.305 
22210000   -193290.34    1.6794726 0.0011513237    73.413648    64.520647    64.185828    43303.066 
22215000   -193253.38    1.7584902 -0.0012555575    73.354549    64.851445    64.291761    43315.801 
22220000   -193267.72    1.6952583 0.00064719029    73.007898    65.501603    64.229192     43328.57 
22225000   -193708.71    1.6950089 -0.0024939297    73.003578    65.092811    64.012667    43341.337 
22230000   -193574.62    1.6852087 -0.0060297227    73.124072    65.025894    64.562982    43354.027 
22235000   -193436.35    1.7052348 -0.00054801318    73.706434    64.513195    64.532786    43366.777 
22240000   -193514.57    1.7284375 -0.001447005    73.645211    64.539317    64.427946    43379.521 
22245000   -193348.69    1.6818541 -0.001117352    73.565511    64.557411    64.580031    43392.281 
22250000   -193455.84    1.7168072 0.0023821483    73.342612    64.727334    64.351259    43405.003 
22255000   -193688.87    1.7360883 0.00052675338    73.167963    64.713962     64.38472    43417.825 
22260000   -193536.15    1.7022821 -0.0031832322    73.506411     64.70493    64.210387    43430.574 
22265000   -193559.42    1.6659822 0.00061455168    72.775433    64.063321     65.12991     43443.34 
22270000   -193881.64    1.7409455 0.0023923297    71.905758     64.41709    65.000551    43456.139 
22275000   -193602.54    1.7002743 -0.00063214131     72.18779     64.69758    65.044169    43468.935 
22280000   -193875.59    1.6538363 -0.0042205278    71.692022    65.018756    64.923748      43481.7 
22285000   -193409.41     1.735901 0.0015751313    72.962377     64.84213    64.390545    43494.513 
22290000   -193293.07    1.6443116 0.0013978131    73.207461    65.165304    64.193294    43507.277 
22295000   -193763.26    1.6828801 0.00022920601    71.696666    65.597106    64.208087    43520.031 
22300000   -193826.26    1.7122771 -0.0016383517    71.741549    64.985897     64.65519    43532.829 
22305000   -193381.17    1.6666994 -0.0034895557    71.941058    65.310477    64.376677    43545.628 
22310000   -193255.98    1.7230107 0.0016550932    72.974031     65.04401    64.326454    43558.411 
22315000    -193069.7    1.7323808 0.00043122559    73.644952    65.293388    64.329701    43571.086 
22320000   -193285.27    1.7122944 -0.00025943005    73.069503    65.190448    64.511778    43583.826 
22325000   -193431.86    1.6849707 -0.0058683353    72.377752    65.159355     64.91794    43596.529 
22330000   -193441.77    1.7028174 0.0018880094    72.175488    64.908852     64.75841    43609.275 
22335000   -193198.45    1.7251058 0.00058411953     73.25955    64.854549    64.760692    43622.029 
22340000   -193161.58    1.7241418 -0.0029607474    73.767118    65.107301    64.308688    43634.708 
22345000    -193269.3    1.6824989 0.00048188038    72.692859     65.33894    64.366605    43647.428 
22350000   -193176.91    1.6862254 0.00028121536    72.635604     65.20358    64.371633    43660.107 
22355000   -193319.18    1.6816344 0.0020000538    72.677872    65.422041    64.147972    43672.849 
22360000   -193264.67    1.7262919 -0.0020774044    72.612472    64.828905    64.812165    43685.616 
22365000   -193511.86    1.7305732 0.00022385193    72.817652    64.765555    64.632647    43698.332 
22370000   -193437.54     1.738352 0.0056878066     72.61797    64.445409    64.839635    43711.073 
22375000   -193806.51    1.6784399 0.0015090314    72.401894    64.525263    64.889827    43723.859 
22380000   -193758.25    1.6997961 3.641376e-05    72.754684    64.481391    64.891314    43736.649 
22385000   -193394.21    1.6830523 0.0018336956     73.04113    64.793916    64.629032    43749.366 
22390000   -193407.21     1.716597 0.0015825901    72.908909    64.876751    64.497688    43762.133 
22395000   -193144.43    1.6776147 0.0046165295    72.557422    64.779206    64.910085    43774.865 
22400000   -193659.41    1.7149042 -0.0025442303    72.246999    64.729292    64.733877    43787.637 
22405000   -193623.05    1.7051947 -0.0046726316     72.54542    64.866797    64.342003    43800.408 
22410000   -193628.65    1.7009195 -0.00068828864    71.506682    64.977633    64.869293    43813.169 
22415000   -193800.73    1.6776793 -0.0058672536    71.865027    64.589126    65.182217    43825.999 
22420000    -193872.4    1.7419139 0.0023329517    72.588125    64.348242    64.661006    43838.748 
22425000   -193352.37    1.6793955 0.0001315031     73.45821     65.22497    64.093284    43851.513 
22430000   -193346.91     1.697417 0.0016114044    72.972629    64.662231    64.711808    43864.207 
22435000   -193862.92    1.7443988 0.00046886862    72.197547    64.294247     64.73176     43876.96 
22440000   -193823.93    1.6938144 -0.001292568    72.295975    64.393736    64.699131    43889.723 
22445000   -193833.04    1.7050828 -0.00017642315    72.799049    64.687914     64.47344    43902.502 
22450000   -193559.61    1.7340714 -0.0025031988    72.240367     64.70021    65.217215    43915.258 
22455000   -193132.56    1.7213336 -0.0035467937    73.075057    65.055355      64.6181     43927.99 
22460000   -193541.64    1.6569419 -0.00023183741    72.423418    64.873647    64.616002     43940.72 
22465000   -193806.83      1.72557 0.0030310985    71.797752      64.6235    64.800895    43953.516 
22470000   -193463.81    1.7257714 4.4004791e-05    72.483094    64.702584    64.993215    43966.246 
22475000   -193772.89    1.7197967 -0.00051259167    72.160226    64.667773    65.237513    43978.997 
22480000   -193622.11    1.7005834 0.0011469351    71.167145    65.005915    65.447693    43991.735 
22485000   -193657.73    1.7015617 -0.0020268623    72.218746    65.094204    64.789484    44004.516 
22490000   -193460.65    1.6757896 -0.0015879756    72.678323    65.065281     64.59024     44017.29 
22495000   -193609.59    1.7154244 -0.0010322018    72.141145    65.340684     64.54037    44030.035 
22500000   -193828.85    1.6922272 -0.0027893721    71.551492     65.65884    64.237161    44042.825 
22505000   -193804.81    1.7413516 -0.00093692178    71.941402    65.559122    64.092457    44055.634 
22510000   -193572.73    1.6704274 -0.0015776954    72.355101    65.890069    63.945438    44068.411 
22515000   -193541.47    1.7644285 -0.00088703983    72.411702    65.371528    64.162619    44081.155 
22520000   -193792.89    1.7119928 0.0012019485    71.984826    65.118693    64.250674    44093.954 
22525000   -193966.25    1.7436532 -0.0010362184    71.432321    65.077203    64.598537    44106.723 
22530000      -193708    1.6951556 0.00061982522    72.419146    64.935287    64.265989    44119.488 
22535000   -193292.24    1.7165962 0.0031500569     73.34942    64.772874    64.434639    44132.236 
22540000   -193538.29    1.6856845 0.0064949564    72.667638    64.247114     64.77578    44144.981 
22545000   -193570.87    1.6972466 -0.0026055132    73.007042    64.721872    64.473197    44157.687 
22550000   -193491.11    1.7098217 0.0038525403    73.042646    64.606416    64.491377    44170.386 
22555000   -193269.62    1.6866887 0.00070088528    73.649088    64.633728    64.511714    44183.128 
22560000    -193567.9    1.6734154 0.0014955832    71.782169    64.927682    64.984688    44195.885 
22565000    -193898.6    1.6962658 -0.00021125457     71.41255    64.877988    65.205559    44208.655 
22570000    -193582.7    1.7270905 0.00032123684    72.144576    64.818059    64.797385     44221.44 
22575000   -193231.94    1.6803165  0.003186937    72.179458    65.056477    64.645175    44234.158 
22580000   -193593.72    1.7208754 -0.0032523832    72.229515    64.921062    64.595395    44246.904 
22585000    -193773.4    1.7215053 0.0034191371    71.689287    64.639543     64.44471    44259.742 
22590000   -193663.64     1.701795 -0.0033136977    72.280283    64.954727    64.491927    44272.511 
22595000   -193628.68    1.7146606 -0.004948294    72.788643    64.691258    64.603867    44285.242 
22600000   -193684.46    1.7194592 -0.00023705951    72.204775    65.195026    64.310404     44298.04 
22605000   -193608.24    1.6925164 0.0028719019    72.395375      65.1591    63.980869    44310.857 
22610000    -193586.8    1.6844082  0.001513697     72.66368     64.91894    64.335973    44323.629 
22615000   -193432.47    1.7279142 0.00054615852     72.90074    64.468403    64.806878    44336.383 
22620000   -193385.86    1.7318184 0.00084440021    73.113462    64.651164    64.525435    44349.156 
22625000   -193295.53     1.680992  0.001933507    73.522568    64.951366    64.119941    44361.885 
22630000   -193498.83    1.7105494 -0.00029944573    73.328482      64.8643    64.465025    44374.555 
22635000   -193244.82    1.7104866  0.001223739    73.457601    65.255049    63.976138     44387.26 
22640000    -193210.6    1.6939128 -0.0028987976    73.472007    64.792852    64.506274    44399.929 
22645000      -193005    1.7139783 0.0036991732    73.673164    64.182443    64.674266    44412.611 
22650000   -193295.03    1.6624974 -0.00026609312    73.501148    64.696673    64.353421    44425.298 
22655000    -193489.1    1.7207229 -0.002805868    72.729453    65.016587    64.580639    44438.028 
22660000   -192907.94    1.7123074 0.00098248492    73.833755    64.794196    64.473538    44450.735 
22665000   -192981.11    1.6848076 0.00026841783    74.801103    65.099713    63.793893    44463.411 
22670000   -193256.27    1.7117716 -0.00073054576    73.336992    65.253995    63.949546    44476.089 
22675000   -194215.58    1.6816021 -0.00051849163    70.610199    65.462902    64.736482    44488.881 
22680000   -193683.33    1.7344046 -0.0028705366    71.823444    64.852265    64.935457    44501.726 
22685000   -193421.84    1.6926172 0.0023802522    72.513299    64.687317     64.81977    44514.537 
22690000   -193452.42    1.6402656 0.00079416276    72.739024    65.068527    64.597103    44527.255 
22695000   -193328.81    1.7113293 0.0020529501    72.817256    65.093552    64.274504    44539.975 
22700000   -193097.71    1.7325611 0.0011176301    72.667793    65.262688     64.74056    44552.711 
22705000   -193234.83    1.6787118 -0.0019654809    72.310524    65.265708    64.952223    44565.453 
22710000   -193579.59    1.6923451 0.0013786505    71.709167    65.168328     64.64057    44578.216 
22715000   -193684.75    1.7074491 -0.00068540404     71.23989     65.52125    64.455514    44590.989 
22720000   -193532.32    1.6939219 0.0011088564    71.456335    64.910465    64.589156      44603.8 
22725000   -194016.17    1.7125242 0.0020489403    71.252873    64.831874    64.215821    44616.638 
22730000   -193655.13    1.7157919 -0.0014728697    72.784162    65.023359    64.229092    44629.436 
22735000   -193672.11    1.7242918 -0.00077607654    73.247175    65.108862    63.858653     44642.19 
22740000   -193495.02    1.6702824 0.00062759283     72.63213    64.290069    65.072117    44654.937 
22745000   -193375.93    1.7593128 0.0015795582    71.617913    64.551062    65.411707    44667.731 
22750000   -193249.13    1.7304361 -0.003417618    72.644337    64.348927    65.381802    44680.458 
22755000   -193328.53     1.684319 0.0044680538    72.681726    64.579686    64.772183    44693.132 
22760000   -193695.27    1.6976013 -0.0032130462    72.322299     64.84033    64.660448    44705.909 
22765000   -193749.83    1.7312183 -0.0030767917    72.890338    64.707893    64.883121    44718.651 
22770000   -193680.39      1.69695 0.0043212951    73.209082     64.79709    63.964523    44731.401 
22775000   -193653.11     1.691303 0.0011437767    72.724411    64.794748    64.269567    44744.103 
22780000   -193205.27    1.7258292 0.0016502664    73.241021    64.876765    64.325134    44756.838 
22785000   -193283.71    1.7121995 0.0014608905    73.236255     64.39194    64.945864    44769.534 
22790000   -193466.84    1.6596323 0.0001753905    73.507626    64.137793    64.949496    44782.258 
22795000   -193773.92    1.7141761 -0.00071808736    72.428247    63.920175    65.383273     44795.02 
22800000    -193378.5    1.7166837 -0.00025436306    74.142882    63.787724    65.011598    44807.759 
22805000   -193248.77     1.700378 0.00027995874    73.150677    64.942994    65.096824    44820.457 
22810000   -193233.19    1.6919815 -0.0001225108    73.664736    64.146536    65.250718    44833.117 
22815000   -193610.26    1.7091847 0.00075640444    73.151748    64.076713    65.045232    44845.882 
22820000   -193049.34    1.6726791 -0.00028740354    73.951824    64.617386    64.344771    44858.608 
22825000   -193719.47    1.7035312 -0.00081280238    72.714211    64.409051    64.522919    44871.373 
22830000   -193681.48    1.6952908 -0.0020735724    72.477372    64.636312    64.661249    44884.149 
22835000   -193358.78    1.7368358 0.0019291653    73.876952    64.282137    64.484668    44896.911 
22840000   -193193.32    1.7272625 -0.001285176      73.4508    64.220069    64.976623    44909.658 
22845000   -192989.98    1.7270578 -0.000528265    73.499232    64.879261    64.463376    44922.368 
22850000   -193347.96    1.7266941 1.9153149e-05    73.315815    64.494171    64.724213    44935.102 
22855000   -193259.84    1.7354664 -0.00032205594    73.278059    64.872135    64.377821    44947.764 
22860000   -193248.06    1.6803836  0.000584578    72.954702    65.416972     64.18752    44960.558 
22865000   -193379.24    1.7206775 -0.0025442409    73.278973    65.255989    64.259359      44973.3 
22870000   -193369.75    1.7346047 3.7194902e-05    73.139422    64.723898    64.649888    44986.024 
22875000   -193434.57    1.6715789 0.00070689197    72.408143    64.640145    64.706173    44998.756 
22880000   -193365.37    1.6661647 -0.002106935    72.712378    64.129222    65.335623    45011.523 
22885000    -193350.9    1.7035702 0.0032599814    72.691668     63.95486    65.393747    45024.301 
22890000   -193460.07    1.6871465 -0.0068858637    72.853092    64.229977    65.548787    45037.005 
22895000      -192965    1.7527986 6.7517476e-05    73.987273    64.276547    64.997492    45049.697 
22900000    -193278.6    1.6868713 -0.0036830976    73.330214    64.767011    64.656318    45062.419 
22905000   -193514.06     1.751868 0.0032120894      73.1455    64.557958    64.281624    45075.143 
22910000   -193260.34    1.7291832 0.0017702006    72.499118    65.023668    64.536457    45087.919 
22915000   -194203.73     1.664011 0.00088516512    71.868389    64.829376    64.109613    45100.671 
22920000   -193900.93    1.6837253 -0.00060580412    71.924169    64.713806    64.373996    45113.511 
22925000   -193872.37    1.7529735 0.0033150337    71.353408    64.742596    64.691878    45126.376 
22930000   -193646.53    1.7322253 -0.0030209816    71.922715    64.822699    64.747504      45139.2 
22935000   -193896.85    1.6933444 -0.00047287612    72.243084    64.691962    64.629534    45151.967 
22940000   -193225.59    1.7091409 0.0011916045    73.114457    64.741305    64.637907    45164.778 
22945000   -193182.15    1.6993961 -0.00059721711    73.585543     64.58023     64.77146    45177.497 
22950000   -193458.66    1.7508538 0.0013039308     72.09528    64.829965    64.927769    45190.266 
22955000   -193920.47    1.6867654 -2.2767181e-05    71.581604    64.595745    64.905296    45203.017 
22960000   -193872.75    1.6790295 0.00025803154    70.409103    65.180644     65.06015    45215.816 
22965000   -194052.78    1.6798109 0.0028206867    71.546898    64.955429    64.440285    45228.659 
22970000   -194019.49    1.7095112 -0.0016578882    71.270707    65.199548    64.800638    45241.513 
22975000   -193466.83    1.7028004 -0.0025398337    72.812611    64.932791    64.492926    45254.263 
22980000   -193797.61    1.7083986 -0.00043849996    72.504613    64.832058    64.181066    45267.061 
22985000   -193778.23    1.7060985 0.0043407079    71.669747    64.807884    64.396588    45279.808 
22990000   -193648.93      1.69748 0.0028976767    71.198611    65.106134    64.537195    45292.634 
22995000   -193376.89    1.7380323 -0.00051436363    72.954305    64.894394    64.493417    45305.419 
23000000   -193011.25    1.6413521 -0.0006398288    72.795251    65.161476    64.830082     45318.15 
23005000   -193514.58    1.7032316 0.0027365937    71.734368    65.348644    64.302847    45330.922 
23010000   -193725.11    1.6953589 0.0013695774    71.690231    65.070127    64.454549    45343.677 
23015000   -193674.45    1.6940758 0.0012387747    72.965433    64.530175    64.444548    45356.464 
23020000   -193723.87    1.6578931 -0.0011827898    71.176887    64.725762     65.34222    45369.228 
23025000   -193875.22    1.6915961 -0.0020159712    71.742108    64.254051    65.474851     45382.03 
23030000    -193874.2    1.6763568 -0.0025726592     72.03711    64.288143    65.429075    45394.807 
23035000   -193664.41    1.6725923 0.00082361554    72.523624    64.574871     64.59912    45407.516 
23040000   -193749.54    1.6865747 -0.0028309378    71.666149    64.659001     64.98496     45420.27 
23045000   -193772.94    1.6744879 -0.0034771194    70.955062    65.117776    64.683292    45433.054 
23050000   -193777.85    1.6831864 -0.0030909016    70.962694     65.22184    64.748107    45445.914 
23055000   -193713.29    1.6917761 0.0034695498    71.639426    64.801523    64.968418    45458.689 
23060000    -193428.9    1.7105855 -0.0018907307    73.038072    64.527555    65.212317    45471.453 
23065000   -193566.61    1.7180589 0.0027046124    72.141744    64.658333    65.196985    45484.224 
23070000   -193519.44    1.6479541 -0.0043786637    72.566917    64.496093    65.290035     45496.98 
23075000   -193454.49    1.6975057 0.0016063594    71.934907    64.638267    65.184224    45509.737 
23080000   -193396.27    1.6690364 0.00024213886    72.308216    65.021686    64.789764    45522.476 
23085000   -193492.08    1.6925261 0.0028902022     71.69053    64.799262    65.064776    45535.269 
23090000   -193280.79    1.7160065 0.0040961804    72.327214    64.737634    65.201763    45548.038 
23095000   -193164.04    1.6842929 0.0017522533    72.753317    65.021221    64.763786    45560.735 
23100000   -193172.36    1.7138122 -0.0015466709    72.273984    64.712282    65.361308    45573.481 
23105000    -193279.6    1.7079989 -0.0040934199    71.993027    64.025199    65.971833    45586.269 
23110000   -193042.65     1.715938 0.0024998547    73.160956    64.305061    65.147496    45598.978 
23115000   -193404.21    1.7643723 -0.0019615468    73.197466    64.085752    65.300732    45611.701 
23120000   -193521.09    1.7204681 0.0011914451    72.808625    64.383371    64.835585    45624.462 
23125000   -193546.07    1.7127018 -0.00072013733    73.247374    64.694909    64.335079    45637.193 
23130000   -193582.51    1.7117043 -0.0018813703    72.985873    64.600741    64.747653    45649.942 
23135000   -193421.09    1.6892778 -0.0013786602    73.540685     64.57297    64.382166    45662.699 
23140000   -193169.81    1.6934202 -0.0013421554    74.546745    64.824645    63.755851    45675.437 
23145000   -193247.18    1.7058697 0.0019791225    73.644886    64.980035    63.952956    45688.159 
23150000   -193616.06    1.7266562 0.0027938423    73.250765    64.388132    64.381967    45700.871 
23155000   -193432.66    1.6985782 -0.0032283978    74.198441    64.106483    64.765262    45713.557 
23160000   -193318.09    1.6892941 1.2352859e-05    74.505531    63.788021    64.763041    45726.233 
23165000   -193416.07    1.6860082 -8.6367392e-05    74.225769     64.33227    64.375119    45738.886 
23170000   -193630.65    1.6660621 -0.00081129797    72.307615    64.994016     64.40543    45751.606 
23175000   -193887.98    1.7354378  -0.00181663    72.022592    65.726932    63.932391    45764.433 
23180000   -193687.76    1.6806126 -0.0027357238    72.918829    65.718877    63.738199    45777.198 
23185000   -193877.03    1.6580684 -0.0029356973    72.817294    64.510007    64.240135    45789.984 
23190000    -193875.2    1.6851097 0.0042711465     72.29416    64.168505    64.383657    45802.836 
23195000    -193295.6     1.723907 -0.0016483675    73.442506    64.595062    64.483748    45815.622 
23200000   -193574.33    1.7087443 -0.00079044771    73.278832     64.96987    64.241307    45828.408 
23205000   -193254.71    1.7428092 0.0020371645     74.69922    64.669013    63.943026    45841.119 
23210000   -192989.68     1.741292 -9.460517e-05    74.214533    64.836154    64.008926    45853.831 
23215000   -192907.01    1.6917256  0.004042459    74.319654    64.601445    64.210493    45866.547 
23220000   -193206.37    1.7050313 -0.0017410108     73.75829    64.736803    64.395587    45879.219 
23225000   -193274.02    1.7455883 -0.0014954317    74.284928    64.818698    63.957594    45891.928 
23230000   -193203.05    1.7121575 -0.0010373511    73.931668    64.860693    64.323657    45904.632 
23235000   -192925.97    1.6884996 -0.0012723015    74.753352    64.571554    64.551414    45917.281 
23240000   -193261.66    1.6625662 0.0051292669    73.403691    64.726386    64.411238    45929.999 
23245000   -193390.79    1.7437659 0.0066789459    72.477343    64.585575    64.802028    45942.767 
23250000   -193547.11    1.7095968 -0.0022708789    73.185914    64.878848     64.62183    45955.507 
23255000   -193430.74     1.725539 0.00070014451    73.173469    64.588212    64.478288    45968.241 
23260000   -193825.23    1.7055642 -0.0012105219    72.191096    64.506401     64.37407    45980.992 
23265000   -194058.97    1.6875287 -5.5804238e-05    71.564328    64.081874     65.00568    45993.759 
23270000   -193318.24    1.7278796 -0.00047055301    73.837124    64.067398    64.862334    46006.616 
23275000   -193134.42    1.7121282 0.00038051881    73.835773    64.175493      64.8446    46019.327 
23280000   -193699.54    1.6864376 0.0011995761    73.087717    64.017223    64.785841    46032.101 
23285000   -193681.99    1.6501695 0.0011330057    71.952139    64.459663    64.730445    46044.881 
23290000   -193592.89    1.7484507 0.00022362427    72.379064    64.599945    64.692962    46057.661 
23295000   -193094.79    1.7568012 -0.0013578574    73.494044    64.414781    64.698828      46070.4 
23300000   -193508.74    1.7006251 -0.003325814    73.055927    64.530034    64.626145    46083.148 
23305000    -193238.1    1.6586491 -0.0010762843    73.915061    64.504533    64.621371     46095.88 
23310000   -193499.87    1.6986287 -0.0026205886    73.013712    64.582405    64.813895      46108.6 
23315000   -193428.26    1.7072245 -0.0023593296    73.174287    64.800796    64.453987    46121.286 
23320000   -193639.73    1.6678004 -0.0011581415    73.200945    64.401635    64.553265    46134.002 
23325000   -193438.87    1.7410048 0.0021654672    72.628484    64.674682    64.217426    46146.789 
23330000   -193665.24    1.6799021 -0.0014368069    72.470589    64.735951    64.496767    46159.592 
23335000   -193550.46    1.7357697 0.0015158801    72.389569    64.513153    64.649054    46172.417 
23340000   -193855.39    1.7374664 -0.00087576248    71.492239     65.24407    64.348563    46185.255 
23345000   -193514.14    1.6933569 0.00019020395    71.926352     65.04603    64.572899    46198.038 
23350000   -193599.32    1.6884606 -0.0014999705    71.826328    65.039408    64.594578    46210.811 
23355000   -193510.05    1.7434949 -0.00045058283    72.493442    64.908766    64.572223    46223.555 
23360000   -193283.84    1.6982745 -0.00095132461    72.660717     64.67825    64.995504    46236.272 
23365000   -193630.67    1.7198121 0.0012692609    72.108647    64.390791    64.939701    46248.992 
23370000    -193554.9     1.713924 0.0020026788    72.882794    64.641243    64.311243    46261.786 
23375000   -193339.26    1.6973303 0.00013973935    73.454538    64.903037    63.949864    46274.538 
23380000   -193256.45    1.6817389 -0.0041993524    73.577789    64.847937    64.407335    46287.267 
23385000   -193677.51    1.7423861 0.0043220322    72.616143    64.851407    64.403535    46300.006 
23390000   -193475.08    1.7022178 -0.0021948401    72.923717    65.139949    64.561374    46312.713 
23395000   -193412.31    1.6592866 0.0013623384    73.286873    64.955032    64.151036    46325.449 
23400000   -193431.94    1.6911207 -0.0011884596    72.983745    64.761172    64.540746    46338.196 
23405000   -193619.44    1.6865682 0.00019133564    72.535456     65.09584    64.487264     46350.96 
23410000   -193650.13    1.7260639 0.00096888792    72.294772    64.848534    64.633729      46363.7 
23415000    -193492.4    1.7180873 0.0011194403    71.740474    65.296023     64.47452    46376.529 
23420000   -193436.66    1.6746611 -0.0023290027    73.096442     65.48055    63.566406    46389.314 
23425000   -193668.94    1.6726395 0.0019952402    71.907925    65.048462    64.001299    46402.103 
23430000   -193793.41    1.6977093 -0.00024278532    71.823943    64.835621     64.39961      46414.9 
23435000    -193491.6    1.7120835 -0.00050152829    72.522958    65.008542    64.338236    46427.696 
23440000   -193377.56     1.700952 -0.0024188491    72.879041     64.98417    64.561469    46440.462 
23445000   -193630.39    1.7016612 -0.0017339198    72.698369    65.337457    64.223596    46453.195 
23450000   -193689.49    1.7413914 -0.0054950219    72.757079    65.463002      63.8722    46465.976 
23455000   -193949.08    1.6812935 0.00017294581    71.670184    65.680127    63.796895    46478.781 
23460000   -193912.63    1.7154758 0.00065372283    71.166278    65.472513    64.163577     46491.62 
23465000   -193909.31    1.7173397 0.0010664954    71.302983    65.318141     64.35863    46504.471 
23470000   -193602.79    1.6831923 0.0025857754    71.466912    65.172952    64.665327    46517.306 
23475000   -193325.92    1.6999456 0.0037248048    72.331029    64.913415    64.664541    46530.104 
23480000    -194189.5    1.7097847 0.0014821883     71.64217    64.584489    64.634367     46542.91 
23485000   -194018.32    1.6863498 0.0011679237    71.927517     64.81912    64.767156    46555.687 
23490000   -194164.24    1.7335343 0.0022987664    71.043256    65.142747     64.58645    46568.417 
23495000   -193897.84    1.6745241 0.00086907431    72.585658    64.653741    64.040241    46581.244 
23500000   -193916.34    1.6734544 0.0014526341     71.85312    65.057798    63.929203    46594.019 
23505000   -193834.92    1.7184072 -0.0052712489    71.411016    65.388405    64.660799    46606.829 
23510000   -193499.24    1.6496896 -0.00056188939     72.56847    64.725604    65.055831     46619.59 
23515000   -193226.81    1.7159107 0.0015359844      73.4893    63.933156    65.435141    46632.345 
23520000   -193247.46    1.7011855 0.0033296559    73.082954    64.287739    65.089705    46645.067 
23525000   -193896.82     1.707238 -0.00014406267    71.992761    64.477754    64.992509    46657.863 
23530000   -193852.97    1.6772786 -0.0002736832    71.443672    65.450828    64.211416    46670.666 
23535000   -193986.58    1.6529643 -0.0015127533     70.84895    65.550562    64.204951    46683.502 
23540000   -193566.38    1.7003417 0.00071443917    72.990419    65.102222    63.904478    46696.346 
23545000   -193108.79    1.7220947 0.0014770672     74.22592    64.855582    63.994199    46709.101 
23550000   -193301.33    1.7308217 -0.0044568288    73.811653    64.944061    64.396715    46721.798 
23555000      -193611    1.6790798 -0.0025621962    72.908639    64.033194    65.214969    46734.512 
23560000   -194287.82    1.7161834 0.0020943441    71.558756    63.897364    65.329316    46747.262 
23565000   -194137.55     1.768832 0.0013695746    71.555082    64.648487    64.713021    46760.107 
23570000   -194014.49    1.6693592 0.0034229525    71.676963    65.076476    64.052856    46772.939 
23575000   -193997.82    1.6844657 -0.0038301474    71.579454     65.17527    64.316128    46785.737 
23580000   -193834.95    1.7663767 0.00072171406    71.790613    64.733222    64.645215     46798.64 
23585000   -193151.12     1.662738 -0.0027024891    73.453393    64.932586    64.334772    46811.429 
23590000    -193258.4     1.653006 0.00037342145    72.916882    64.892099    64.581976    46824.187 
23595000   -193216.86    1.7194147 0.0030638992    73.750975    64.831598    64.183896    46836.916 
23600000   -192929.85    1.7171122 -0.0016896714    74.772406    65.017152    63.943713    46849.628 
23605000    -192865.6    1.7512224 0.0010563869    74.810733     64.37022    64.650112    46862.339 
23610000   -192922.62    1.6637127 -6.256134e-05    74.753575    64.033874    64.657551    46874.993 
23615000   -192933.73    1.7027823 0.00070586391    74.471915    63.991261    64.881552    46887.719 
23620000   -192765.29    1.6901342 -0.0019904833     74.09814    64.430718     64.99093    46900.393 
23625000   -193402.18    1.6604306 0.00093196919    72.462404    64.630551    65.043325    46913.072 
23630000   -193283.59    1.6828138 0.0048741639    72.307247    64.942589     64.36576    46925.825 
23635000   -193481.02    1.6635246 0.0021453032     73.13387     63.99595    64.854018    46938.568 
23640000   -193557.43    1.6822352 0.0002892021    73.001006    64.836306     64.08874    46951.291 
23645000   -193418.54    1.6561666 0.00062966915    71.756379    65.045162    64.820589    46964.083 
23650000   -193778.93    1.7247699 -0.0017652153    71.782124    65.097705    64.578966      46976.9 
23655000   -193538.11     1.672358 -0.00037705519     73.20351    64.622529    64.583609    46989.656 
23660000   -193700.65    1.7167821 0.00036513558    72.973974    64.501095    64.582846    47002.367 
23665000   -193768.12    1.7026798 -0.00019423227    72.217755     64.63372    64.731154    47015.137 
23670000   -193295.72     1.674437 -0.0029011966    72.959384    64.490371    65.010516    47027.885 
23675000   -193604.26    1.6497129 -0.0012135896    72.580373    64.739887    64.624469    47040.667 
23680000   -193453.23    1.6643847 0.0044099331    72.613604    65.117686    64.167955     47053.44 
23685000   -193598.07    1.7361376 -0.00056082234    72.411858    65.261262    64.374392    47066.198 
23690000   -193607.06    1.7232399   0.00209436    72.652189    64.552756    64.969755    47078.997 
23695000   -193204.14    1.7298184 -0.0013100108    73.334668    64.513359    65.029136    47091.762 
23700000   -193242.03    1.6808419 0.00019697088    72.887254    64.388067    65.241417    47104.516 
23705000   -193677.83    1.6397216 0.00099374221    71.477664    64.405754    65.024286    47117.279 
23710000   -193467.93    1.7157274 6.5909019e-05    71.687444    64.345913    65.217958    47130.029 
23715000   -193647.09    1.7384511 0.0017647278    71.971679    64.222277    64.996387    47142.846 
23720000   -193591.45    1.7387409 0.0018673774    72.896834    64.543001    64.418934    47155.653 
23725000   -193434.56    1.7437932 0.00098621626    72.944663    64.802684    64.495786    47168.373 
23730000   -193404.79    1.7465866 -0.0013118255    73.036719    65.337018    64.236132    47181.067 
23735000   -193924.26    1.6950441 -0.0011711493    72.284366    64.421672    64.803632    47193.799 
23740000   -193595.76    1.7512572 -0.0013934228     72.57185    63.972619    65.407251    47206.566 
23745000    -193227.5    1.7313455 -0.0010283247     73.17249    63.904108    65.517483    47219.314 
23750000   -193451.28    1.7253996 0.0031444153    71.756161    64.415265    65.118847    47232.077 
23755000   -193763.94    1.7109935 0.0017350406    71.647198    65.152057    64.333386    47244.934 
23760000   -193720.25    1.7398892 0.0025432917    72.384177      64.9268    64.000244    47257.746 
23765000   -194038.64     1.731711 -0.0024612775    72.084657    65.313706    64.042451     47270.54 
23770000   -193544.56    1.7422957 0.0029338963    72.972003    64.964866    64.191567    47283.349 
23775000   -193943.28    1.7562351 0.0028939479    72.354762    64.520902    64.738937    47296.115 
23780000    -193499.6    1.6850779 0.00098817963    73.180847    64.202522    65.038602    47308.899 
23785000   -193616.81      1.68521 0.0005692462    72.002448    64.319753    65.228147    47321.697 
23790000   -194035.99    1.6911915 -0.00057563224    70.841279    64.539679    65.172208    47334.511 
23795000   -193472.28    1.7174625 0.00039921603    72.063114    64.603796    65.299868    47347.349 
23800000   -193453.57    1.7437408 -0.0038432674    72.322635    65.045591     65.10668    47360.099 
23805000   -193922.08    1.7101237 0.0021454371    71.408028    64.682944    65.195924    47372.855 
23810000   -193973.77    1.6683596 0.00085485437    70.443854    64.870632    65.516865    47385.675 
23815000      -194417    1.6858928 0.00065043404    69.635339     65.29481    65.076098    47398.522 
23820000   -194078.24    1.6248056 0.0032516712    70.338834    65.434796    64.770779    47411.377 
23825000   -194040.45    1.7617347 -0.0019559775    70.805935    65.319864    64.593691      47424.2 
23830000   -193772.37    1.6604533 0.0026799471    70.761439    65.318679    64.471764    47437.002 
23835000   -193952.54    1.6967191 0.0010174355    70.698285    65.330894    64.519847     47449.81 
23840000   -193755.32    1.7017117 -0.0016035864    72.179563    65.085772    64.765091    47462.573 
23845000   -193175.29    1.7100451 -0.0013953804    73.281271     65.28569    64.124929    47475.263 
23850000   -193516.91    1.7035522 0.00054869336    72.526111    65.478043    63.877441    47487.989 
23855000   -193110.36    1.7340326 -0.00088365614    73.043381    65.238636    64.218388    47500.792 
23860000   -193550.23    1.6977633 -0.001834461    72.210488    65.539075    64.361889    47513.551 
23865000   -193609.33    1.7186108 0.0049776531    72.340888    65.150373    64.183756      47526.3 
23870000   -193471.15    1.7024182 -0.00051344393    72.244691    64.801244    65.117087     47539.03 
23875000   -193754.68    1.6878049 -0.0018796845    71.725573    64.942126    64.902057    47551.798 
23880000   -193691.45    1.6825514 0.00078560636    71.898737    64.880593    64.991432    47564.612 
23885000   -193286.29    1.7059922 -0.0028855792    72.934456    65.292116    64.539921    47577.322 
23890000   -193470.93    1.7302746 -0.0027719912    72.812772    65.250621    64.788735    47590.061 
23895000   -193381.32    1.6841772 -0.00088489941    73.375572     65.19185    64.681455    47602.766 
23900000   -193363.34    1.6734993 -0.0021307789    73.133178    65.313485    64.619951    47615.467 
23905000   -193807.99    1.6996938 -0.0028778381    72.799165    64.712481    64.484522    47628.219 
23910000   -193432.99    1.6755718 0.0039130398    72.361207    65.130973    64.242999    47640.986 
23915000   -193321.27    1.7214215 -0.0011355929    73.177453    65.287046     63.80736    47653.725 
23920000   -193422.34    1.7147372 0.0025756991    73.114523    64.869669    64.147094    47666.487 
23925000   -193855.48    1.7130528 0.00025039038    71.997995    64.444536    64.789898    47679.212 
23930000   -194120.07    1.6782769 0.0027644865    71.713588    64.745434    64.308066    47692.015 
23935000   -193551.22    1.6773318 0.0043027764    72.362558    64.889458    64.271961    47704.776 
23940000   -193198.64    1.6330493 -6.4679291e-05    73.080298    64.806285    64.485837    47717.523 
23945000   -193232.36    1.6764441 -0.0016052729    73.175185    64.630685    64.523925    47730.313 
23950000   -193465.69     1.668798 0.0044372758    72.287043    64.499613     64.62165    47743.076 
23955000   -193518.99    1.7100313 -0.0002323104    72.011507    65.212991    64.349364    47755.895 
23960000    -193827.9    1.7252175 0.0026118786    72.424765    64.637119    64.464831     47768.65 
23965000   -194106.51    1.6619223 -0.00077439014    71.672075    65.142121    64.054008      47781.4 
23970000   -193878.55    1.6931142 0.0035880561    72.195345    64.774266    63.988551    47794.198 
23975000   -194104.84    1.6879794 -0.001571882    71.537178    65.326613    63.936842    47807.018 
23980000   -193768.42     1.713201 -0.00028814031    71.434769    65.554985    63.891924    47819.869 
23985000   -193659.64    1.7358922 0.00033118549     71.89338    65.142979    64.291922    47832.662 
23990000   -193352.08    1.6833858 0.00053322693    73.893115    64.656225    64.265635    47845.457 
23995000   -193560.59    1.6486989 -0.00026716912    72.692637    65.016065    64.297474    47858.194 
24000000   -194088.06      1.69489 -0.0028646117     71.21351    65.114996    64.470632    47871.009 
24005000   -193834.51    1.7283157 0.0042234702    71.869202    64.783376    64.577315    47883.808 
24010000   -193713.01    1.7311537 -0.001286951    72.967981     64.81767    64.473521    47896.553 
24015000   -193503.83     1.680522 -0.0009760179    72.900778    64.896679    64.324756    47909.297 
24020000    -193876.2    1.7132646 -0.00071860163    72.534249    64.819634    64.351205    47922.077 
24025000    -193898.6    1.7171408 0.00052963312     71.75923     64.96538    64.361433    47934.914 
24030000   -193830.24    1.7118952 0.0026195937    71.888255    65.119449    63.961384    47947.728 
24035000   -193769.51    1.7326108 3.1529356e-05    71.829763    65.227309    64.367761    47960.527 
24040000    -193600.9    1.6790649 0.00055260133    72.001805    65.202825    64.523799    47973.337 
24045000   -193549.48    1.6880219 0.0031905839     71.47776    65.259275      64.7769    47986.114 
24050000    -193320.8    1.6809331 0.0011795734    72.843814    65.204634    64.489884    47998.909 
24055000   -193054.72    1.6718807 -0.0024219923    73.990808    65.297438    64.442603    48011.582 
24060000   -193353.62    1.7560926 0.0018768949    73.243104    65.150489    64.299648    48024.251 
24065000   -193446.84    1.7200667 0.0025760018    72.747386    64.915549    64.205102        48037 
24070000   -193634.25    1.7296804 0.0069410071    72.516639    64.241971    64.600292    48049.787 
24075000   -193149.52    1.7164044 0.0010819425    73.282205    65.277276     63.84225    48062.533 
24080000   -193531.12    1.7268239 7.6277936e-05    71.884648    65.425802    64.336647    48075.279 
24085000   -193372.88    1.7867841 -0.0029015077    72.190205    65.298656    64.360388     48088.01 
24090000   -193526.58    1.7102357 -0.00029674991     71.67676    64.917906    64.882695    48100.786 
24095000   -193270.29    1.6471578 -0.0045607604    72.770446    64.465472    65.204653    48113.567 
24100000   -193019.64     1.724701 0.0019939426    73.401309    64.314225    65.077258     48126.27 
24105000   -193307.42    1.7023024 -0.0017534748    72.963488    64.536103    64.889638    48138.962 
24110000   -193735.59    1.7102545 0.0033330692    71.999132    64.839945    64.143176    48151.782 
24115000   -193729.42    1.7063724 -0.0007075889    72.130302    64.790597    64.510202    48164.558 
24120000   -193862.36    1.7041661 -4.4084895e-05    71.692795    64.864264    64.645813    48177.386 
24125000   -193475.12    1.6940946 -0.0033945681    73.005475    65.191685    64.630069    48190.152 
24130000   -193632.91    1.7073885 0.0021632214    72.599309     64.50152    65.074601     48202.89 
24135000   -193470.13    1.6930238  0.001074783    71.790356    64.386655    65.503053    48215.643 
24140000   -193612.65    1.7490132 -0.0001534081    72.454626    64.525047     64.80175    48228.411 
24145000   -193205.44    1.7026421 -0.0042279581    73.571944    64.371213    64.970022    48241.192 
24150000   -193368.98    1.7203321 0.00013374476    73.132343    64.255023    65.084404    48253.873 
24155000   -193358.38    1.6003403 -0.00049845813    72.898136    64.836426    64.702184    48266.608 
24160000   -193010.86    1.7624746 -0.0015398858    73.896877    64.738176    64.861547    48279.303 
24165000    -193124.1     1.727757 -0.0019833828    73.855679    64.546046    65.050416    48291.981 
24170000   -193406.25    1.7182991 0.0037258329    73.363439    64.493683    64.907352    48304.709 
24175000   -193669.09    1.7124933  0.004147224    72.082627    64.493135    64.762088    48317.483 
24180000   -193736.53    1.7017913 0.00040442154    71.790754    64.248233    64.948711    48330.286 
24185000   -193538.99    1.7363406 0.0017335934    72.096595     64.36626     64.87952    48343.103 
24190000   -193508.78    1.7511131 -0.0013089177    72.928514     64.30231    64.584126    48355.908 
24195000   -193768.12    1.6487336 0.0018789943    72.881994    64.308177    64.407824    48368.627 
24200000   -194156.84     1.729652 -0.0020015969    72.234295    64.476343    64.611848    48381.459 
24205000   -193829.94    1.6699181 -0.0025380129    72.414169    64.675023    64.558083    48394.233 
24210000   -193697.79    1.6962768 0.00079217786    72.732239    64.749607     64.18744    48406.956 
24215000   -193513.39    1.6622096 -0.0022179481     72.97703    64.667184    64.392194    48419.708 
24220000   -193778.06    1.6790147 -1.829148e-05    72.507751     64.82035    64.385864    48432.504 
24225000   -193507.23    1.6855648 0.0021046901    72.798803    64.684184    64.748034    48445.259 
24230000   -193805.86    1.6719477 -0.0026403401    71.739798    64.654091    65.024993    48458.021 
24235000    -194036.3    1.6964559 -0.0012717859    71.056936    64.622804    65.375035    48470.833 
24240000   -193535.16    1.6823993 0.0013572203    72.138753    64.550326    64.760362    48483.617 
24245000   -193366.61    1.6876949 0.00075637366    72.458443    64.576764    64.931938    48496.371 
24250000   -193323.11    1.7581288 0.0024084936    72.368574    65.092378    64.528944    48509.081 
24255000    -193225.9    1.6866316 -0.0019620457    72.660919    65.248063     64.49469    48521.873 
24260000   -192816.48    1.6681097 -0.001458652    73.674658    65.133032    64.328385    48534.629 
24265000   -192950.96    1.7061784 0.0024810871    73.108185    64.736813    64.496338    48547.323 
24270000   -193684.07    1.6861224 0.00032763545    72.065939    64.692362    64.613394    48560.106 
24275000   -193336.62    1.7098848 -0.0043428998    73.018992    64.642815    64.734481    48572.829 
24280000   -193683.15     1.681412 -0.0016294078    72.688923    64.919194     64.25253    48585.542 
24285000   -193474.43    1.6496096 0.00031686791    73.668802    64.778377    64.164527    48598.292 
24290000   -193031.25    1.6739706 -0.0032904684    74.479963     64.92665    64.174172    48611.004 
24295000   -193460.48    1.6864003 -0.0020097367    73.547575    64.982634    64.091618     48623.72 
24300000   -193948.51    1.7078628 0.00049814878    71.554986    64.184336    65.281988    48636.487 
24305000   -193696.88    1.7248384 -0.002457696    72.508458    64.222285    64.827356     48649.26 
24310000   -193703.78    1.7315293 4.5136421e-05    71.174279    64.633169    65.044499    48662.073 
24315000   -193525.62    1.6797208 -0.0007812169    72.062411    64.386403    65.185693    48674.922 
24320000   -193498.05    1.6748041 -0.0026329372    72.534066    64.151013    65.409186    48687.715 
24325000   -194128.11    1.6825604 0.0045285979    71.287512    64.339408    64.944439    48700.548 
24330000   -193526.78    1.7128365 -0.0017777785    72.764174    64.568616    65.253072    48713.325 
24335000   -193633.71    1.7224456 0.0029726933    72.153939    64.848419    65.105973    48726.026 
24340000   -193508.61    1.6807768  -0.00316648    72.076722    64.831798    65.284263    48738.749 
24345000   -193631.71    1.7294271 -0.0048298132    72.270893    64.304083    65.327795     48751.53 
24350000   -193837.64    1.6621909 0.0016622035    71.884894    64.042947    65.291751    48764.306 
24355000   -193944.43    1.6618258 0.00010457004    71.639131    64.048915    65.459737    48777.093 
24360000   -193420.64    1.6945426 -0.0008258756    72.331081    64.232353       65.161    48789.869 
24365000   -193309.85    1.6920288 0.0016273956    73.265905    64.755907    64.596535    48802.631 
24370000   -193105.31     1.699311 0.0017200739    73.419473    64.555901    64.976159    48815.339 
24375000   -193189.63    1.7220002 -0.0024782263    73.011744    64.725408    64.968623    48828.009 
24380000   -193327.44    1.6927553 0.0056237745    72.024916     64.16143    65.431221    48840.725 
24385000   -193602.98    1.6899897 -0.002781308    71.304588    64.214265    65.785962    48853.483 
24390000   -193651.28    1.7088186 0.0018428415    72.083311    64.109437    65.258313    48866.284 
24395000    -193459.6    1.7042658 -0.0032247101    72.404194    64.760845    65.281989    48879.088 
24400000   -193817.36    1.7367184 0.0010067786    71.546413    64.727808    65.101063    48891.863 
24405000    -193645.8    1.6872664 -0.0034678011    72.727614    64.726918     65.06118    48904.644 
24410000    -193496.1    1.7531904 0.0018363113    72.496131    65.028202    64.483698     48917.44 
24415000   -193480.73     1.675142 0.00036110571    72.025761     65.54782    64.243718    48930.293 
24420000   -193509.54    1.6664588 -0.0013308048    72.940166    65.011293    64.311412    48943.039 
24425000   -193044.24    1.7038207 -0.00028013121    73.628763     65.05558    64.428315    48955.778 
24430000   -193241.31    1.6850694 -0.00020929213     73.48809    64.655843    64.524064    48968.493 
24435000   -193586.03    1.6872752 -0.0030171952    72.738718     64.79177     64.48958    48981.222 
24440000   -193610.75    1.6781796 -0.00067534912    72.292053     64.73284    64.664744    48993.981 
24445000   -193517.84    1.7131689 0.0022804821    72.866073    64.407825    64.912029    49006.736 
24450000   -193200.75    1.6582824 -0.0010305229    74.218327    63.907044    65.007204    49019.457 
24455000   -193034.72    1.6879434 -0.0020169716     74.06189    64.339775     64.93371    49032.137 
24460000   -193872.66    1.6861018 -0.00095259726    71.932638    64.044906    65.537084    49044.858 
24465000    -193760.9    1.6494276 0.0005773935     72.90201    64.027505    64.977078    49057.623 
24470000    -193895.8    1.6940331 -0.0005965736    72.552688    64.936843    64.064671    49070.365 
24475000   -193571.96    1.7116101 -0.0031031017    73.406047    64.676683    64.383372    49083.088 
24480000   -193485.57    1.6770176 -0.00037673409    72.803419    64.673337    64.577563    49095.848 
24485000   -193773.99    1.6913208 -0.00076275725    72.706704    64.505522    64.626772    49108.648 
24490000   -193405.48    1.7424114 0.00085371462    73.455678    64.133071    64.790707    49121.402 
24495000   -193203.03    1.6777451 0.0012979022    73.494676    64.217485    64.662501    49134.137 
24500000   -193274.78     1.669432 0.0027255371    72.988445    64.874145    64.283617    49146.881 
24505000   -193175.16    1.6660987 -0.00014223258    73.305789     65.06003    64.071078    49159.642 
24510000   -193440.76    1.6888464 0.0020936782    73.248987    64.896482    63.881202    49172.381 
24515000   -193189.65    1.6754976 0.0019885392    73.301433    65.149639    63.990641    49185.083 
24520000   -192894.16    1.6878823 -0.0035938694    74.248982    64.866036    64.403882    49197.805 
24525000   -193073.51    1.6714672 0.00096665322    74.197878    64.466508    64.409065    49210.528 
24530000   -193209.41    1.7161826 0.00057921411    74.105392    65.049159    64.089175    49223.232 
24535000   -193509.79    1.7101777 0.0019065922    73.137241    64.653634    64.461712    49235.933 
24540000   -193497.45    1.6979415 -0.0045850875    72.428672    64.976759    64.965201    49248.702 
24545000   -193297.46    1.7002728 0.0009189383    73.063573    64.932665    64.633147     49261.45 
24550000   -193197.73    1.7334819 -0.0025416465    73.376555    65.651147    63.971299    49274.168 
24555000   -193231.67    1.7247711 0.0021441921    73.320125    65.328186    64.208229    49286.903 
24560000   -193476.92    1.6764168 0.00035460671    73.245132    65.076063    64.388704    49299.633 
24565000   -193781.55    1.7106072 0.0018998934    72.515298    65.207622    64.158746    49312.377 
24570000   -193558.12    1.6720453 -0.0023305939    72.683679    65.457344    64.143289    49325.103 
24575000   -193421.02      1.71623 -0.0018583185    73.303986    65.197349     64.27476    49337.834 
24580000   -193355.51    1.6785834 -0.0019561126    73.013476    64.195705    64.984362    49350.569 
24585000    -193533.1    1.6853442 -0.00048326485     72.86519    64.007599    65.252163     49363.32 
24590000   -193776.12    1.6794089 0.0010973035    72.828368    63.793273    64.970365    49376.106 
24595000    -193576.6    1.7389397 -0.00086216476    73.017029    64.153573    65.155122    49388.947 
24600000   -193483.85    1.6933222 0.0037577479    72.229636    64.644482    65.165038     49401.71 
24605000    -193269.6    1.7244569 -0.0065670466    72.932542    64.620718    65.257122    49414.394 
24610000   -193470.71    1.7156727 0.0048472067     72.98087    64.306876     64.88071    49427.127 
24615000   -193357.88    1.6824725 0.0017890054    73.831741    64.287137    64.533949    49439.885 
24620000    -192845.3     1.724003 0.00098887454    74.408772    64.093762    64.832724    49452.585 
24625000      -192792    1.7170068 -0.0015836529    74.827201    64.210587    64.685295    49465.294 
24630000   -193140.87    1.7150976 0.0010930815    74.258032    64.052248    64.764843     49477.96 
24635000   -193762.93    1.7126861 0.00085174044    72.955627    64.458966    64.562576    49490.688 
24640000   -193958.77     1.675506 -0.0003742175    72.447834    64.885128     64.28845    49503.529 
24645000   -193621.62     1.713245 -0.0015284412    72.969196    64.293952     64.63149    49516.263 
24650000   -193535.28    1.7133526  0.001552792    72.598698    64.515896    64.832024    49529.065 
24655000   -193420.18     1.709498 -0.0032975076     72.83065    64.404348    65.088295    49541.871 
24660000   -193212.62    1.7156507 0.0044236127    73.429206    64.580656    64.431431    49554.617 
24665000   -193666.63    1.6846886 0.0021881071    72.606706    64.436554    64.548336    49567.354 
24670000   -193615.44    1.6773044 0.0011246001    72.616783    64.514713    64.593131    49580.103 
24675000    -193657.7    1.7521105 0.0026810406    72.087388    64.575968    64.870875    49592.894 
24680000    -193517.9    1.7459974 0.00035148245    72.453083    64.344463    65.097083    49605.642 
24685000   -193841.74    1.7169801 0.00054915079    71.829738    64.101877    64.932739    49618.425 
24690000   -193850.21    1.7315951 -0.00069171948    72.625028    63.885477    64.887542    49631.218 
24695000   -193853.24    1.6708583 -0.0015097856    72.287773     64.03802    65.167426     49643.99 
24700000   -193941.32    1.7602149 0.0046452197    72.045628    64.087365    64.977344    49656.763 
24705000   -193522.23    1.7372599 -0.0011473481     72.76767    64.177901     65.04761    49669.533 
24710000   -193654.73    1.7273275 -0.00025428618    72.156711    64.187513    65.252839    49682.313 
24715000   -193356.37    1.6904348 0.0023513795    72.621707    63.877633    65.483591    49695.035 
24720000   -193286.01    1.7361056 -0.0011825934     73.00995    63.984589    65.459882    49707.803 
24725000    -193275.8    1.7202133 -0.0046159374    73.620765    64.356775    65.043404    49720.542 
24730000   -193254.36    1.6981036 0.00079993696    73.757056    64.638828    64.756332    49733.297 
24735000   -193327.49     1.736512 -0.00089434423    74.697546    64.346702    64.627592    49746.009 
24740000   -193374.89    1.7099875 -0.00037477358    73.534854    64.543713    64.720401    49758.717 
24745000      -193390    1.7142602 0.0016704766    73.120521    64.448807     64.90597    49771.461 
24750000   -192987.71    1.6698156 0.0039484108    73.890226    63.511249    65.218979    49784.163 
24755000   -193502.87    1.7346757 0.0026079401    72.743542     63.64552     65.61568    49796.922 
24760000   -193125.01    1.6600447 -0.0014674635    74.015631    64.070293    65.154455    49809.626 
24765000    -193100.6    1.6805714 0.0023799964    75.141403    64.093736    64.093559    49822.324 
24770000   -193786.83      1.77105 0.0021114806     73.30087    64.767077    64.029204    49835.037 
24775000   -193443.77    1.6449795 -8.314556e-06     73.17334    64.733624    64.570962    49847.765 
24780000   -193477.81    1.7377574 -0.0017874244    73.451319     64.31959      64.7811    49860.504 
24785000   -193879.95    1.6632358 -0.00070215676    72.379544    64.337895    64.615221    49873.301 
24790000   -193660.41    1.7671856 0.00056714022     72.82978     64.41983    64.343599    49886.062 
24795000   -193506.63    1.7430543 -0.00057657868    72.653547    64.150163    65.135851    49898.824 
24800000   -193351.78    1.6634055 0.00056128397    73.651379    64.213851    64.882203    49911.531 
24805000   -193083.87    1.7173962 -0.00041866317    74.012495    64.249106    65.136986     49924.22 
24810000   -193679.21    1.6644472 0.0014701023    73.199011    64.594898    64.714683    49936.928 
24815000   -193728.34    1.7345958 -0.00058844483    72.506953    65.012577    64.344866    49949.699 
24820000   -193573.69    1.6918445 0.00082912464    72.235529    65.014993    64.123928    49962.502 
24825000      -193354    1.6798107 -0.0016283876    72.781352    64.254348    64.952561    49975.265 
24830000   -193369.13     1.651886 0.0041371562    73.328373    63.651501     65.17117    49988.033 
24835000   -193297.32     1.717806 0.00059102815    73.516119    63.923942     65.25823    50000.711 
24840000    -193333.7    1.7055287 0.0040813894    73.006276     64.42645    64.806186    50013.415 
24845000   -193560.88    1.7132521   0.00344584    73.349944    64.379574    64.070435    50026.172 
24850000   -193469.45     1.684229 -0.0015692893    73.736169    63.663089    64.710526    50038.952 
24855000    -193523.4    1.7385854 -0.0008691169     73.63481     64.00148    64.638194    50051.726 
24860000   -193244.38    1.6785205 -0.0015689411    73.650694    64.451266    64.636538    50064.434 
24865000   -193411.74     1.685881 0.00072353008    72.307724    64.662888    64.564743      50077.2 
24870000   -193483.21    1.7084855 0.00066134059    73.332535    64.468551    64.364242    50089.951 
24875000   -193279.26    1.7039833 0.0013001371    73.957203    64.391795    64.119338    50102.694 
24880000   -193354.67    1.7278906 0.0012870858    73.899011    63.927418    64.663564    50115.447 
24885000   -193707.56    1.7082336 0.00099880344    72.247036    64.744223     64.27721    50128.167 
24890000   -194079.72    1.6804924 -0.0018894518    71.495692    64.785152     64.49182    50140.977 
24895000   -193681.49    1.6879314 -0.0023567701    73.044732    65.187502    63.997478    50153.767 
24900000    -193250.6    1.7063262 -0.003744584    73.257303    65.233011     64.36221    50166.515 
24905000   -193756.78    1.6981836  0.004227463    72.088957    64.624502    64.563752    50179.243 
24910000   -193666.62    1.7286194 0.00083326467    73.055935    64.609718    64.432537    50192.007 
24915000   -192965.92    1.7012205 -0.0027271952    73.992447    64.989105    64.642952    50204.693 
24920000   -193153.29    1.7106448 0.0057805777    74.232008     63.70244    64.923319    50217.398 
24925000   -193001.14    1.6852814 -0.001145991    74.724114    63.707224    64.939075    50230.066 
24930000   -193462.96    1.7221717 0.0037195874    73.170712    64.051756     64.91939    50242.794 
24935000   -193973.62    1.6977901 -0.0014052658    72.986762    64.104514    64.867214    50255.539 
24940000   -193911.38    1.7076101 0.0033548622    72.066732    64.357376    64.876421    50268.326 
24945000    -193761.3    1.6946238 -0.0021107985    72.595667    64.514076     64.71475    50281.119 
24950000   -193681.81     1.658174 0.0010611178    72.513926    64.905507    64.250752     50293.89 
24955000   -193545.33    1.6998108 -0.0041301817    72.896444    64.475245    64.469587    50306.687 
24960000   -193660.91    1.7038432 0.0023194339    72.592568    64.311536     64.57593    50319.468 
24965000   -193700.96    1.6754105 0.0014626304    72.997889    64.106661    64.845741    50332.189 
24970000    -193372.1    1.7171296 0.0014416719    73.572106    64.468083     64.71434    50344.965 
24975000    -193282.7     1.687036 0.00090150242    73.958616    64.765102    64.278622    50357.657 
24980000   -193605.78    1.6843136 -0.0027914083    72.199577    65.203838    64.550904    50370.369 
24985000   -193666.12    1.6510637 -0.00033285762    71.669794    65.257132    64.416917    50383.122 
24990000   -193421.61    1.6888277 -0.00034996004    72.148844    64.906954     64.90895    50395.976 
24995000   -193092.96    1.7210869 -0.0034249547    72.861598    64.921362    64.912576    50408.745 
25000000   -193401.78     1.731494 2.7379499e-05    72.967315    64.882356    64.542679    50421.496 
25005000   -193659.76    1.6810582 0.0011450806     72.62871    64.187556    64.920341    50434.297 
25010000    -193813.3    1.7592318 3.0793894e-05    72.325046     64.22884    64.975981    50447.105 
25015000   -193413.05     1.670954 0.00058430192    72.122039    64.598401    65.109334    50459.922 
25020000   -193547.13    1.7279341 0.0011724127     72.13541    63.964376    65.401357    50472.668 
25025000    -194011.4    1.7084451 -0.0015926803    71.735716    64.147019    65.281768    50485.511 
25030000   -194012.21    1.6616971 -0.004286849    71.855425    64.376412     65.40608    50498.312 
25035000    -193439.9    1.7033688 0.0022576412    72.742942    64.473151    65.223023    50511.066 
25040000   -193792.01    1.7023218 -0.0022513575    71.999991    64.938573    65.001842    50523.776 
25045000    -193736.8    1.6755152 0.00068112154    72.523593    64.709497    64.696759    50536.569 
25050000   -193531.56    1.6850776  0.000111529    72.928922    64.577451    64.719547    50549.334 
25055000   -193226.11    1.6915444  0.003956115    73.119342    64.289119    64.961375    50562.062 
25060000   -192952.11     1.698553 -0.0034072271     73.40563    64.439457    65.354131    50574.805 
25065000   -193248.48    1.6956303 0.0038172611     73.07868    63.800432    65.146978    50587.516 
25070000   -193335.46    1.6493904 -0.0014764914     72.85052    64.255472    65.106553    50600.263 
25075000   -193339.67    1.7036607 0.0023036756     73.14197    64.824884    64.610126    50613.029 
25080000   -193415.55    1.7029914 -0.0030509396    73.611878    64.775939    64.442351    50625.721 
25085000   -193710.41    1.7438744 0.0023395686    72.654412    64.684167    64.246578    50638.503 
25090000   -193812.09    1.7025075 -0.00042219889    72.580751    64.819105    64.118945    50651.289 
25095000   -194189.58    1.6913627 0.00049984962    71.404217    64.950234    64.305206     50664.09 
25100000   -193842.16     1.728674 -0.00010995364     71.62815    64.353979    64.953434    50676.886 
25105000   -193476.58    1.6910042 0.0011728855    72.186361    64.557948    64.988501    50689.725 
25110000   -193154.89    1.7171594 -0.00067058418    74.035128    64.606202    64.570037    50702.431 
25115000   -193425.39    1.6987289 -0.0048727093    73.346454    64.817759     64.22852    50715.178 
25120000   -193364.06    1.7038066 -0.0010960104    72.728026    64.470485     64.75512    50727.915 
25125000   -193590.15    1.7598351 0.0030107444    71.532694    64.476494    65.168381    50740.709 
25130000   -193286.49    1.6352431 -0.0016704788    73.134745     64.54125    64.669094    50753.537 
25135000   -193202.83    1.6922559 -0.003550785    73.621556    64.148229    64.852005    50766.253 
25140000   -193030.92    1.7452437 -0.0019481577    73.809945    63.927526    65.394129     50778.98 
25145000   -193377.36    1.7522413 -0.0012834384    72.631029    64.230539    65.363968    50791.683 
25150000   -193703.11    1.7091623 0.0012910531    71.715058    65.122511    64.621527    50804.466 
25155000   -193907.06    1.7105824 0.00055803016     71.88164    65.218249    64.659572    50817.349 
25160000   -193735.75    1.6826504 0.0021397191    71.976619    64.823402    64.725512    50830.107 
25165000   -193572.98    1.5924087 0.00017865505    72.273245    64.730211    64.906315    50842.855 
25170000   -193230.18    1.7312316 -0.0019434309    72.892371    64.269798     65.24882    50855.628 
25175000   -193239.31    1.7044184 0.0028532451    73.177101    64.543551    64.538818    50868.346 
25180000   -193593.47    1.7137072 -0.003458753     72.79503    64.581974    64.718805    50881.091 
25185000   -193805.29    1.7036625 0.0013716668    72.842737    63.946931    64.831834    50893.822 
25190000   -193611.11    1.6725608 0.0033860731    72.575843    63.881676    65.041104    50906.572 
25195000   -193529.68      1.67903 -0.0038438894    72.707181    63.704943     65.59753    50919.294 
25200000   -193136.59    1.7434663 -0.00099526864    72.871709    63.976799    65.479339    50932.041 
25205000   -193589.42    1.7763469 0.00062302778    71.987442    64.376563    65.126073    50944.769 
25210000   -193650.07     1.727421 -0.0022463536    72.530533    64.418834     64.72929    50957.575 
25215000    -193450.2    1.6936037 0.00057932747    72.961611    64.580343    64.511821    50970.384 
25220000   -193673.51    1.7192908 -0.0026093487    73.278898    64.806262    64.364231    50983.135 
25225000   -193218.23    1.6925449 0.0020355715    73.970781    64.226773    64.661752    50995.811 
25230000   -193526.63    1.7149114 -0.00026468088    73.470499    63.931473     65.14752    51008.499 
25235000   -193604.16    1.7260506 -0.0015266168    72.486095    64.529798     65.01258    51021.244 
25240000   -193836.04     1.781286 -0.00045853268    72.065691    64.574461    64.909279    51034.001 
25245000    -193627.4    1.7272667 0.0042686749    72.207335    64.598825    64.773808    51046.801 
25250000   -193021.81    1.7130814 0.00095837076    73.566446    64.764045     64.67754    51059.532 
25255000   -193149.05    1.7085347 -0.0014709187    74.750664    64.898917    63.982398    51072.216 
25260000   -193569.89    1.6852017 -0.0033687752    72.830755    64.631544    64.593936    51084.951 
25265000   -193509.83    1.6820201 -0.0010377586    72.767795    64.765179    64.817498    51097.689 
25270000   -193472.06    1.7090005 0.0030084443    73.754296     64.06072    64.861615    51110.402 
25275000   -193333.26    1.6951465 -0.0015978074    73.861913    63.322062    65.611937    51123.152 
25280000   -193385.45    1.7333076 -0.002075016    72.720016    64.117904    65.266378    51135.858 
25285000   -193696.39     1.753204 0.0042265947    72.033994    64.451993    64.571875    51148.616 
25290000   -193519.57    1.7069907 0.0026838944    72.448724    64.731728    64.451546    51161.358 
25295000   -193405.34    1.6490694 0.00056889384    72.801251    65.244376    63.996626    51174.122 
25300000   -193536.33    1.7095654 0.0027084342    72.937437    65.241597    63.910416    51186.866 
25305000   -193497.95    1.7211688 -0.00059941973    73.846236    65.041603    64.102016    51199.636 
25310000    -193774.6    1.7215224 -0.0042894257    72.703728    65.317643    64.354992    51212.327 
25315000   -194326.06    1.6767071 -0.0020421702    70.876366    65.206274    64.050481     51225.12 
25320000   -193916.43    1.6747175 -0.00038507392    71.342455    64.824603     64.65181    51238.003 
25325000   -192790.51    1.7393236 0.0024587519    73.402368    64.344342     65.28596     51250.77 
25330000   -192987.96    1.7456951 4.2331392e-05    73.776545    64.422323    64.964278    51263.445 
25335000   -193086.96    1.6973818 -0.0003331392    73.668359     64.37878    65.096037    51276.144 
25340000    -193160.1    1.6501318 -0.0014544331    72.743991    65.153982    65.009077    51288.844 
25345000   -193139.94    1.6960762 -0.002466486    72.033601    65.931417    64.537485     51301.57 
25350000   -193340.68    1.6824486 -0.00074067924    72.489341    65.212015    64.342711    51314.377 
25355000   -193028.34    1.7165976 -0.00048292804    73.712639     64.78962    64.521197     51327.13 
25360000   -193416.18    1.6954106 0.0027815035    73.227336     63.86743    65.006003    51339.843 
25365000    -193779.3    1.6624254 0.0040165261    72.679139    63.329974     65.37217    51352.614 
25370000   -193322.28    1.7294036 1.0828971e-05    73.470568    64.223216     64.65153    51365.439 
25375000   -193211.84     1.707051 -0.0012639635    73.465695    64.407749    64.342648    51378.162 
25380000   -193565.96    1.6661013 0.00040313452    72.630607    64.524386    64.351578    51390.934 
25385000   -193836.92    1.7348647 0.00079534275    72.064761    64.592587    64.771042    51403.712 
25390000   -193609.65    1.6885642 0.0034508753    73.134639    63.969942    65.127359    51416.512 
25395000   -193018.75    1.6690712 0.0016442492    73.398398    64.265808    65.020365    51429.266 
25400000   -192994.36    1.7345477 -0.00054818601    73.002058    64.664546    64.983096     51441.99 
25405000   -193112.43     1.718933 -0.0008040342    73.247798     64.58198    64.897216    51454.687 
25410000   -193335.31    1.6852049 0.00097471044    73.146411    64.418274    65.063524    51467.417 
25415000   -193021.89    1.6988318 0.0021306544    73.660566    64.556984    64.840071    51480.103 
25420000   -193088.12    1.6858259 0.00048147379    72.699907    64.404634    65.024967    51492.846 
25425000   -193467.99    1.6865216 0.0002657537    72.794097    63.760935    64.962583    51505.566 
25430000   -193585.26    1.7008245 -0.00072285701    72.527587    64.328791    64.628813    51518.398 
25435000   -193251.12    1.6597365 -0.0039701677    73.633123     64.14871    64.965883    51531.137 
25440000   -193014.79    1.7401614 -0.0011291918    74.399158    64.482656    64.789162    51543.863 
25445000   -192897.76    1.6816595 0.00049024709    73.923502    64.937891    64.423013    51556.537 
25450000   -193324.98    1.7228994 -0.00086027113    73.625185    65.172139    64.135885    51569.228 
25455000    -193302.2    1.6910094 -0.0018276938    73.574528    65.514694    64.066811    51581.927 
25460000   -193272.04    1.6782088 -0.00037241338    72.713992    65.395863    64.472501    51594.672 
25465000   -193560.11    1.7226096 -0.0023121058    72.130385    64.845388    64.913986    51607.428 
25470000   -193817.62    1.6847094 -0.0019388865    71.866518    64.481797    65.129772    51620.246 
25475000    -194121.6    1.7007472 0.00023605597    71.130298    64.566849      64.9314    51633.031 
25480000   -193935.31    1.6946264 -0.0010443151     71.06732    64.456841    65.272797    51645.872 
25485000   -193792.45    1.6620308 -0.00079389841    70.858603    65.288733    65.029574    51658.694 
25490000   -193767.42    1.6706551 -0.00086963417    72.052393    65.225652    64.291059    51671.474 
25495000   -193337.86    1.6908888 -0.00082875562    72.681794    64.956096    64.832191    51684.234 
25500000   -193384.34    1.7045139 -0.00023828682    72.476265    64.736825    65.167143    51696.985 
25505000   -193245.86    1.7412648 -0.002888774    72.635379    64.663003    65.453199    51709.748 
25510000   -193816.68    1.6831173 -0.0028989817    72.302632    64.440666    65.161321    51722.517 
25515000    -194056.4    1.7271765 0.00023762886    71.950534    64.428969    64.986594      51735.3 
25520000   -193806.67    1.6594244 0.0030592714    72.559097    64.597489    64.560375    51748.052 
25525000   -193665.45    1.6464112 -0.0029124029     72.20013    64.912625    64.846198    51760.808 
25530000   -193789.59    1.6471275 0.00091873936    71.306066    65.325741    64.555233     51773.61 
25535000   -193522.88     1.770986 0.0012396087    72.065283    65.228401    64.434994    51786.316 
25540000    -193423.5    1.7320248 -0.0036668245    72.148094    65.346686    64.585926    51799.097 
25545000   -192970.95    1.6807054 0.0035026461    73.234892    64.718672    64.660804    51811.861 
25550000    -193083.3    1.6649309 0.0011017472    73.183961    64.375349    64.555125    51824.587 
25555000   -193121.15    1.7247195 0.0034206493    73.015839    64.183792    64.945972    51837.335 
25560000   -193469.76    1.6993893 -0.0016409021    73.443125    63.844958    65.444022    51850.067 
25565000   -193585.61    1.7238223 0.0018459034    72.949823    63.974079    65.221002    51862.797 
25570000   -193646.29    1.7094146 -0.0010147535    72.381447    64.405574    65.010387    51875.585 
25575000   -193936.56    1.7037595 0.0013453375    71.791667    64.449195    64.814405    51888.341 
25580000   -193793.56    1.6410966 0.0015197245    73.056034    64.515746    64.270405    51901.118 
25585000   -193254.05    1.6598081 0.0019848376    73.650774    64.901443    64.041385    51913.886 
25590000   -193589.49    1.6787888 -0.0030177737    72.194433    64.563295    65.022333    51926.644 
25595000   -193377.29    1.6779838 -0.0010889766     73.49209    64.047554    65.023706    51939.363 
25600000   -192957.04    1.6873512 -0.0039957434     73.96978    63.891895    65.403309    51952.086 
25605000   -193698.55    1.7207944 -0.00040564037    72.548584    64.702931    64.632148    51964.834 
25610000    -193565.6    1.6994181 0.0018983558    72.766113    64.317518    64.673409    51977.592 
25615000   -193480.68     1.681774 -0.0048376684    72.637974    64.408142    65.051793    51990.358 
25620000   -193224.01    1.7329217 -0.0027077696    73.071904    64.187593     65.31958    52003.097 
25625000   -193332.49    1.6694921 -0.00051159432    73.279272    63.886996    65.270359    52015.848 
25630000   -193518.91    1.7156204 0.00028849137    72.729148    63.909753    65.399793    52028.598 
25635000   -193750.87    1.6853957 0.0028504271    72.587517    63.881708    65.330362    52041.358 
25640000   -193730.28    1.6421582 0.00083723597    72.393631    63.874553    65.437986    52054.141 
25645000    -193622.6    1.7180226 0.0024711597      72.8499    64.245108    64.305748     52066.87 
25650000   -193907.68     1.720685 0.0037794585    71.965389    64.208189    64.728697    52079.621 
25655000    -193651.2    1.7039019 0.0017506525    72.253098    64.879505     64.55691    52092.408 
25660000   -193305.41    1.6689394  0.004628862    73.326123    64.504466    64.628745    52105.114 
25665000    -193516.2    1.7147479 -0.00045541402    72.630086    64.644651    64.976055    52117.836 
25670000   -193305.45    1.7148752 0.0011996621    72.843022    64.717659      64.6667    52130.561 
25675000    -193643.7    1.7477487 -0.0011572595    72.565741    64.623402    64.536638    52143.341 
25680000   -193297.76    1.6882007 -0.0027048926    73.188383    64.805826    64.694368    52156.099 
25685000   -193284.98    1.6871886 0.0016352735    73.436396    64.772674    64.354177    52168.775 
25690000   -193584.24    1.7076153 0.00016641573    72.318108    64.289757     64.81973    52181.554 
25695000   -193563.32    1.6859236 -0.0010003926    71.920404    64.892466    64.817307     52194.35 
25700000   -193443.08    1.7558959 0.0019055184    72.372174     64.97626    64.355096    52207.129 
25705000   -193298.97    1.6792895 -0.00029189951    73.133332    64.864183    64.872893    52219.872 
25710000   -193214.07    1.7223241 0.0060427102    72.969122    64.532419     64.84567     52232.55 
25715000   -193549.66    1.6434803 0.0012369965    72.476788    64.597052    64.999184    52245.264 
25720000   -193379.36    1.7009782 -0.0029611426    72.769593    64.218667     65.28286    52258.047 
25725000   -193058.57    1.7063719 0.0012759962    74.083477    64.400643    64.747862    52270.733 
25730000   -193279.48    1.7101577 0.0031583278     73.78932    65.061713    64.340753    52283.418 
25735000   -193132.11     1.678688 0.0030910546    73.794829    64.676282    64.719958    52296.073 
25740000   -192712.09    1.7576551 -0.003947655    74.927876    64.370951    64.860344    52308.713 
25745000   -193318.38    1.7384429 -0.00096392797    73.255218    64.316155    64.760307    52321.407 
25750000    -193716.8    1.7071509 0.00080119633    72.280902     64.42015    64.615013    52334.144 
25755000   -193712.59    1.7413575 -0.0013446122    73.040121    64.655003    64.523646     52346.96 
25760000    -193578.4    1.7074243 -0.0023844593    73.890571    64.244402    64.751562    52359.696 
25765000   -193144.61     1.711971 -0.0016158392    74.423998     64.42408    64.392629    52372.365 
25770000   -193047.15    1.6608052 -0.0014071345    73.811316    65.195254     64.02599    52385.067 
25775000   -193157.98    1.7106943 0.0010467779    73.574216     64.85713    64.268324     52397.75 
25780000    -193530.6    1.7524122 0.0020092602    72.898965     64.47251    64.725493     52410.45 
25785000   -193195.77     1.630218 -0.00065649086    73.519781    64.125397    65.115367    52423.183 
25790000   -193048.88    1.6922484 0.0039273156    73.819769    64.346348    64.473022    52435.912 
25795000   -193035.44    1.6237697 -0.0025924223     73.12192     64.65084    64.710506    52448.613 
25800000   -193651.43    1.7005886 0.0011482902    72.853717    64.705191    64.318732    52461.368 
25805000   -193785.01    1.7466409 -0.00067093566    72.842607    64.859882    64.141657     52474.12 
25810000   -193825.07    1.6761145  0.001997441    71.993021    64.965325    64.514226    52486.862 
25815000   -193656.65    1.7288365 -0.003900235     72.66505    64.482733    64.966038    52499.615 
25820000   -193468.54    1.6950116 0.00085841395    72.806719    64.507139    64.880043    52512.353 
25825000   -193209.78    1.6899133 0.00084187278    73.131155    64.257267     65.23885    52525.091 
25830000   -193076.82     1.678437  0.002597219    73.516279    64.200147    64.856668    52537.765 
25835000    -193362.1    1.6941383  0.001488233    73.192672    64.665946    64.738801    52550.499 
25840000   -193313.26    1.7350697 -0.0031683226    73.021071    65.308009    64.581772    52563.182 
25845000   -193352.77    1.6781115 -0.0025407846    73.118154    64.985641    64.503743      52575.9 
25850000   -193480.97    1.7148316 -6.0171854e-05    72.719054    65.169609    64.298057    52588.638 
25855000   -193487.98    1.7072227 -0.00035783839    73.412969    64.678815    64.649198    52601.341 
25860000   -193054.14    1.7346431 0.0013313558    73.630127    64.447847    64.692164    52614.014 
25865000   -193158.41    1.6879856 -0.0013782516    73.834156    64.239923    64.743663    52626.713 
25870000   -193306.57      1.70346 -0.001389817    73.947677    64.642276    64.362139    52639.462 
25875000   -193269.52    1.6961144 0.0030164171    73.295986    64.928823    64.130656    52652.198 
25880000   -193472.93    1.7023112 -0.0014379432    73.670738    65.364146    64.004026    52664.924 
25885000   -193359.77    1.6930195 0.0010131103    74.203889    65.038152    64.306678    52677.643 
25890000   -193479.06     1.734615 0.0025446474    73.758564    64.864481    63.988831     52690.32 
25895000   -193453.88    1.6934361  0.003150098    73.235637    64.313519    64.649418    52703.032 
25900000   -193524.21    1.7210306 -0.00076727201    73.072652     64.13623    65.197025    52715.749 
25905000   -193573.77    1.7096817 -0.00029119266    72.649747    64.261066     65.16517     52728.49 
25910000   -193486.15    1.6797174 -0.0017498213    72.576701    64.971189    65.150059    52741.159 
25915000   -193132.24    1.6536126 -0.00059359621    73.706542    65.042228    64.380248    52753.841 
25920000   -193564.88    1.7026656 0.00080408743    73.645187    64.616905    64.072963    52766.575 
25925000   -193815.46    1.7268198 0.0051750591     72.41792     64.12836    64.670689    52779.313 
25930000   -193744.28    1.6852836 -0.00076172754     72.25155    64.368463     64.74803    52792.075 
25935000   -193885.86    1.7042981 0.0017931684    72.284821    63.573645    65.182236    52804.933 
25940000    -193401.5    1.6815727 -0.00063409597    72.604371    63.846112    65.662564    52817.696 
25945000   -193402.93    1.7587123 -0.001531662    72.538316    64.276985    65.436137    52830.456 
25950000   -193443.11    1.6727814 0.0014201341    72.812722    64.643574    64.760135    52843.154 
25955000   -193472.26    1.7110881 -0.0010087679     73.06611    65.177372    63.988839    52855.864 
25960000   -193621.65     1.684373 -0.0046868599      72.6565    64.879212    64.415508    52868.636 
25965000   -193638.42    1.6713957 -0.00025035147    72.486947    64.062265    64.914131    52881.398 
25970000   -194097.41    1.7096358 -0.0017601185    71.311502     64.26097    64.922334    52894.187 
25975000   -193961.03    1.6564621 -0.0013861174    71.859759    64.507385    64.762525    52907.057 
25980000   -193645.36    1.7365362 -0.002777426    72.795502    64.515427    64.802973    52919.853 
25985000   -193196.86    1.7022728 0.0021849832    72.841495    64.652983    65.035529    52932.564 
25990000   -193431.13    1.6980296 0.0023333992    71.996791    64.994376     64.91509    52945.376 
25995000   -193466.38    1.7195821 0.0020589423    72.076623    64.393836    65.527424    52958.154 
26000000   -193459.93    1.7131813 0.0022896304    72.274838    64.580688    65.180125     52970.92 
26005000   -193392.45    1.6977394 -0.00033534224    72.752667    65.011504    64.707761     52983.65 
26010000    -193281.6      1.68227 -0.0042721292    73.487771    64.959718    64.254964    52996.392 
26015000   -193433.65    1.6785098 -0.0011090962    72.924111    65.067772    64.376399    53009.129 
26020000   -193430.21    1.7041846 -0.00042090534    72.956786    64.645463    64.401333    53021.893 
26025000   -193965.53    1.7173789 0.0028244437    71.405703    64.911007    64.572463    53034.695 
26030000   -194029.93    1.7184986 0.0006582526    70.530048    65.260025    64.747097    53047.569 
26035000   -193892.24    1.6682689 -0.0030939254    71.105566     65.21105    64.799992    53060.352 
26040000   -193861.36    1.6621715 -0.00039182617    71.693155    64.989156    64.575424    53073.137 
26045000   -193896.97    1.7152317 -0.005062368    71.950124    64.992589    64.682424    53085.978 
26050000   -193636.03    1.7236781 0.00048309268    72.375731    64.875742    64.718606    53098.743 
26055000   -193354.11    1.6440065 -0.00065746572    72.829025    64.914097    64.593528    53111.511 
26060000   -193697.98    1.7033747 0.00073801947    71.875081    64.867714    64.571063    53124.265 
26065000    -193771.8    1.6717008   0.00145589    71.932318    64.485745    64.978275    53137.084 
26070000   -194046.26    1.6902789 -0.0034374136     72.43753    64.573275    64.659791    53149.862 
26075000    -193464.6    1.6704551 -0.0006982252    72.986874    64.805439    64.737558    53162.666 
26080000   -193475.22    1.6771911 0.00016776172    72.562294     64.61585    64.985431    53175.424 
26085000   -193947.69    1.6675162 -0.003188047    71.063002    65.172441    64.967748    53188.185 
26090000   -193625.81    1.7709804 0.0062042994    72.458072    64.701336    64.216129    53200.935 
26095000   -193294.14    1.6983482 0.00024371765    73.454454    64.668349    64.376844    53213.686 
26100000   -193702.57    1.7178486 -0.0014876042    73.021353    64.711132    64.464029    53226.433 
26105000   -193594.11    1.7033075 -0.00083230349    72.814515    64.350936    65.046026    53239.174 
26110000   -193660.44    1.6888126 0.0015688704    72.743271    64.186622    65.065825    53251.896 
26115000   -193573.82    1.7135351 0.0019641915    72.270689    64.715751     64.88271    53264.664 
26120000   -193125.95    1.6690846 -0.00098693383    73.812109    64.283386    64.997932     53277.36 
26125000   -193773.36    1.6536419 -0.0012209903    73.437245    63.897014    65.102613    53290.113 
26130000   -193598.42    1.6994678 0.00035490686    72.893351    64.005988    65.264356    53302.925 
26135000   -193677.43    1.6950837 0.0028607417    71.606407    64.431989    65.116418    53315.716 
26140000   -193566.77    1.7027171 -0.0045726501    72.785759    64.790166    64.723859    53328.487 
26145000   -193102.56    1.7493318 0.0055299445    73.074213     64.82473    64.630757    53341.205 
26150000   -193356.76    1.7296568 -0.004171257    73.619341    64.681345    64.430693    53353.895 
26155000   -193573.96    1.7360917 7.5668159e-05    73.336552    64.356845    64.203564    53366.634 
26160000   -193300.51    1.7180432 0.00039446814    73.518703    64.387096    64.206427    53379.361 
26165000   -193290.43    1.6955299 -0.0032067804    74.294837    64.699078    63.732771    53392.118 
26170000   -193221.66    1.6543815 -0.0032249464    73.981037    64.393395    64.554671    53404.838 
26175000   -193480.91    1.6850259 0.0014842813    73.462867    64.594517    64.357698    53417.563 
26180000   -193354.71    1.6907422 -0.0013901896     73.74122    64.678344    64.585143    53430.296 
26185000   -193306.41    1.6421577 -0.0019728469    73.346715    64.540258    64.866524    53442.998 
26190000   -193575.43    1.6706021 -0.00065830985    72.005769    64.756421    65.027395    53455.693 
26195000   -193704.32    1.6955604 0.0011031797    71.982797     64.51879    64.843672    53468.442 
26200000   -193446.11    1.7322729 -0.00071690322    72.150499    64.358288    65.132001    53481.189 
26205000   -193818.75    1.7268002 0.00010983693    72.330521    64.169591    64.935163    53493.921 
26210000   -193501.61    1.6977097 0.0061101424    72.340709    64.443349    64.802761    53506.639 
26215000   -193614.93    1.7109552 -0.0041402251    72.577382    64.812056    64.746821    53519.323 
26220000   -193603.56    1.7193319 0.0016298138    71.911991    65.358364    63.934419    53532.069 
26225000   -193842.54    1.6707714 -0.0013232071    72.340499    64.366916    64.498388    53544.872 
26230000    -193564.7    1.6911493 0.0012072601    72.513882    64.358962     64.71286    53557.638 
26235000   -193494.97    1.7019797 0.0014051691    72.916436    64.492165    64.678593    53570.376 
26240000    -192887.9    1.7448676 0.0032476706     74.25015    64.568779    64.675731    53583.059 
26245000   -193049.39    1.6939345 0.00043775598    73.627928    64.364009    64.978293    53595.755 
26250000   -193411.33     1.729742 0.0015546029    73.014865    64.718824    64.824993    53608.433 
26255000      -193376    1.7214872 2.1345644e-05    73.101089    65.024115    64.444471    53621.156 
26260000    -193241.8    1.7125263 -0.00049515149    73.792535    64.800915    64.238513    53633.913 
26265000   -193133.56    1.7218351 0.0012632728     73.38922     64.56231    64.364106    53646.601 
26270000   -193639.49    1.7093872 -0.00036301574    71.882649    64.448641    64.701385      53659.4 
26275000    -193404.3    1.6762324 -0.0027631796    72.716274    64.704462    64.443021    53672.203 
26280000   -193092.25    1.7231274 -0.0026279783    74.410676    64.107127    64.854524    53684.932 
26285000   -193039.92    1.7131035 0.0034918919    74.309463    64.370493    64.900832    53697.609 
26290000   -192703.53    1.7292635 0.0032370909    74.870768    64.503804    64.409335    53710.239 
26295000   -193203.92    1.7493959 -0.0018605381    73.765973    65.154811    64.078045    53722.958 
26300000   -193384.68    1.7581328 0.0017473978    73.321781    64.717667    64.250069    53735.689 
26305000   -193623.86    1.6793902 -0.0027452748    73.361507    65.054073    63.958971    53748.421 
26310000   -193486.35    1.7138168 0.0027474583    72.935496    64.908874     64.45165    53761.148 
26315000   -193242.12    1.7374013 -9.1271378e-05    72.857561    64.889002    64.682031      53773.9 
26320000   -193371.26    1.7244756 0.00052118345    72.968217     65.25389    64.114746    53786.643 
26325000   -193046.38    1.7255352 0.0057113676    73.973075    64.616376    64.262998    53799.401 
26330000   -193039.31    1.6931772 -0.0023862329    73.775318    65.124737    64.277047    53812.136 
26335000   -193156.94    1.7137586 0.0011817283     73.37696    65.235096    63.902131    53824.851 
26340000   -192877.22    1.6669604 -0.0055305356    73.524879    65.183085    64.383745    53837.564 
26345000   -193255.01    1.6262345 0.0047753233    72.831033    65.261867    63.739007    53850.324 
26350000    -193438.3    1.7156724 0.0031386263     73.07514    65.262324    64.088555     53863.06 
26355000   -193352.54    1.6652466 0.00033242381    73.385831     65.08203     64.36302     53875.77 
26360000   -193402.37    1.6645385 0.0013255629    72.520089    64.856086    64.709257    53888.509 
26365000   -193480.41    1.6493415 0.0006706297    72.319494     64.83736    65.017885    53901.296 
26370000   -193595.71     1.673004 -0.0027225596    72.040711    64.682991    65.282663    53914.027 
26375000   -193537.78    1.6479151 -0.0025300447    72.907084     64.32399     65.11277    53926.753 
26380000   -193605.31    1.7005271 -0.0022308466    72.666879    64.259719    65.405075    53939.523 
26385000   -193325.01    1.7050461 0.0011895008    73.236629    64.305034     64.81878    53952.225 
26390000   -193526.23    1.7038501 -0.001381762    72.341483    64.547652    64.984694    53965.005 
26395000   -193785.97    1.7074707 0.0019981413    71.897335    64.701347    64.662419    53977.766 
26400000   -193772.82     1.692893 0.00055992895    72.024838    64.872206    64.373418    53990.565 
26405000   -193479.59    1.6913955 -0.00099847053    72.530232    65.061434    64.602779    54003.348 
26410000   -193738.02    1.7386893 -0.0028640408    71.757373    65.030722    64.357425    54016.113 
26415000   -194023.59    1.7451868 -0.0018148421    70.673148    65.299508    64.359266    54028.947 
26420000   -194060.69     1.698014 0.00071161279    71.456201    64.760154    64.534712    54041.811 
26425000   -193350.59    1.7084061 -0.00044762082    72.217352    64.984171    64.407463    54054.595 
26430000    -193478.3    1.7140727 -0.0016370822    72.108407    64.814309    64.464496    54067.366 
26435000   -193093.31     1.717944 -1.0606292e-05    72.718308    65.047493    64.567287     54080.12 
26440000   -193224.57    1.7120794  0.004034335    72.910254    65.016109    64.518093    54092.851 
26445000   -193204.86    1.7350629 0.0039239218    73.233186    65.099912    64.342478    54105.541 
26450000   -193465.66    1.6987124 0.0022468632    72.100962     65.23655    64.514699    54118.303 
26455000   -193345.77    1.6908363 0.0023540727    73.249788    64.189307    64.916884    54131.029 
26460000    -193608.9    1.7388444 -0.004031547    72.345153    64.377881    65.202903    54143.849 
26465000   -193677.41    1.7187972 0.0041284827    72.294129    64.141541    64.940799    54156.625 
26470000   -193670.75     1.689427 0.00035700182    72.751246     64.48984    64.833381     54169.38 
26475000   -193698.97    1.7115968 -0.0020272772     72.62297    64.699991    64.774476    54182.128 
26480000    -193662.4    1.6705947 -0.0022089233    72.245232    64.683236    64.794092    54194.907 
26485000    -193342.3    1.6773408 -0.0028717951    72.596026    64.996085    64.850083    54207.703 
26490000   -193143.52    1.6464873 0.00096939094    72.645584    64.383871     65.14065    54220.434 
26495000   -193250.66    1.6376599 -0.0010665967    72.648148    64.287446    65.250468    54233.193 
26500000   -193647.25    1.7460536  0.001929301    71.791139    64.933933    64.645101    54245.981 
26505000   -193574.61    1.6741025 -0.00062449675    72.261446    64.627229    64.810564    54258.741 
26510000   -193025.07     1.708929 0.0036615538    73.126769    64.032251    65.191723    54271.461 
26515000   -193083.71    1.7145202 -0.0034589522    74.006956    64.178076    65.131186    54284.192 
26520000   -192928.18    1.6898957 -0.00078773591    74.925275    63.761689    65.134574    54296.912 
26525000   -193107.75    1.6980412 -0.0023566346    73.028856    64.528893    64.836833     54309.62 
26530000   -193207.35    1.7147634 -0.0002908134    73.078275    64.488006    64.649483    54322.341 
26535000   -193269.34    1.7077324 0.0021012047    73.695914    64.057961    64.722361    54335.037 
26540000   -193185.82    1.7282739 -0.0018336875    72.912067    64.752556    64.748706    54347.802 
26545000   -193498.97    1.7188249 -1.3052881e-05    72.551527    64.679853    64.926036    54360.508 
26550000   -193310.02    1.6951249 0.00076185541     73.23179    64.367801    65.064872    54373.265 
26555000   -193342.66    1.7181199 -0.0012478907    73.237117    64.456635    64.789541    54385.999 
26560000   -193677.29    1.6759752 0.00072330619    72.371964    64.915131    64.441852    54398.788 
26565000   -193634.77    1.7072765  0.001156475    71.584882    64.532334     64.78594    54411.586 
26570000   -193557.37    1.7605742 0.0016793254    72.443576    64.199312    64.830113    54424.458 
26575000   -193522.37     1.689166 -0.0051576445    72.144019    64.397958    64.988493    54437.225 
26580000    -193473.5    1.6987976 -0.0035012515    73.052194    64.496433    64.509719    54450.043 
26585000   -193560.32    1.7244906 -0.00047595031    72.540705    64.479105    64.853052    54462.801 
26590000   -193652.18    1.7004775 -0.001760568    72.469997    64.623028    64.795598    54475.589 
26595000   -193479.33    1.6866385 -8.9859707e-05      71.5398    64.302078    65.515372    54488.383 
26600000   -193541.83    1.7372854 -0.0014748049     72.68576    64.485635    65.170902    54501.169 
26605000    -193245.4    1.6735966  0.001944457    72.554399    64.818792    64.927031    54513.901 
26610000   -193297.89     1.738745 -0.0035707433    72.939417    64.732295    64.911492    54526.613 
26615000   -193544.04    1.6812081 0.0012105614    72.051272    64.902292    64.586778    54539.406 
26620000   -193245.37    1.6945108 0.0028364282    72.313796    64.884233      64.7407    54552.194 
26625000   -193299.64    1.7105892 0.0010860089    73.510434    63.919998    65.151277    54564.907 
26630000   -193462.31    1.6553175 -0.0017586776    72.977816    64.391511    65.110054    54577.701 
26635000   -193432.05    1.7196036 -0.00095222042    73.021334    64.605512    64.902399    54590.419 
26640000   -193382.58    1.6601163 -0.0035877645    73.141138    64.931967    64.433136    54603.164 
26645000   -193210.15    1.7040518 -0.0033458599    73.338397    64.845237    64.503249    54615.883 
26650000   -193624.28    1.6608138 0.0013881716    72.378702    64.776184    64.540051    54628.637 
26655000   -193320.71    1.6487268 0.0030852794    73.541458    64.313374    64.671449    54641.406 
26660000   -193283.93    1.6807936 -0.0048855467    73.197737      64.1653    65.569985    54654.122 
26665000   -193513.42    1.6583364 0.0023663219    72.424505    64.312152    65.141837     54666.87 
26670000   -193554.56    1.7122562 -0.0012545041    72.447318    65.048217    64.866167    54679.634 
26675000   -193037.97    1.6682325 -9.6014643e-05    72.501938    65.064104    65.120218    54692.357 
26680000   -192980.24    1.6944589 0.0016259428    73.584069    64.901869    64.422222    54705.053 
26685000   -193540.45     1.668656 0.0016890877    72.456195    64.533046    64.961681      54717.8 
26690000   -193339.33     1.653378 0.0018000467    72.294103    64.928137     64.48175     54730.57 
26695000   -193216.38    1.7433773 -0.0018084449    72.779302    64.718036    64.653612    54743.316 
26700000   -192979.74    1.7341538 0.00085088298    73.093609    64.884541    64.693376    54756.024 
26705000   -192837.76    1.6509341 0.0025546054    74.646571    64.649174    64.576264    54768.727 
26710000   -192827.74     1.693036 0.00080269292    74.778537    64.908038    64.480176    54781.369 
26715000   -193169.02    1.7015816 -0.0025961923    74.105276    65.057356    64.016145     54794.02 
26720000   -193512.68    1.7009638 0.00040788559    72.898791    65.539303    63.818228    54806.722 
26725000   -193439.83    1.7253328 0.0014514267    73.249303    64.691293    64.636562    54819.428 
26730000   -193729.29    1.7052473 -0.0019264267    71.882487    65.223753    64.568628    54832.226 
26735000   -193508.47     1.748937  0.001851342    72.347614    64.885625    64.494325    54844.994 
26740000   -193758.33    1.6732229 -0.0007477552    70.899981     65.28856     64.91119    54857.757 
26745000   -193669.76    1.7130955 0.0021991538    72.121471    65.034143    64.231349    54870.589 
26750000   -193738.86    1.6957143 0.0026520492    71.955574    65.149841    64.292691    54883.392 
26755000    -193527.7     1.687497 0.00077291422    72.536541    65.248047    64.177048    54896.243 
26760000   -193473.22    1.6936163 0.00047553001    72.939857    65.373208    63.633483    54908.975 
26765000   -193508.39    1.6738399 0.0023701367    72.685154    65.496098    63.680003    54921.732 
26770000   -193305.42    1.7111126 -7.5174412e-05    73.165159    64.938416    64.494089    54934.516 
26775000   -193326.98    1.7504599 0.0030035258    73.779957    64.409158    64.338119    54947.233 
26780000   -193603.83    1.6901827 -0.0023352718    72.624577    65.034248    64.468417    54959.967 
26785000   -193728.52    1.7071305 0.0012283433    72.686113    64.657606    64.632054    54972.734 
26790000   -193819.26    1.7138197 -0.0020651383    72.256602    64.828664    64.604876    54985.506 
26795000   -193375.43    1.6543341 0.0018168273    72.932623    64.301482    64.823943    54998.294 
26800000   -193540.24      1.70046 0.00010981706    72.938265    63.856517    65.222156    55011.019 
26805000   -193862.54    1.7242854 0.0011258017    71.804219    64.185083    65.222392    55023.842 
26810000   -193818.96    1.7167625 0.0013872054       72.458    64.120209    64.851846     55036.63 
26815000   -193742.29     1.667436 -0.0048839671    72.427112    64.615828    64.710152    55049.404 
26820000    -193639.1     1.667344 0.00038284038    72.739537    64.857277    64.287474      55062.2 
26825000   -193460.44    1.6945952 -0.00041603881    73.026022    64.884099     64.69347    55074.918 
26830000   -193331.64    1.6810403 0.0021176004    72.953279    64.715879    64.651943    55087.636 
26835000   -193220.93     1.670329 0.0018576699    73.123433    64.253052    65.037474     55100.39 
26840000   -193703.54    1.6831981 0.0073408136    71.989191    64.230976    65.174778    55113.115 
26845000   -193545.35    1.6727598 -0.0016261781    72.892875    64.051379    65.209063    55125.894 
26850000   -193101.86    1.7114424 0.0013206677    72.804046    64.330813    65.019586    55138.657 
26855000   -193095.92     1.739116 -0.004417062    73.212009     65.44375     64.14794    55151.449 
26860000   -193263.45    1.6807214 0.0013201295    73.605946    65.305768    63.878129    55164.185 
26865000   -193347.28    1.6940082 -0.00014978521    74.025588    65.100925    63.911046    55176.942 
26870000   -193241.97    1.7446819  0.001594807    73.786803    64.766061    64.383942    55189.614 
26875000   -192925.08    1.7361725  0.005063823    74.035451    64.453158    64.398583    55202.337 
26880000   -193135.79    1.6959227 0.0039241939    73.358184    64.490196    64.403838    55215.059 
26885000   -193378.53    1.6826494 -0.00045699742    73.544573    64.903597    64.129056    55227.778 
26890000   -193098.89     1.709127 -0.0018325593    74.150991     64.40867    64.667583     55240.51 
26895000   -193366.14    1.6994433 -0.0040271944    73.964396    64.765388    64.340562    55253.209 
26900000   -193087.41    1.6635027 -0.00037748324    74.041544    64.298918    64.577883    55265.914 
26905000    -192998.8    1.7489914 0.0045523211    73.757814    64.401014     64.51213    55278.609 
26910000   -193075.17    1.7027161 0.00073349941    73.701454    65.093746    63.726605    55291.356 
26915000    -193024.2    1.6879864 -0.00016834039    74.275222    65.269009    63.370035    55304.086 
26920000   -192841.05    1.6785767 8.4611684e-05    74.658321    64.614946    64.210841    55316.838 
26925000   -193325.76    1.6808474 0.00088580243    73.768261    64.519882    64.183867    55329.584 
26930000   -193063.48    1.7414559 -7.8150066e-05    74.433514    64.461305    64.508615    55342.338 
26935000    -193338.9    1.6796597 -0.00076358497    72.692063    64.707398    64.505995    55355.063 
26940000   -193537.26    1.7163973 0.0002516749    72.625572    64.834682    63.951657    55367.844 
26945000   -193479.35    1.6968993 -0.00027692209    72.597336    64.856199    63.921602    55380.598 
26950000   -193091.03    1.7328816 -0.0049872325    74.054074     64.84298    64.019998    55393.324 
26955000   -193209.93    1.7008711 -0.002066173    74.038822    64.318475     64.53685    55406.053 
26960000   -192981.54    1.7191022 0.0023293268    73.826822    64.797803    64.708145    55418.749 
26965000   -193012.57    1.6918597 4.5355735e-05    74.539893    64.208494    64.964026      55431.4 
26970000   -193644.59    1.6690173 -0.0012811201     72.55777     64.63638    65.029625    55444.099 
26975000   -194049.95    1.7190878 0.0026699289    71.506991    64.739658    64.927677    55456.862 
26980000   -193994.29     1.684572 -0.0053501428    72.333202    64.985453    64.460768    55469.685 
26985000   -193382.63    1.6694578 -0.002942678    72.973504    65.019082    64.422887    55482.435 
26990000      -193685    1.7129827 -0.00056080157    72.588566    64.796293     64.53219    55495.167 
26995000   -193802.32    1.7000472 0.0035867124    71.703381    64.771623    64.395311    55507.952 
27000000   -193969.82    1.6707928 -0.0017997985    71.694725    64.696202    64.337764    55520.752 
27005000   -193766.52    1.6559024 0.0020474492    72.909922    64.723062    63.893001    55533.516 
27010000   -193727.43    1.7081587 0.0017383405    72.445509    65.163668    63.885983    55546.281 
27015000   -193629.99    1.7059671 -0.00032472729    72.512072    64.627436    64.235302    55559.046 
27020000   -193235.49    1.6969619 0.00056709579    73.372159    64.720605    64.524576    55571.778 
27025000   -193504.56    1.7089736 0.0034263594    73.268286    64.586355    64.462383    55584.494 
27030000   -193092.78    1.7090184 -0.0039390908     74.09103    64.868285    64.319027    55597.194 
27035000   -193506.52    1.6990201 -0.00056736509    72.920237    65.305833    64.040199      55609.9 
27040000   -193476.98    1.6857805 0.0061918754     72.30573    65.081789    64.422851    55622.657 
27045000   -193367.11    1.6774835 0.0016467673    72.392443     65.14047    64.433407     55635.38 
27050000   -193776.36    1.6919886 -5.7580661e-05    71.750621     65.03707    64.624405    55648.124 
27055000   -193422.91    1.6460279 0.0017544372    72.369368    65.019071    64.517091    55660.867 
27060000   -193401.22     1.688632 0.0018328354    72.287791    64.987754    64.627645    55673.604 
27065000   -193468.33    1.6918423 0.00031302898    72.997632    65.063838    64.118747    55686.391 
27070000   -193357.23    1.6954632 0.0018972707      72.8886     65.01893    64.369364    55699.137 
27075000   -193445.18     1.677615 -0.00065791673    73.440764     64.70772    64.422209    55711.839 
27080000   -193492.16    1.7298444 0.0030091141    73.284182    64.590201    64.471676     55724.62 
27085000   -193662.75    1.7093579 -0.00041922976    72.827116    65.545324    63.880028    55737.356 
27090000   -193498.59    1.7529756 0.00063601381    74.350273     64.81552    64.008119    55750.115 
27095000   -193799.22    1.6787761 0.0035477552    72.886732    64.399122    64.251906    55762.779 
27100000   -193579.52    1.6952925 -0.0044497237    72.855523    64.702939     64.55418    55775.566 
27105000   -193934.84    1.6845004 0.0003266859    71.539085    64.559663     64.72466     55788.37 
27110000   -193610.86    1.7120597 -0.00079170124    71.864299    64.944477    64.722314    55801.171 
27115000   -193527.91    1.7170425 -0.0065140646    72.783712     65.01695    64.866306     55813.91 
27120000   -193493.86    1.7145127 -0.00027575119    73.224853    65.011024    64.293444    55826.637 
27125000   -193547.11    1.7108018 -0.0014738591    72.133519    65.333458    64.567316    55839.426 
27130000   -193839.04    1.6785646 0.00033089432    71.214006    65.044397    64.837577    55852.242 
27135000   -193629.87    1.6762937 0.0017630584    72.855421    64.171083     64.95089    55865.006 
27140000   -193514.12    1.6254468 -0.0049723347    72.297408    64.711667    65.189506    55877.758 
27145000   -193756.33    1.6933108 9.4675939e-05    71.877006    64.889804    64.669704    55890.523 
27150000   -193854.13    1.6937191 -0.0017329578    71.992511    64.746904    64.624061    55903.329 
27155000   -193576.56    1.6003722 -0.001306374    72.186905    65.168965    64.093683    55916.116 
27160000   -193669.34    1.6952239 0.0039794627    72.355413    65.147366    64.106238    55928.911 
27165000   -193573.37     1.695869 -0.0033199804    73.626063      65.1182      64.1357    55941.656 
27170000   -193290.56    1.6789882 -0.0016940475    73.948211    64.581773    64.584428     55954.33 
27175000   -193049.64    1.7376892 -5.9176131e-05     73.82813    64.757466    64.664021    55967.042 
27180000   -193305.44    1.7172164 0.0050192307    73.048541    64.631578     64.70963     55979.72 
27185000   -193085.95    1.7113859 -0.0020156507    73.421451    64.523938    64.723279    55992.469 
27190000   -193332.45    1.7773386 0.0034965043     72.41387    64.670754    64.717258    56005.244 
27195000   -193301.47    1.7284111 -0.002583691    73.797643    65.117042    63.885406    56017.957 
27200000   -193390.89    1.6975396 -0.0011136044    73.349733    65.049951    64.134999    56030.679 
27205000   -193298.83    1.6486478 -3.4943594e-07    73.666359    64.881056    64.046072    56043.428 
27210000   -193807.25    1.6886753 0.00040776948    73.202706    64.410076      64.4274    56056.175 
27215000   -193094.29    1.6969696 -0.0015751165    73.925358    64.336989     64.76825    56068.866 
27220000   -193264.73    1.6932028 0.0030115408    73.567403     64.49791    64.517991    56081.616 
27225000   -193437.76    1.6812265  0.002359878    73.364952    64.766329    64.338052    56094.372 
27230000   -193175.47    1.6475453 -0.0010873779    73.640364    64.875418    64.291375    56107.057 
27235000   -193086.07    1.7136333 -0.00055925468     73.51762    64.868383    64.206375    56119.797 
27240000   -192905.17    1.6829337 -2.3638444e-05    74.438559    64.521859    64.334352    56132.537 
27245000   -192944.08     1.701204 0.00024761527    74.360621    64.619992    64.396787    56145.254 
27250000   -193078.78    1.6799903 0.00046912849    74.154903    64.071501    64.623472     56157.97 
27255000   -193003.28    1.7012453 -0.0018517111    73.469184    64.180697    64.977569    56170.692 
27260000   -193608.77    1.7127534 -0.0023438342    72.715899    64.060329    65.148757    56183.428 
27265000   -193633.13     1.652847 0.0026686524    72.597982    64.210043    64.847868    56196.178 
27270000   -193020.92    1.6725105 -3.7269518e-05     73.89445    64.579229    64.414675    56208.861 
27275000   -192975.96    1.7290233 -0.0019870251    74.434549     64.42093    64.341468    56221.623 
27280000   -193140.25    1.6966638 0.00084067708    75.176124    64.387497    63.647743    56234.342 
27285000   -193270.16    1.7537827 0.0042426174    74.849549    64.023487    63.886947    56246.994 
27290000   -193456.26    1.7212325 0.0034354942    72.728279     64.63972    64.549042    56259.712 
27295000      -193742    1.7118372 0.00050192358    73.401025    64.024521    64.747478    56272.419 
27300000   -193128.34     1.612227 0.0016221366    73.638524    64.274434    64.770832    56285.127 
27305000   -193031.73    1.7105512 -0.00015735786    73.647577    64.003646     65.20919     56297.84 
27310000   -193345.73    1.6716349 -0.0024476499    72.846721     64.60529    64.980203    56310.563 
27315000   -193565.33    1.6889698 -0.0021055395    72.726752    64.412958    64.881728     56323.32 
27320000   -193288.79    1.6529969 0.00021645129    72.346315    65.065521    64.854458    56336.022 
27325000    -193317.7    1.6721588 -0.0037727505    72.842934    64.877355    64.597842    56348.729 
27330000   -193321.55    1.6850147 0.0030939206    73.137793    64.066035      64.7117    56361.441 
27335000   -193259.28    1.6969587 0.00059775379    73.054304    64.271869    65.075576    56374.193 
27340000   -193160.06    1.7290664 -0.0012906246     73.12297    64.765971    64.892861    56386.906 
27345000   -193121.14    1.7118288 -0.00050375338    73.459174    64.261057    65.010698    56399.611 
27350000   -193100.98    1.7376479 0.0004455056     73.80566    64.299798    65.187948    56412.281 
27355000   -193055.67    1.6959423 -0.00027151096    74.148449    63.645795    65.643232    56424.945 
27360000   -192914.14    1.7031101 -0.0047365056    73.466923    63.891574     65.96062    56437.644 
27365000   -193272.01    1.7198279 0.0011938365     72.21149    64.556997    65.250795    56450.438 
27370000   -193559.52    1.7137415 -0.0025541478    72.097383    64.985328     64.83012    56463.198 
27375000    -193449.9    1.7032296 -0.00098540661    72.725128    64.758292    65.093166    56475.966 
27380000   -192983.45     1.700625 -0.0020097624    74.321901     64.58402    64.688371    56488.681 
27385000   -192864.21    1.6763172 -0.0018154069    73.298094    64.292704    65.349484    56501.392 
27390000   -193532.54    1.7081205 -0.0014626512     72.12467    64.585097    65.335158    56514.113 
27395000   -193224.77    1.7090164 -0.0010709181    73.193525    64.472467    64.876593    56526.868 
27400000   -192933.76    1.6761117 -0.0027408077    73.184284    64.987603    64.528438    56539.563 
27405000    -193283.3    1.6750457 -0.00074401715    72.088684    64.669354    64.983046     56552.33 
27410000   -193595.11    1.7138085 0.0034578292    71.536618    64.683083    64.736019    56565.091 
27415000    -192981.5     1.654174 0.0027840387    73.106971    64.534393    64.940644    56577.845 
27420000   -192930.29    1.6742069 0.0037456183    73.854467    64.526473    64.753019    56590.538 
27425000   -193023.48    1.7284857 0.0039442565    72.987295    64.854485    64.914793    56603.219 
27430000   -193237.14    1.6789165 0.0021080857    73.055938    64.455467    65.136449    56615.914 
27435000   -192901.14    1.6976588 0.0014913675    73.394029    64.409976     65.31967    56628.616 
27440000   -193260.35    1.6987571 0.00089372815    71.361482    65.283161    65.031335     56641.35 
27445000   -193317.97    1.7048325 -0.003517683    72.032348    65.291223    64.858022    56654.176 
27450000   -193713.14    1.6606825 0.0024167648    72.743259    65.164656    64.176575    56666.896 
27455000   -193332.21    1.7145749 0.00071928718    74.213875    64.517738    64.393846    56679.629 
27460000   -193570.15    1.6267232 -0.0037371692    72.643585     64.70892     64.70884     56692.38 
27465000   -193381.54    1.6887168 -0.0043167846    73.258541     64.05818    65.056947    56705.151 
27470000    -193288.7    1.6881701 -0.00085527527    73.540134    64.009466    64.992188    56717.888 
27475000   -193553.74    1.7203391 0.00020131613    73.341123    64.066002    64.530767    56730.619 
27480000   -193613.44    1.7329835 -0.00094471299    73.213148    64.002344    64.749845    56743.405 
27485000   -193419.98    1.6818425 -0.0011654714    72.925631    64.587526    64.744576    56756.152 
27490000    -193495.4    1.6743292 -0.0012143273    72.432005    64.458044    65.040723    56768.923 
27495000   -193720.97    1.7772466 -0.0073876913    72.269558    64.325174     65.36721    56781.673 
27500000   -193572.34    1.6961037 0.0015913889     72.65382     64.34222    64.848092    56794.473 
27505000   -193416.27    1.7151383 -0.0061120407     72.88897    64.996388    64.555647    56807.196 
27510000   -193724.58    1.7052078 -0.0011636657    71.410237    65.164706    64.294016    56819.948 
27515000   -193722.31     1.619037 -0.0018182151    71.730307    65.189704    64.043576    56832.756 
27520000   -193722.33    1.6492096 0.0039284975    73.039634    64.959683    63.859032    56845.527 
27525000   -193264.85     1.744249 -0.0018865287    73.955203    64.522407    64.584484     56858.26 
27530000   -193540.94    1.7811677 -0.00042756806    73.465091    64.319456    64.426784    56870.984 
27535000   -193549.73    1.7301919 -0.00092608865    73.096125    64.353802    64.296209    56883.732 
27540000   -193455.24    1.7147926 0.00093483812    72.699668     64.05594    65.119805    56896.488 
27545000   -193063.46    1.7407733 -0.00032470589    73.438965    64.211687    65.180435    56909.247 
27550000   -193133.18    1.6994489 -0.0016595251    74.331216    64.052859    65.168069    56921.997 
27555000    -193318.2    1.7096203 0.0015578946    74.381316    63.876859     65.03489    56934.631 
27560000   -192991.26    1.7384615 -0.00011038439    73.729276    64.351336    65.114212    56947.338 
27565000   -193403.66    1.6739889 0.00053149395    73.413126    64.159645    64.923309    56960.028 
27570000   -193188.66    1.7052943 0.0048707947     73.63171    64.199024    64.874321    56972.749 
27575000   -193559.59    1.7187981 0.0054855148    73.048089    64.351555    64.699405    56985.446 
27580000   -193564.42    1.7022151 -0.0010816658    72.765143    64.641333    65.245263    56998.144 
27585000   -193938.61    1.6574749 -0.0029023104     71.80333    64.715217    65.318032     57010.92 
27590000   -193953.07    1.7237374 -0.0020957521    71.667927    65.142161    64.694935      57023.7 
27595000   -193696.25    1.7053641 0.0022597408    71.501057     64.88038    64.749365    57036.506 
27600000   -193410.61    1.7186439 0.0035574337    71.562802    64.891845    64.618233    57049.312 
27605000    -193678.9    1.7295558 0.0037848449    71.572525    64.660332    65.102353    57062.068 
27610000   -193768.57    1.6977358 -0.0015772129    71.234447    64.510629    65.382653    57074.875 
27615000   -193942.59    1.6775428 0.00025599441    71.949127    64.444762    65.019754    57087.691 
27620000   -193518.44    1.6990324 -0.0014951457     73.25007    64.385695    64.929871    57100.424 
27625000   -193581.24    1.7099198 0.0010333265    72.175922    64.557573    64.750357     57113.16 
27630000    -193993.2    1.7432541 -0.00070389934    70.692073    65.144512    64.550896    57125.976 
27635000   -193886.54    1.7279424 0.0056411422    70.691321    64.762648    65.083083      57138.8 
27640000   -193358.76    1.7003648 0.0028860688    72.210888    64.093576    65.382327    57151.611 
27645000   -193806.55    1.7089036 -0.0016711954    72.251975     64.17001    65.653482    57164.375 
27650000   -193703.77    1.7633058 0.0015139611    72.890215     64.10007    65.153022    57177.161 
27655000   -193589.94    1.7041884 0.0017980243    72.830276    64.097031    64.908282      57189.9 
27660000   -193606.47    1.7178908 2.7071644e-05     73.23849    64.478148    64.098136    57202.635 
27665000   -193181.89    1.6585192 -0.004727659    73.454433    64.958436    64.523043    57215.434 
27670000   -193255.22    1.6574084 -0.00064803007    72.325777    64.873368    64.494133    57228.188 
27675000   -193190.07    1.6802385 0.0011032534    72.570975     64.52762    64.980792    57240.952 
27680000   -193124.56    1.6873396 -0.0012144181    73.612188    64.200247    65.245869    57253.725 
27685000   -192963.39    1.6972515 -0.0003975354    74.557557    64.560147    64.644643    57266.428 
27690000   -193442.45    1.7327644 -0.0024183983    74.225196    64.022214    64.708539    57279.146 
27695000    -193835.2    1.7152395 0.0015088838    72.491329    64.024393    64.984931    57291.859 
27700000    -193620.1    1.7045665 0.00041875028    72.130837    64.150345    65.212234    57304.624 
27705000   -193268.33    1.6918214 -0.00060768157    72.730259    64.902392    64.464386    57317.435 
27710000   -193341.06    1.6721184 -0.0013057367    72.693111    64.764726    64.649663    57330.182 
27715000   -193265.74    1.6680671  0.002931313    73.206937    64.361676    64.938853    57342.882 
27720000   -193347.02    1.7014134 -0.0010190896    73.195601     64.72446    64.841784    57355.571 
27725000   -193356.14    1.7199408 0.00023066688    73.907845    64.370855    64.652888    57368.309 
27730000   -193464.45     1.675912 -0.0026983519    74.045822    64.114188     64.43321    57381.055 
27735000   -193659.81    1.6701465 0.0021841194    74.007942    63.897384    64.395292    57393.774 
27740000   -193552.18    1.7080054 3.2176444e-05    73.193285    63.936353    65.183507    57406.501 
27745000   -193706.13    1.6649939 0.0015046448     73.11965     63.62209    65.511705    57419.218 
27750000   -193211.28    1.6464319 0.00025525646    73.632938    63.897312    65.037695     57431.95 
27755000   -192984.61    1.6614032 -0.00011262138    72.319234    64.819076    64.837485    57444.664 
27760000   -193351.52    1.7032725 -0.0030002073    72.653644    64.881405     64.71545    57457.413 
27765000   -193094.64    1.6768589 0.0025613762    73.953337    64.556162    64.497961    57470.131 
27770000   -193228.85    1.7044781 0.0013719339    73.243079    64.664358    64.818849    57482.829 
27775000   -193283.05    1.7160336 -0.0020096946    73.226229    64.608692    64.684996    57495.551 
27780000   -193704.48    1.6533933 -0.0018238854    72.186168    64.599444    64.918391    57508.322 
27785000   -193544.68    1.7051332 -0.0018362166    72.645708    64.405784    64.727766    57521.141 
27790000      -193590    1.6849834 -0.0014558824    73.106224    64.372572    64.732895    57533.879 
27795000   -193073.25    1.7234314 -0.0004437453    74.127517     64.26598    64.823053    57546.605 
27800000   -193051.18    1.7222289 0.0012461772    74.241537    64.523309    64.721626    57559.294 
27805000   -193311.84    1.6821272 0.00062874544    72.852876    64.800873    64.791615    57572.019 
27810000   -193228.56    1.6386417 0.0021049264    72.813803    64.509103     64.69765    57584.785 
27815000   -193153.86    1.6735191 -0.0018736477    73.859142      64.6867    64.327002    57597.519 
27820000   -192982.09    1.6924529 -0.00016851379    74.040772    64.740913    64.414764    57610.191 
27825000   -192957.14    1.7143774 0.0012150576    74.126189    65.013307       64.003    57622.885 
27830000   -193214.01    1.7333944 -0.002635888    73.743293    65.014352    64.513104     57635.57 
27835000   -192694.36    1.6934895 -0.0032530061    74.797005    65.054035    64.180475    57648.252 
27840000   -193121.84    1.6587207 -0.0013141685    73.080065    65.001713     64.65509    57660.955 
27845000    -193218.5    1.7300962 -0.0051570695    72.360266    65.529852    64.420872    57673.667 
27850000   -193158.27    1.6762474 -0.0051294611    73.539751    65.277129    63.928871    57686.412 
27855000   -193200.93    1.6841634 0.0040771084    73.744637    65.344263    63.359871    57699.133 
27860000   -193494.74    1.6712528 0.0022818645    73.083252    65.742522    63.253284    57711.863 
27865000   -193783.68    1.6827826 0.0031373432    72.551723     65.10149    63.927571     57724.63 
27870000   -193502.71    1.7343609 0.00059246265    72.593696    65.610332    64.059366    57737.425 
27875000   -193793.52    1.6693019 -0.00072760229    71.662057     64.83658    64.655252    57750.232 
27880000   -193331.86    1.7111016 0.0041927438    72.279174    64.956114    64.520401    57763.035 
27885000   -193477.03    1.7021616 -0.0014225079    72.721728    65.053384    64.410451      57775.8 
27890000   -193431.62    1.7485987 -0.00098655032    73.225733     65.40071    63.725288    57788.555 
27895000   -193427.78     1.723037 0.0029259053     72.82653    65.316772    63.845056    57801.303 
27900000   -193345.19    1.6995316 -0.0025522634    73.781542    64.762821    64.675973    57814.035 
27905000   -192995.59    1.7143037 -0.0038525609    74.066059    65.297628    64.064073    57826.719 
27910000   -193629.27    1.6699352 -0.001145254    71.006691    65.611019     64.79561    57839.468 
27915000   -193505.75     1.662111 -0.00020544284    71.139453    65.641884    64.639858    57852.274 
27920000   -192959.66    1.6797114 0.0029229893    72.274234    65.542237    64.549824    57865.053 
27925000   -193158.86    1.7586745 0.00040618134    73.178355    65.486161     64.17565    57877.785 
27930000   -193280.95    1.6844497 -0.0011229261    72.926868    65.237283     64.30566     57890.53 
27935000   -193508.58    1.6922701 -0.0017543064     71.82208    64.818075    64.814597    57903.298 
27940000   -193503.25    1.7186399 -0.00047676673      72.6804    64.942205    64.666918    57916.087 
27945000   -193537.42    1.6878206 0.0026162644    72.680899     64.75231    64.569436     57928.85 
27950000   -193244.84    1.7005944 0.00082570504    73.526976    64.500183    64.603997    57941.612 
27955000   -193245.61    1.7177869 -0.0051952063    73.251226    64.126093    65.174469    57954.359 
27960000   -193334.82    1.7356286 0.0013485266     73.43569    63.555945     65.16268    57967.094 
27965000   -193212.49    1.7448118 0.0024851143    73.147538    64.058929    65.010728    57979.825 
27970000   -193407.45    1.6641244 0.0017450918    71.756245    64.227066    65.545518    57992.583 
27975000   -193528.29    1.6978749 -0.0026727946    72.170155    64.455497    65.110842    58005.404 
27980000   -193445.93    1.7081996 0.00099181769    72.048921    64.860649    64.743586    58018.186 
27985000   -193692.62    1.7492325 0.0024257749     72.45668    65.117154    64.346228    58030.924 
27990000   -193843.44    1.6927776 -0.0020971534    72.487041      65.1203    64.465904    58043.682 
27995000   -193677.78     1.666465 -0.00084879701    71.904673      64.9706    64.734509    58056.474 
28000000   -193573.36    1.6932056 0.0017976466    71.779697    64.694283    65.068954    58069.248 
28005000   -193275.01    1.7388461 -0.0046358114    71.847292    65.502965    64.730928    58082.005 
28010000   -193601.99    1.6515727 -7.0726629e-05    71.726465    65.619696    64.173084    58094.741 
28015000   -193547.07    1.7274196 0.0010676619    72.100727    65.324579    64.605226    58107.526 
28020000    -193569.1    1.7250033 2.2910866e-05    71.829025    65.317344    64.695472    58120.269 
28025000   -193570.96    1.6694212 0.0017287309    71.434037    65.121162    64.920711     58133.11 
28030000   -193558.09    1.6778311  0.001467788    71.600251    64.887972    64.911311    58145.889 
28035000   -193311.99     1.708671 -1.9336067e-05    73.003805    64.946476    64.519811    58158.675 
28040000   -193654.46    1.6970287 -0.00057655051    72.320441    64.860574    64.544194    58171.419 
28045000   -193652.48    1.7199563  0.001701072     72.75258    64.809706    64.279461    58184.188 
28050000   -193583.23    1.6891108 -0.0030355542    72.282657    65.188388    64.365597    58196.988 
28055000   -193826.59    1.6868824 0.0019381764    72.337458    65.710877     63.21253    58209.807 
28060000   -193398.32     1.667385 -0.0016378993    73.254106    65.546571    63.668257    58222.599 
28065000   -193302.94     1.683604 -0.0013095481    73.634498    64.943914    64.090291    58235.336 
28070000   -193206.22    1.7178017 -0.0025733824    74.530975    64.216793    64.871551    58248.063 
28075000   -193412.27    1.7359833 -0.00036423445    73.864969    64.069207    65.058655    58260.751 
28080000   -193576.09    1.7647951 -0.0011131321    72.904753    64.561814    64.893858    58273.466 
28085000   -193477.36    1.7666887 0.0028694691    72.898257    64.999153    64.008122     58286.16 
28090000   -193319.85    1.6909895 -0.0020501774    73.580567    65.752306    63.453782    58298.879 
28095000   -193442.24    1.6675296 0.0025587119    73.512416    64.827093    63.873133    58311.615 
28100000   -193532.78    1.6938637 0.0024852074    73.365662    64.495629    64.298754    58324.368 
28105000   -193367.12    1.6999742 0.0028185629    73.201091    64.211221    64.801365     58337.11 
28110000   -193303.26    1.6788635 -0.00060938123    72.864029    64.394655    65.142389    58349.836 
28115000   -193240.68    1.6712248 -0.00038850027    73.153487    64.386699    64.877792    58362.642 
28120000   -193213.38    1.6962369 -1.7368139e-05    73.459527    65.169338     64.01198    58375.366 
28125000   -193165.91    1.6952356 0.00057919855    73.069909    65.134861     64.59588    58388.091 
28130000   -193006.63    1.7337494 0.0022104011    73.047093    65.401375    64.410775    58400.747 
28135000   -192914.05     1.703302 0.0023933534    74.097462    65.172165    64.137819    58413.442 
28140000   -193156.81    1.7216749 -0.00038258398    73.940235    65.133631     64.36456    58426.114 
28145000   -193521.65    1.6958469 -0.0028771681    72.778052    64.847404    64.596459      58438.8 
28150000    -193887.1    1.6763663 -0.0019087813    71.913865    65.069814    64.218272    58451.626 
28155000   -193508.69    1.6704007 0.00042005642    72.773571     64.80888    64.529549    58464.405 
28160000   -193285.33    1.6825022 -0.00017201157    72.231529    65.372308    64.339613    58477.177 
28165000   -193341.05    1.6808912 -0.0013047181    72.143932    65.786624    64.043388    58489.953 
28170000   -193220.82    1.7282924 0.0022761162    72.834919    66.005772    63.711061    58502.724 
28175000   -193153.26    1.6720872 -0.0014364372    72.104414    65.662871    64.439572    58515.482 
28180000   -193535.08    1.7396042 0.0004367986    71.707266    65.187057    64.723852    58528.248 
28185000   -193149.71    1.7182101 -0.00033857847    73.018355    64.528907    65.122149     58540.99 
28190000   -192921.96    1.6981247 0.0026286929    73.016794    64.477349    65.096276    58553.734 
28195000   -193438.28    1.6919981 -0.001165339    72.310104     64.78463    65.026343    58566.441 
28200000   -193437.81    1.6626922 -0.0036351878    72.456585    64.557314    65.198315    58579.155 
28205000    -193122.6    1.6820176 -0.00073083497    73.577585    64.692771     64.68086     58591.89 
28210000   -193328.78     1.683571 -0.0017969662    74.134927     64.92241    63.986994    58604.575 
28215000   -193543.77    1.6904702  0.002014041    72.604111    65.156251    63.918748    58617.316 
28220000   -193796.08    1.7120846 0.00038460872    71.728363    64.843842    64.445628    58630.098 
28225000   -193701.05    1.6581151 -0.0022075482    72.429535    64.283091    64.666719    58642.921 
28230000    -193861.3    1.6874594 -0.0010819738    72.183417    64.170098    64.668718    58655.691 
28235000   -193850.31     1.678832 -0.0022175184    72.397762    64.482686    64.741729    58668.504 
28240000   -193905.05    1.6999586 0.0023768634    71.904957    64.844928     64.63377    58681.272 
28245000   -193694.27    1.6993162 -0.0023700768    72.175546    64.933649    64.673213    58694.068 
28250000   -193667.09    1.7457408 -0.0011418027    72.417077    64.830897    64.373603    58706.798 
28255000      -193528    1.6907294 0.0047273344    72.583705    64.489776    64.427139    58719.587 
28260000   -193342.95    1.7530079 -0.001913719    72.790152    64.526472    64.997266    58732.306 
28265000   -193398.66    1.6627716 -0.0018105779    74.218908    64.043525    64.807511    58745.001 
28270000   -193361.15    1.6648191 0.00094037372    73.739492     64.27989    64.494732    58757.688 
28275000   -193418.59    1.7121773 0.00046865128    72.641344    64.562506    64.580142    58770.404 
28280000   -193523.28    1.7447133 -0.0016142496    72.942696    64.630028    64.576601    58783.141 
28285000   -193478.97    1.7111499 -0.00047409098    73.743116    64.688062    64.298682    58795.828 
28290000   -193647.84     1.674831 -0.0041288007    73.275473    65.038854    64.136306    58808.606 
28295000   -193850.42    1.7377359 -0.00045280753    72.748168    64.894404     64.19786     58821.34 
28300000    -193659.5    1.7388623 -0.0015496476    72.637741    64.572363    64.836046    58834.067 
28305000    -194029.8     1.732695 -0.0022691974    71.516722    63.984788     65.52671    58846.852 
28310000   -193882.43    1.6805502 -0.00073267881    71.853046    64.197202    65.314867    58859.678 
28315000   -193586.25    1.7304467 0.0017460245    72.607929    64.496286    64.510451    58872.489 
28320000   -193394.07    1.6954819 0.00049906947     73.33776    64.737741    64.371015    58885.211 
28325000   -193447.22    1.6980932 0.0031832649    72.631282    64.882698    64.612564    58897.931 
28330000   -193212.37    1.6642826 -0.0020382801    73.427804    64.819364    64.702545    58910.612 
28335000   -193216.26    1.6789559 -0.0011559112    73.960007    64.615546    64.747717    58923.292 
28340000   -193024.55    1.7260398 -0.0016556246    74.249145    64.060698    65.319719    58935.964 
28345000   -193062.49    1.6652098 -0.00011481624    73.939427    63.845176    65.430837    58948.637 
28350000   -193152.74    1.7041103 -0.0032622013     73.75843    63.855297    65.416962    58961.317 
28355000   -193116.56    1.6672345 0.0041544169    72.637795    63.879532    65.422128    58974.046 
28360000   -192926.29    1.6658175 0.0010949786      73.3047    64.108885    65.350422      58986.8 
28365000   -192683.54    1.6853985 -0.00093458178    74.109026    63.829577    65.514988    58999.515 
28370000   -193036.78    1.7024993 0.0048161892     73.18453    64.065903    65.324373     59012.19 
28375000   -193522.03     1.703379 -0.0021398014    72.244882    64.293546    65.090633    59024.905 
28380000   -193635.72    1.6780821 -0.0024897407    71.837965    64.912809    64.780075    59037.693 
28385000   -193379.83    1.6970039 0.0020445287    72.264078    64.764807    64.830993    59050.503 
28390000   -193182.91    1.7561599 0.00022810976    71.998467      65.1465    65.071527    59063.253 
28395000   -193554.88    1.7000859 0.0020868536    72.034835    64.765365    65.099722    59076.008 
28400000   -193920.37    1.7244938 -0.0011613075    72.740084    64.411648    64.923073    59088.754 
28405000   -194031.09    1.7119651 0.0035345067    72.051511    64.290207    65.293696    59101.464 
28410000   -193279.27    1.6868052 0.0007941201    72.181082    64.852745    64.868501    59114.255 
28415000   -193272.98    1.7018289 -0.0020224527    72.814267    65.258213    64.592745    59126.993 
28420000   -193333.67    1.7230391 -0.0020304194    72.344887    64.884316    64.868239    59139.752 
28425000   -193096.44    1.7362071 0.0017626215     72.80031     64.77673    65.068921    59152.456 
28430000   -193505.57    1.6958028 0.0025006725    71.657932     64.57935    65.387978    59165.231 
28435000    -193547.1    1.7375774 0.0035694995    71.917602    64.956895     64.44361     59178.02 
28440000   -193906.14    1.7014964 -0.003259737    70.704895    65.286365    64.896324    59190.857 
28445000   -193838.96    1.7186893 0.0037404282    71.606226    65.671914      64.0867    59203.647 
28450000   -193607.42    1.6990261 -0.0027180306    72.699865    65.468638    64.332186    59216.401 
28455000   -193592.35    1.7334378 -0.0016067909    72.450707    65.176414    64.419856    59229.171 
28460000   -193430.13    1.6686346 -0.0011933184    73.414732    64.530644    64.393484    59241.897 
28465000   -193678.89    1.7037634 -0.0024564479     72.93411    63.999688    65.001311      59254.6 
28470000   -193820.88    1.6895433 0.0021469453    72.831921    63.942432    64.673168    59267.378 
28475000    -193808.2    1.7017797 -0.0021487695    72.955435    64.546723     64.35416    59280.174 
28480000   -193785.17    1.7041937 0.00058936518    72.501014    64.563595    64.583636    59292.926 
28485000   -193468.95     1.675043 0.0033259776    73.504325    64.519162    64.322711    59305.771 
28490000   -193113.43    1.7676674 -0.0029768874    73.641498     65.01968    64.336595    59318.452 
28495000   -193089.25    1.7052895 0.0011913622    73.866403     64.84651    64.615429     59331.15 
28500000   -193053.24    1.6663663 0.00088340296    74.770842    64.510685    64.594345    59343.782 
28505000   -192953.57    1.7003589 -0.0013820298    74.730663    64.252669    64.878089     59356.42 
28510000   -193521.15    1.6502814 -0.00038266924    73.449243    64.795372    64.640343    59369.099 
28515000    -193236.1    1.7199494 0.0046677708    73.204054    64.806541    64.597504    59381.809 
28520000   -193151.92    1.7571041 0.00031539335    74.031217    65.416398    63.892871     59394.51 
28525000   -193482.88    1.6495203 -0.008201435    73.820057    65.099346    64.295389    59407.192 
28530000   -193226.87    1.7217274 0.0015690902     73.84965    64.481839    64.256925    59419.927 
28535000   -192794.27    1.7066926 0.0023317324    73.769593    64.707297      64.3785    59432.614 
28540000   -192748.69    1.6877224 -0.0024995259    74.080881    63.731338    65.330365     59445.28 
28545000   -193397.94    1.6858411 0.00032243235    74.100897    63.462141    65.075552    59457.994 
28550000   -193016.15    1.6902076 -0.00036682572    74.944444    64.183553    64.386722    59470.729 
28555000   -192963.36    1.7452352 0.0049804235    73.835682    64.086009    64.779605    59483.408 
28560000   -193535.22    1.7131947 0.0042291365    72.636887    63.746622    65.263337    59496.097 
28565000   -193371.66    1.7193247 0.0001842494     73.44402    63.695608    65.195368    59508.851 
28570000   -193439.57    1.7509926 0.0032459198    73.562722    63.868148    64.782318    59521.618 
28575000   -193184.91    1.7518813 0.00032070084    73.538646    64.237762    64.981911    59534.305 
28580000   -193384.64    1.6585553 -0.0011790076    73.600439    64.193371    64.996921    59547.018 
28585000   -193144.04      1.71937 -0.0041852762    74.433843    64.105528    65.002506    59559.713 
28590000   -193287.31    1.7359195 -0.0038361111    73.645424    64.302717    65.206134    59572.443 
28595000      -193424    1.7244148 -0.0048853775    73.264238     64.54451    65.083076    59585.146 
28600000   -193643.52    1.6945715 -0.00097852393    72.742097    64.359483    65.081386    59597.877 
28605000   -193525.19    1.7029111 -0.0011142154    72.260544    64.792414    64.934911    59610.623 
28610000   -193397.54    1.7045421 -0.00077144688    73.534974    64.629114    64.692504    59623.386 
28615000   -193087.91    1.7110309 0.0006674732    72.998402    64.547264     65.31496    59636.127 
28620000   -193430.28    1.6979084 -0.00090701011     73.11757    64.437175    65.050302    59648.851 
28625000   -193650.32    1.6955293 0.0012993044    71.481435    64.326358    65.415964    59661.617 
28630000   -193774.24    1.7410828 -0.0021035741    71.422699    64.549655    65.239275    59674.444 
28635000   -193750.96    1.6905143 -0.00032489705    71.760648     64.84822    64.939988    59687.234 
28640000   -193698.78    1.7516755 -0.00055729834    72.215742    64.546419    65.385185    59700.023 
28645000   -193825.13    1.7167077 -0.0017007788    71.883558    64.926506    64.941175    59712.791 
28650000   -193858.81     1.711072 0.0022374257    71.460973    64.678286      65.0841    59725.553 
28655000   -193780.25    1.6641012 -6.6146081e-05    71.443341    64.800658    64.930933    59738.372 
28660000   -193756.91    1.7019927 0.0013585003    71.372692    64.619865    64.846457    59751.188 
28665000   -194107.26    1.7336967 0.00074506282    70.852891    64.727405    64.549008    59764.052 
28670000   -194266.94    1.6824197 -0.0021462546    70.489417    65.048502    64.436034    59776.897 
28675000   -193673.36    1.6998436 -0.0029909008    71.756553    64.609922    64.877973    59789.678 
28680000   -193918.27    1.6873911 0.0037209449     71.90878    64.515456    64.454974    59802.503 
28685000   -193877.42    1.7417068 0.0014933381     71.64779    64.138367    65.328324    59815.281 
28690000   -193803.95     1.671163 0.0043457526    71.777983    64.176452    64.927365     59828.06 
28695000   -193682.61    1.6957246 0.0024764911    71.923593     64.60502    65.133234    59840.835 
28700000    -193377.6    1.7024374 0.0037586197    72.303468    64.749827    64.949864    59853.608 
28705000   -193812.03    1.6805324 -0.0014572525    71.493401    65.133757    64.552634    59866.424 
28710000   -193361.68    1.7332084 0.0032771176    72.366351    64.844693    64.400223    59879.234 
28715000   -193207.06    1.7255258 -0.0031060451    73.081303    64.948297    64.772046    59891.987 
28720000   -193541.44    1.7095561 0.00086904524    72.927527     65.03883    64.243901    59904.748 
28725000   -193789.32    1.6681158 0.0033343356    71.840132      65.0269    64.590912    59917.503 
28730000   -193131.21    1.6899213 0.0033263802    72.680112     64.63661    65.234405    59930.283 
28735000   -193229.76    1.6512211 -8.4613714e-05    72.731923    64.880415    64.727523    59942.969 
28740000   -193725.85    1.7498293 0.0012250641    71.794916    64.609691    65.075373    59955.763 
28745000    -193758.1    1.6803469 -0.0019512806    71.363279     65.08014    65.129456    59968.539 
28750000    -193491.2    1.6662837 -0.0027967073    72.337596    64.804528    64.955416     59981.31 
28755000   -193695.73    1.6359025 -9.2508972e-05    72.399657    64.815253    64.778697    59994.109 
28760000   -194260.41    1.7282297 0.0003303795    71.536777     64.98026    64.770504    60006.929 
28765000   -194142.74    1.7404778 0.0010743163    71.875914    64.328217    64.872625    60019.727 
28770000    -193792.2    1.6805621 -0.00071384191    71.294158    64.665902    65.083102    60032.535 
28775000   -193510.55    1.6852838 0.0026968217    72.255529    64.339579    64.915197     60045.29 
28780000   -193744.71    1.6853245 -0.0029339901    72.078035    64.643513    64.541736    60058.044 
28785000   -193971.47    1.7413893 0.0032722765      71.5904    64.421737    64.755108    60070.869 
28790000   -193600.74    1.7122826 -0.00056249372    72.257015     64.64928    64.735482    60083.635 
28795000   -193693.18    1.6581962 -0.002057281    71.807595    64.645973    64.889245    60096.412 
28800000   -193925.32    1.7111553 -0.00072328391     71.42971    65.362544    64.461519    60109.183 
28805000    -193945.8    1.7314943 0.0031503657    71.205676    64.609502    65.076261    60122.005 
28810000   -193713.44    1.6355551 -0.0042909108    72.089162    64.672008    64.993093    60134.774 
28815000   -193309.49    1.7044704 0.0018935777    72.742356    64.781412    64.588351    60147.532 
28820000   -192865.57    1.6935307 -0.00078865522    73.331965    64.482919    64.878577     60160.22 
28825000   -193273.86    1.6917355 -0.0013360398    72.571455    64.498471    65.073943    60172.907 
28830000   -193521.19    1.7543614 -0.0022260611    72.049036    64.475976    65.068967     60185.71 
28835000   -193899.63    1.7467973 -0.00053722268    71.628451    64.763908    64.833684    60198.533 
28840000   -193528.37    1.7323756 -0.0030359817    72.687601    65.016944    64.482842    60211.313 
28845000   -193506.29    1.6881032 0.0024402519    72.840016     65.34618    63.784102    60224.038 
28850000    -193177.2    1.7065259 0.00034916986    73.376568    64.994961     64.23723    60236.709 
28855000   -193476.26    1.6830259 -0.0027528802     73.33503    64.658372    64.559947    60249.432 
28860000    -193600.2    1.7103013 0.00049039718    72.857494    64.473654    64.515464    60262.214 
28865000    -193527.5    1.6810045 -0.0019453985    72.826309    64.394397    64.984741    60274.989 
28870000   -193326.58    1.6768529 -0.0021340057    73.431878    63.956661    65.462287    60287.724 
28875000   -193562.72     1.685169 0.0019421578    72.729617    64.539852    64.590483    60300.438 
28880000   -193613.95    1.6502813 0.0026116418    72.385222     64.70043    64.649694    60313.176 
28885000   -193901.43    1.7289933 -0.00095667393    72.049659    64.876859    64.349244    60325.922 
28890000   -193717.82    1.6356163 0.0023431632    73.327114    64.508512     63.90345    60338.671 
28895000   -193671.78    1.7044384 0.0032579795    72.945035    64.970794    63.887993    60351.406 
28900000    -193247.5     1.713891 -0.0043700704    74.052161    65.112614    64.252475    60364.109 
28905000   -193418.25    1.7084297 -0.0033757188    73.506985    65.093735    64.562207    60376.807 
28910000   -193120.99    1.6706281 0.00077214709    74.355268    64.968982    64.255154    60389.493 
28915000   -192922.18    1.6728811 -0.0015074751    74.228529    65.252718    64.240972    60402.119 
28920000   -192813.27    1.6869761 0.0011146816    73.909306    64.889408    64.407224    60414.814 
28925000   -193180.73    1.6997145 -0.0033786389     73.79188    64.837907    64.331199    60427.544 
28930000    -193213.9    1.7059717 -0.0021814098    73.478381    64.113989    65.085662    60440.262 
28935000    -193462.4    1.7315958 -0.0020084712     73.36246    63.886438    65.064115    60452.975 
28940000   -193430.42    1.6692664 -0.0018831263    74.113227    63.454484    65.252383    60465.714 
28945000   -193637.07    1.7582987 0.0029890625    73.821065    63.888793    64.544577    60478.437 
28950000    -193186.2    1.6789277  0.003810023    74.534198    64.456038    64.054994    60491.194 
28955000   -193202.66    1.7121287 0.0015666486    75.040568    64.629521    63.726762    60503.858 
28960000   -192660.42    1.7062298 -0.0021971539    75.926891    64.894574    63.761025    60516.477 
28965000   -192832.61    1.7287028 0.0006467854    74.417236    64.726509    64.021707    60529.126 
28970000   -193207.85    1.7121023 -0.0029975524    73.522375    64.434873    64.650321    60541.871 
28975000   -193203.89    1.7169478 -0.0034679114    73.853553    64.815901    64.232021    60554.666 
28980000   -193120.77     1.732415 0.0036622424    73.090478    64.736334    64.404885     60567.35 
28985000   -192641.19    1.7516528 -0.0013868161    74.047675     64.78249     64.44796    60580.054 
28990000   -192712.22    1.7011583 0.0007880412    74.992071    64.700327    64.032477    60592.742 
28995000   -193331.03     1.765957 0.00025848171    74.303498    64.170998    64.580952    60605.461 
29000000   -193468.83    1.6830999 0.00020099948     73.38307    64.146858    64.865793    60618.177 
29005000   -193551.61    1.6996737 0.00052495748    73.235431    64.135545    64.820351    60630.925 
29010000    -193716.5    1.7022594 0.0030182274    72.401217    64.268979    64.966064    60643.667 
29015000   -193464.13    1.6705059 0.0010907513    72.363099    64.423786    64.784621    60656.387 
29020000   -193665.96    1.6699748 -0.0018134832    71.301573    65.171339    64.670639    60669.134 
29025000   -193195.85    1.7149613 -0.0041648943    72.414653    65.589031    64.383676    60681.903 
29030000   -193531.34    1.6519921 -0.0025907672    72.354127    64.866851    64.768718    60694.599 
29035000   -193450.49    1.6733624 -0.005101631    72.612041    65.127746    64.867668    60707.345 
29040000   -193348.46    1.6963682 0.0010811142    73.370031    64.080676    65.078306    60720.068 
29045000   -193192.32     1.703275 0.0026190773    72.935138    64.699218    65.029871    60732.788 
29050000   -193246.74    1.7375574 0.0017770471    72.961172    65.257212    64.531175    60745.489 
29055000   -193418.07    1.6647907 -0.0021296873    72.937336    65.691869    64.282747    60758.194 
29060000   -193105.01    1.7162595 0.0003638441    73.028448    65.413355    64.106345    60770.911 
29065000   -193332.72    1.7130733 -6.6307112e-05    73.092477     64.67163    64.601279    60783.612 
29070000    -193737.1    1.6923722 0.00086183712     72.83828     64.42483    64.532608    60796.334 
29075000   -193376.15    1.6982559 -0.0050905392    73.277333    64.972846    64.256261    60809.051 
29080000   -193389.78    1.7055398 0.0015669623    73.014084    64.649772    64.534529    60821.772 
29085000   -193410.93    1.7044905  0.001813414     73.04098    64.897865     64.38036    60834.494 
29090000   -193117.03    1.6877814 0.0015846002    73.345478    65.378209    64.185484    60847.209 
29095000   -193156.33     1.710815 -0.0018649758    72.731479      65.5409    63.967283    60859.924 
29100000   -193475.68    1.7551867 -0.0004834997     72.98346    64.832815    64.252326    60872.677 
29105000   -193003.43     1.726974 -0.00017047723    74.621531    64.246083    64.357807     60885.39 
29110000   -193118.16    1.7221849 0.0075564385    74.246014    64.308197    64.235296    60898.103 
29115000   -193307.49    1.7209178 0.0024318473     73.49795    64.728415    64.293231    60910.826 
29120000   -193653.94    1.7393164 -0.0022459359    72.548281    64.618228    64.437055    60923.595 
29125000    -193245.2    1.6957776 -0.0038051085    73.401578    64.638884    64.490606    60936.334 
29130000   -193187.42    1.6698363 0.0030199542    73.410165     65.00366    63.991295    60949.063 
29135000   -193422.89    1.6838029 -0.00087139198    73.517966    64.656133    64.040519    60961.819 
29140000   -193757.07    1.6912026 -0.00067489976    72.770376    64.533642    64.602145    60974.596 
29145000   -193742.15    1.6940596 0.0029999701    72.460905    64.197913    64.935293    60987.342 
29150000   -193459.36    1.7142637 -0.0016678851    72.722683    64.521957     64.88987    61000.135 
29155000   -193547.79    1.7080109 0.0047735422    72.572171    64.467172    64.668977    61012.882 
29160000   -193409.18    1.7107178 0.00053744907    73.293861    64.337305    64.704905    61025.659 
29165000   -193255.14    1.6877667 -0.0029963871    74.150059     64.80204    64.496694    61038.339 
29170000   -193220.72    1.7280343 -0.00068332462    73.985667    64.728685    64.494614    61051.027 
29175000   -193517.65    1.6895239 -0.00095300022    73.104387    64.801937    64.319784    61063.754 
29180000    -193627.7    1.6806132 -0.00085166838    72.189485    64.696166    64.711711    61076.518 
29185000   -193459.83    1.7052387 -0.0017352404    72.848297    64.350314    64.761922    61089.283 
29190000   -193051.53    1.7514551 0.0061272419    73.599374    64.219458     64.66608    61102.049 
29195000   -192999.12    1.6970013 -0.0026672914    73.051045    65.298025    64.342872     61114.79 
29200000   -193397.15     1.721796 0.0016134037    73.670205    64.520017    64.301035     61127.51 
29205000   -193409.72    1.6930021 0.0016722471    73.666144    64.610731    64.293619    61140.256 
29210000   -193078.73    1.6357829 -0.0011099134     73.82325    64.894835     64.36801    61152.985 
29215000    -193315.9    1.6844217 0.00051873631    73.404884    64.053743    64.955088    61165.726 
29220000   -193270.78    1.6798247 0.00013970472    73.424586    64.223293    64.594875    61178.453 
29225000   -193605.42    1.7442513 -0.00078726955    73.331498    64.451316    64.703059    61191.193 
29230000   -193553.27    1.6812339 0.0020463147    72.571873    64.635547    64.690203    61203.969 
29235000   -193651.86    1.6821542 0.0040891068    72.210365    65.005076    64.343058    61216.715 
29240000   -193823.91    1.6828156 -0.0024750949    71.632417    64.963313    64.730333    61229.453 
29245000   -193310.56    1.7142333 -0.005173595    72.443176      64.4935    65.049543    61242.242 
29250000      -193221    1.6694029 0.0013560719    72.959533    64.292721    65.087213    61254.981 
29255000   -193617.39    1.6691362 0.0014044654    72.157962    64.560341    64.909203    61267.761 
29260000   -193619.65    1.7498116 0.00079068131    72.835505    64.209812    64.831768    61280.486 
29265000   -193609.34    1.7084079 -0.00064331091    73.803448    64.694095    64.217248    61293.254 
29270000   -193328.46    1.6942561 0.00061936734     74.08044    65.062666    64.133462    61305.961 
29275000   -193152.95    1.7068432 -0.0006502845    73.957881    65.181356     64.02384    61318.668 
29280000   -193617.49    1.6887456  0.002766663    72.348516    64.851173     64.23122    61331.367 
29285000   -193723.18    1.7154614 -0.0022301266    72.081511    64.880824    64.236463    61344.148 
29290000   -193705.61    1.6872482 -0.00038067204    72.263942    65.340024     64.07834    61356.946 
29295000   -193479.79    1.7040699 -0.00028883096    72.158549    65.448866    64.057063    61369.733 
29300000    -193569.3    1.6920886 -0.0022946996     73.25313    64.781419    64.109024    61382.492 
29305000   -193355.28    1.7018736 -0.0021708972    73.139758    64.607035    64.952622    61395.208 
29310000   -193571.29    1.7062942 0.00035329989    72.374346     64.92319    64.934718    61407.945 
29315000   -193235.95     1.687784 0.0021863835    73.354821    64.152204    65.150021    61420.721 
29320000    -193003.6    1.7185009 -0.0040586836    74.264599    65.062495     63.72174    61433.411 
29325000    -193404.2    1.6796294 -0.0041189572     72.98759    65.699127    63.695146    61446.105 
29330000   -193674.78    1.7106806 0.0012941755    72.986381    65.499367    63.499999    61458.841 
29335000    -193387.3     1.634993 0.00010212153    73.880755    65.352277    63.377407    61471.601 
29340000    -193050.7    1.6818625 -0.0048423945    73.153945    65.167292     64.06988    61484.354 
29345000   -193197.82    1.6759102 -0.00014285515    73.099746    64.787341    64.454809    61497.097 
29350000   -193059.24    1.7245049 0.0024553373    73.562635    64.609201    64.571135    61509.839 
29355000   -193316.27    1.6850816 0.0019181382    73.160142    64.951282    64.152702    61522.586 
29360000   -193367.85    1.7114667 0.00058841746     74.18992    64.705873    64.063459    61535.282 
29365000   -193282.92    1.7177865  0.001735048    74.074832    65.060484    63.883176    61547.966 
29370000   -193753.07    1.6859363 0.0030705711    73.172441    64.736175    64.147727    61560.707 
29375000   -194065.53    1.7169124 0.0015363963    71.823018    64.893212    64.275624    61573.508 
29380000   -193654.53     1.730032 -0.0021964588    72.598596    65.010085    64.674839    61586.303 
29385000   -193429.12    1.6888796 0.0017680371    71.929534    64.329384    65.370979    61599.054 
29390000   -193363.24    1.6920639 0.0015919458    73.018751    63.458723    65.502632    61611.851 
29395000   -193340.34    1.7824646 -0.0012387139    73.510178    64.233318      64.9663    61624.579 
29400000   -193424.79    1.6764816 -0.0025896461    73.420818    64.671568    64.741101    61637.326 
29405000   -193571.62    1.7146592 -0.0020130471    73.051276    64.939961    64.578141    61650.053 
29410000   -192950.56    1.7627796 0.00091306386    74.002142    65.036813    64.288453    61662.789 
29415000    -192967.1    1.7052666 0.0011601067    73.983773    64.079327    65.117609    61675.464 
29420000   -193483.65    1.6877169 -0.00011589325    73.314537    64.059613    65.146369    61688.162 
29425000   -193265.15    1.7015137 -0.0009743193     72.75261    64.745906    64.869542    61700.947 
29430000   -193273.05    1.6772107 0.00058572728    73.310857    64.748737    64.641904    61713.726 
29435000   -193238.24     1.654915 0.00091886482    73.630833    64.945059    64.104728    61726.434 
29440000   -193693.65    1.6747036 -0.00068156424    72.289292    65.008133     64.57826    61739.166 
29445000    -193857.1    1.7562073 0.0013447349    71.159725    64.900902     64.79757    61751.924 
29450000   -193924.04    1.7010918 -0.0015157748    71.843917    64.342711    65.048237    61764.742 
29455000   -193897.94    1.6609699 0.0013723284    72.221165    64.065422    65.123005    61777.517 
29460000   -193688.86    1.6776096 0.00059075664    73.010045    64.035025     64.94293    61790.236 
29465000   -193583.54    1.6990275 -0.0023919601    72.994123    64.560793    64.775718    61803.023 
29470000   -193958.91    1.6698455 0.0022271487    71.860838    64.990218    64.418182    61815.754 
29475000   -193742.76    1.7152318 -0.0036277621    71.986631    65.133261    64.743003    61828.576 
29480000   -193415.48    1.6716213 -0.0008283804     72.66723    64.690481    64.859957    61841.324 
29485000   -193694.67    1.6813374 -0.0014133934    71.519118    64.647693    65.238526    61854.083 
29490000   -193907.56     1.683916 -0.00077096638     72.15019    64.812777    64.639527    61866.896 
29495000   -193405.87     1.658169 -0.0029550303    73.247738    64.857043     64.60729    61879.628 
29500000   -193473.74    1.6976872 -0.00017909617    72.216224    64.759878    64.969962    61892.363 
29505000   -193627.12    1.7425568 0.0055094631    72.684024    64.249216    64.756558    61905.128 
29510000   -193713.92    1.7096974 0.0030239547    71.606202    64.314256    65.230546     61917.89 
29515000   -193584.58    1.7407048 -0.001142253    71.598425    64.397077    65.384625    61930.694 
29520000   -193526.76      1.68675 -0.0018486509     72.72201    64.083783    65.306665    61943.503 
29525000   -193624.34    1.6858426 -0.00030534601    72.597958    64.621891    65.030149    61956.262 
29530000    -193633.7    1.7463887 0.0050318699    72.535086    64.367883    65.116002    61968.986 
29535000   -193503.37    1.6936433 -0.0022092792    72.575467    64.690903    64.794462    61981.743 
29540000   -193546.01    1.6563288 0.0012035813    71.184752    64.787895    65.135606    61994.495 
29545000   -193552.26    1.7173689  0.001455484    71.425693    64.413662    65.226598    62007.298 
29550000   -193491.62    1.6709142 -0.0013540835     72.44079    64.151012    65.536882    62020.097 
29555000   -193237.94    1.7271413 -0.0034642969    71.940406    65.063929    65.076736     62032.93 
29560000   -193266.13    1.7565057 0.0010556103    72.736848    64.954975    64.702588    62045.687 
29565000   -193584.54    1.7268544 0.0016086191    73.621174    64.231511     64.50452    62058.407 
29570000   -193358.71    1.6946237 0.00055951686    72.948795    64.879795    64.563156    62071.155 
29575000   -193426.79    1.7255522 0.0021844363    73.308644    64.534669    64.617753    62083.862 
29580000   -193588.15    1.6898679 -0.00068856605    73.008764    64.550659    64.665534    62096.594 
29585000   -193328.67    1.6518804 -0.0048130615    73.686024    64.197359    64.904416    62109.348 
29590000   -193472.64     1.688894 0.00024584801    73.086787    64.466698    64.727943    62122.097 
29595000   -193439.84    1.7457128 0.0030432011    73.426291    65.143357    63.771529    62134.827 
29600000   -193443.49    1.6928946 -0.00095483363     72.94192    65.439332      63.8118    62147.545 
29605000   -193614.42    1.7068948 0.0013331262    72.612221    64.753876    64.463524    62160.262 
29610000   -193270.31    1.6793361 -0.0016264147    73.817296     64.09284    64.833335    62173.048 
29615000   -192977.36    1.7047938 -0.0015900485    75.163751    64.008683    64.663694    62185.715 
29620000   -193002.38    1.7450255 0.0022331308    73.508351    64.307139    64.720425    62198.363 
29625000      -193335    1.6651824 -0.00085081914    73.650211    64.660048    64.223239    62211.091 
29630000   -193356.31    1.6660872 -0.0043264028    73.208022    65.223899    64.409901    62223.776 
29635000   -193841.74    1.7135538 0.0014360883    72.980368    64.770428    64.416904    62236.533 
29640000    -193709.7    1.6625022 0.0039563617     73.20015    64.032849    64.738522    62249.271 
29645000   -193555.86    1.7471161 -0.0033213573    72.501968    64.698489    64.908195    62261.989 
29650000   -193899.07    1.6391566 -0.0041877907    70.983328    64.733603    65.208396    62274.789 
29655000   -193882.65    1.6893318 0.0013722921    71.606043    64.247662    65.221942    62287.577 
29660000   -193311.09    1.7451073 0.0028976872    73.126463    64.221023    65.204591    62300.273 
29665000   -193462.41    1.6899154 -0.0032925632    73.105987    64.332155    64.997015    62312.965 
29670000   -193382.68    1.7210328 -0.0026453843    73.084089     63.98407    65.476947    62325.631 
29675000      -193506    1.7377356 0.0054499533    73.422308    64.085549    64.610433    62338.349 
29680000   -193702.63     1.645375 0.0037343841    73.016786    64.126133    64.736956    62351.076 
29685000   -193622.39    1.7279111 -0.00078802974    72.442236    64.835151    64.394845    62363.873 
29690000   -193224.59    1.7243011 0.0026416048    72.906616    65.083994    64.105769    62376.615 
29695000   -193292.49    1.6468033 0.0010347817     73.12319    65.308419    64.117184    62389.371 
29700000   -192849.74    1.7223695 0.00015905972    74.003125    65.108976    64.207041     62402.03 
29705000   -192938.87    1.6638435 -0.0020398449    73.231391    65.014216     64.80152    62414.718 
29710000   -193170.68     1.705886 0.0029343664    73.212024    64.241361    64.931074    62427.413 
29715000   -193150.65    1.7047751 5.6446277e-05     72.35978    64.585619    65.172157    62440.109 
29720000   -193503.38    1.6565633 0.0011433853    72.306422    64.587578    64.892676    62452.869 
29725000   -193058.35    1.7175103 0.0057808211    73.393084    64.729688    64.085479    62465.569 
29730000   -193067.36    1.6985543 0.00072449311      72.6231    65.110622    64.310624    62478.285 
29735000   -193801.92     1.740627 0.0026916624    72.015154    64.434268    64.724162    62491.033 
29740000   -193415.51    1.6628046 0.00048376602    73.262969    64.789003    64.157639    62503.766 
29745000   -193291.92    1.7237844 -0.003646573    74.084501    64.756752    64.029655    62516.512 
29750000   -193248.64    1.7109158 0.0012725107    73.460675    64.953035    64.294863    62529.222 
29755000   -193433.73    1.6584447 0.0010170975    73.449221    64.830354    64.207155    62541.933 
29760000   -193555.86    1.6683175 -0.00016843094    73.360042    64.700938    64.463095    62554.633 
29765000   -193451.86    1.7397483 0.0035602035    72.395529    65.118112    64.274354    62567.378 
29770000   -193348.08    1.6401567 -0.00074310808     72.86058    64.824034    64.423286    62580.149 
29775000   -193040.99    1.6896325 0.0019424411    73.928313    64.600516    64.402729    62592.838 
29780000   -193355.69    1.6769414 0.0016939576    72.621891    64.954805    64.336389    62605.573 
29785000   -193857.01    1.7489526 0.0019205184    71.176722     65.16451    64.444596    62618.331 
29790000   -193361.94     1.673591 0.0035651427    72.776177    65.378666    64.118206    62631.131 
29795000   -193078.38    1.6914852 0.0006530464    74.155487    64.370192    64.735089    62643.833 
29800000   -193498.88    1.7147817 -0.0026544444    72.777478    64.771302    64.709335    62656.535 
29805000    -193661.3    1.6754442 0.00021686186    72.702966    64.984478     64.31381    62669.277 
29810000   -193608.79    1.6537651 0.00024775824    72.417159     65.17029    64.389328    62681.999 
29815000   -193648.06    1.6924923 -0.0034543805    72.378005    65.270902    64.296584    62694.694 
29820000   -194010.25    1.7296519 0.0042138842    72.261985    64.503692    64.445808    62707.446 
29825000   -193863.43    1.6837653 -0.00035186228    72.513496    64.080539    64.917688    62720.162 
29830000   -193689.22    1.6413526 -0.00074133693    73.009268    64.064256    64.755657    62732.924 
29835000   -193450.64    1.7117731 -0.0017066864    73.800937     63.82288    65.158519    62745.645 
29840000   -193466.06    1.6890295 -6.1310043e-05     73.67543    64.069672    65.098711    62758.353 
29845000   -193349.79    1.7176854 -0.0030104932    74.294707    64.187896     64.55686    62771.019 
29850000   -193577.01    1.6951704 -0.00046123035    73.185074    64.308876    64.580844    62783.751 
29855000    -193068.5    1.7134534 -0.0044823368    74.488108    64.719285    64.381664    62796.495 
29860000   -192834.52    1.7141569 0.0026429305     74.58621    64.180842    64.854845    62809.132 
29865000   -193014.17     1.746832 0.00047131918    74.033713    64.346416     64.93442     62821.81 
29870000   -193641.34    1.6743017 -0.0015085645     73.59226    63.946621    64.622658    62834.499 
29875000   -193373.17    1.7033784 -0.0010641442    73.531881    64.930707    64.167363    62847.184 
29880000   -192994.52    1.7243773 -0.0029502697    74.763537    65.224861    63.823081    62859.888 
29885000   -193058.54    1.7086054 0.00079197093    74.700628    65.245604    63.272636    62872.518 
29890000   -193294.35    1.7338518 -0.0029219639    74.136668    64.875506     64.14752    62885.223 
29895000   -193718.98     1.715427 0.00029001445     72.89878    64.932277    64.344259    62897.944 
29900000   -193509.15    1.7081827 -0.0038039623     72.50775     64.75718    65.073368     62910.75 
29905000   -194243.92    1.6995122 0.00028241013    71.447036    64.627536    64.741941    62923.477 
29910000   -194210.63    1.7325063 0.0024415852    71.529824    64.342174    64.575845    62936.273 
29915000   -193825.58    1.6703444 -0.0032151891    72.897538     64.44029    64.653319    62949.066 
29920000   -193687.13     1.697617 -0.0036159568    73.553237    64.634643     64.32989     62961.78 
29925000   -193575.24    1.6915931 -0.0019716742    73.374128    64.662925    64.135481    62974.504 
29930000    -193702.5    1.7208572 -0.0015035184    72.404853    64.735751    64.388515    62987.284 
29935000   -193537.39     1.672279 0.00033528574    72.543071    64.931641    64.339624     63000.03 
29940000   -193442.64    1.6776816 -0.003010772    72.157098    64.663652    64.928075    63012.841 
29945000   -193298.11    1.7090131 0.0039973199    72.716632     64.63532    64.445917    63025.595 
29950000   -192948.41    1.6674417 -0.0027353881    73.899479    65.342189    64.482109    63038.323 
29955000   -193420.13    1.6949521 -0.0053264789    72.689263    65.470303    64.330029    63051.022 
29960000    -193656.7    1.7649114 -1.5728623e-05    72.179307    65.409315    64.014699    63063.805 
29965000   -193658.29    1.6802812 -0.00035499559    73.008498    64.392395    64.548833    63076.596 
29970000   -193880.92    1.6716957 0.0010173669    72.068287    64.308735    64.891642    63089.319 
29975000   -193651.35    1.7066668 2.7408038e-05    72.765322     64.40328    65.038661    63102.079 
29980000   -193541.26    1.6875834 -0.00046748003    72.975547     64.82907    64.567791     63114.86 
29985000   -193388.59    1.7065928 -0.0014759583     73.52094    64.296689    64.712216    63127.608 
29990000   -193675.12    1.6556803 -0.0012409776    72.973407     64.96718    64.635565    63140.388 
29995000    -193821.4    1.6781467 -0.0008119907    72.776095    64.535234    64.895522    63153.133 
30000000   -193534.05    1.6870364 0.0037518585    72.985196    64.641202    64.316004    63165.873 
30005000   -193197.75    1.7073136 -0.0018549023    73.235848    64.849816    64.480623    63178.604 
30010000   -193091.36     1.695787 -0.0011730143    72.874741      64.6251    65.048791    63191.306 
30015000   -193288.41    1.7439601 0.0029197256    73.427159    63.948132    64.879095    63204.061 
30020000   -193441.66    1.7553686 0.0014394215    74.083116     64.15879    64.535688    63216.769 
30025000   -193551.28    1.6835682 -0.0019260872    73.501029    64.389417    64.399573    63229.492 
30030000   -193686.26    1.7204848 0.0020405876     72.83168    64.487379    64.323116    63242.266 
30035000   -193639.62    1.6827432 -0.0011926614    73.512781     64.69301    64.397076    63255.011 
30040000    -193608.6    1.6881483 -0.00033066207     73.50911    64.227819    64.903839    63267.722 
30045000   -193391.88     1.693683 -0.00072783349    73.286392      63.9994    65.128205    63280.427 
30050000   -193359.64    1.7132627 -0.00048982576    72.530495    64.592617    65.087489    63293.138 
30055000   -193563.16    1.6368571 -0.0017768047    71.506068    64.493266    65.372629     63305.89 
30060000   -193343.67    1.6926006 -0.0006355477    71.622787     64.35695     65.40524    63318.664 
30065000   -193546.48    1.6947364 -0.001570836    72.372818    64.672726    64.612094     63331.45 
30070000   -193366.34    1.6693726 -0.0023202739    72.471019    64.897017    64.703717    63344.238 
30075000   -193909.69    1.6897874 -0.003420933    72.295278    65.043715     64.35574    63357.013 
30080000   -193539.83    1.7327615 -0.0026576607    73.405692    65.133235    64.317097    63369.707 
30085000   -193469.13    1.7191219 -0.00088833581    73.910148    64.250319    64.769404    63382.407 
30090000   -193436.67    1.6747461 0.0013162623     73.24025    64.376597    64.465404    63395.074 
30095000   -193426.62    1.7633792 0.0012253331    72.784621      64.6574    64.203575    63407.844 
30100000   -193626.34     1.683902 -0.0018615253    72.253611    64.456835     64.51182    63420.655 
30105000   -193283.01    1.6683158 0.00045943191    72.782852    64.714446    64.649415    63433.436 
30110000   -193220.57     1.704154 -0.0033091004    73.614514    63.713948    65.722559    63446.164 
30115000   -193198.21    1.7042867  0.002327235    73.976961    64.197209    64.806063    63458.873 
30120000   -193271.78    1.7389247 -0.0031631652    73.721415    63.990055    64.943937    63471.595 
30125000    -193137.1    1.6614317 -0.005332153    73.399541    64.030377    65.094204    63484.379 
30130000   -193450.38    1.6786494 -0.0014625041    72.907894    64.410792    64.777238    63497.126 
30135000    -193449.3    1.6853481 0.0024475852    72.319654    64.906267    64.394012     63509.92 
30140000   -193832.58    1.7327306  0.002403091    71.581164    65.043639    64.584806    63522.728 
30145000   -194003.82    1.6717255 0.0019976891     71.98993    64.482777    64.459685    63535.514 
30150000   -193930.21    1.7081589 0.0014536997    72.054143    64.605554    64.467137    63548.308 
30155000      -193791    1.7450767 0.00088817937    71.199727     64.75458    64.868887    63561.133 
30160000   -193802.88    1.7549807 0.0046575939    71.439455    65.024372    64.496638    63573.972 
30165000   -193607.05    1.6839362 0.0020299994    72.617282    65.033815    64.574513    63586.736 
30170000   -193450.28     1.703935 0.0028196551    72.993087    64.784298    64.416521    63599.447 
30175000   -193896.53    1.6914284 0.00085671729    71.656042    64.770105    64.878964    63612.189 
30180000   -193572.11    1.7054963 -4.2305432e-05    72.388997    64.546066    64.971932     63624.98 
30185000   -193479.04    1.7182833 -0.0018831094    72.964922    64.292708    65.234568    63637.688 
30190000   -193485.08    1.7331182 -0.00064797222     72.32984    65.026914    64.709183    63650.436 
30195000   -193570.62    1.7214266 0.0050595336    72.248955    64.900003     64.54568    63663.177 
30200000   -193720.33    1.6854952 -0.0015298649    72.665946    65.242357    64.003624    63675.951 
30205000   -194035.88    1.7301523 0.00051007707    72.166709     64.93751     64.13623    63688.748 
30210000    -193906.1    1.7417606 0.00040843988     72.61056    64.783696    64.333799    63701.574 
30215000   -193660.62    1.7248022 0.0048451298    72.471618    64.542418    64.309282    63714.329 
30220000   -194012.62    1.7201513 0.0021696986    71.896956    64.702193    64.468858    63727.124 
30225000   -193642.05    1.6997906 0.0011867704    72.363862    64.814178     64.66952    63739.917 
30230000   -193692.46    1.7360689 -0.00012942474    72.451091    64.990579    64.592498    63752.709 
30235000   -193411.18    1.6832543 -0.0016825238    72.335453    65.063922    64.900317    63765.455 
30240000    -193273.8    1.6931258 -0.0031085112    72.856226    65.179295    64.323277    63778.193 
30245000   -193177.86    1.7185208 0.00046972465    72.853101    65.399362    64.257885     63790.97 
30250000   -193404.12     1.668881 0.0010720635    73.017953    64.816846    64.306717    63803.703 
30255000   -193291.94    1.7698075 -0.0051545644    72.917517    65.124241    64.501094    63816.445 
30260000   -193268.27    1.6491156 -0.0034349069     73.18407    65.589796    64.016643    63829.171 
30265000   -193463.02    1.6551322 0.0021698301    73.405459    65.410281     63.49451    63841.876 
30270000   -193444.81     1.731208 0.0010641002    73.259958    65.403268    63.752324    63854.593 
30275000   -193458.93    1.6806207 -0.000129083    73.744861    65.049625    63.604934    63867.313 
30280000   -193288.99    1.6874707 0.0024723199    73.886548    64.598843    64.240426    63880.069 
30285000    -193176.6    1.7124858 0.0042815365    73.732562    64.503163    64.601685    63892.764 
30290000   -193562.99    1.6956336 -0.0023654764    73.239249    64.549446    64.622814    63905.462 
30295000   -193644.88    1.6862003 0.00050350316    73.232786    64.479937    64.811019    63918.194 
30300000   -193374.32    1.6940224 0.0018163547     73.58598    65.187448     64.05071    63930.954 
30305000   -193249.01    1.7254617  0.003281599    73.295281    65.496539    63.692396    63943.671 
30310000   -193405.36    1.6811546 0.0027661522    72.460416    64.993646    64.159029    63956.404 
30315000   -193617.49    1.7202984 -0.0052498709    72.278083    65.066811    64.168698    63969.182 
30320000   -193731.47    1.6986045 -0.0061336817    72.185271    64.773094    64.602231    63981.954 
30325000   -193638.15    1.7186456 0.0022958142    72.708139    64.207628    64.922634    63994.738 
30330000   -193500.95    1.6975171 -0.001291753    73.184001    64.306729    64.870016    64007.487 
30335000   -193309.79    1.6867458 -0.0026349937    73.288844    64.548867    64.851533    64020.197 
30340000   -193790.93    1.6569442 -0.0031992757    72.143708    64.819717    64.601329    64032.958 
30345000   -193850.97    1.6660576 0.0017626822    72.454815    64.566551     64.18615    64045.773 
30350000    -193195.9    1.7378401 -0.00076139181    73.009733    64.988825    64.471151    64058.553 
30355000   -192988.59    1.7065813 0.0063730992    73.619752     64.52193    64.664925    64071.266 
30360000   -193666.49    1.6642034 0.00041790087    72.575495    64.987199    64.246928    64083.973 
30365000   -193793.12    1.7568838 -0.0013310532    72.647888    64.735326    64.479029    64096.758 
30370000   -193670.31    1.6795723 -0.00067525806    72.699444    64.815325    64.058036    64109.513 
30375000   -193468.75    1.7161103 0.0018954833    72.903232    64.800389    64.341334     64122.26 
30380000    -193479.2    1.7304424 0.0021884427    73.078404    65.206962    64.073068    64134.982 
30385000   -193412.39    1.7160936 -0.0034581084    73.262072      65.3458    64.089944    64147.701 
30390000   -193590.03    1.6885683 0.0016892463    73.265607    64.586788    64.551928    64160.431 
30395000   -193324.16    1.6676572 -0.0027025865      73.6055    64.301954    64.846578    64173.191 
30400000   -192993.11    1.6977924 0.00052846122    74.148149    63.717242    65.258507    64185.902 
30405000   -193236.56    1.6696643 -0.0015127119    73.999525    63.853284    64.879773    64198.593 
30410000   -193124.62    1.6789571 -0.0017169766    73.210794    64.523334    64.798427      64211.3 
30415000   -193626.98    1.7029234 0.00045531443    72.146461    65.167697    64.131634    64224.077 
30420000   -193793.63    1.6843621 0.00099410003    71.639293    64.964364    64.661595    64236.898 
30425000   -193643.74    1.7050343 0.00093814214    72.623043    64.379537    64.716745    64249.729 
30430000    -193274.6     1.742378 -0.0029444878     73.04546    64.444761    65.156316     64262.47 
30435000   -193065.56    1.7199962   -0.0024007    73.016581    64.689367    64.851428    64275.161 
30440000   -193022.47    1.6983185 -0.00030896075    73.332805    64.352775       65.122    64287.884 
30445000   -193521.84    1.6918695 0.0013162503    72.960857    64.345807    64.866493    64300.608 
30450000   -193379.35    1.7021529 0.0029441699    73.778794    64.186319    64.637508    64313.324 
30455000   -193152.15     1.764249 0.0013743141    73.109956    65.250712    64.385983    64326.012 
30460000   -193324.05    1.6610233  0.003538899    73.237735    64.769683    64.448618    64338.706 
30465000   -193126.37    1.6828238 -0.0010012449    73.667154     65.13142    64.460399    64351.447 
30470000   -193519.32    1.6839676 -0.00095700933    72.972346    64.554006    64.832395    64364.138 
30475000   -193517.97     1.723755 0.0018268256    72.694461    64.226786      64.7434    64376.902 
30480000   -193448.25    1.7082061 -0.0038908344    72.999831    64.420699     65.00362    64389.672 
30485000   -193416.17    1.6961484 0.00063365383    72.936786    64.106063    65.046728    64402.452 
30490000   -193676.11    1.7203797 -0.0046532991    72.756911    64.176203    65.025124     64415.29 
30495000   -194033.13    1.7126231 0.0008333361    71.261516    64.769051    65.067879    64428.087 
30500000   -193343.82    1.6817755 -0.0033277315    72.493785    64.756116    65.036166    64440.844 
30505000   -193090.72    1.7181699 0.0021404351    72.878467    64.499188    64.913027    64453.638 
30510000   -193002.36    1.6607738 0.0040059262    73.198482    64.765371    64.619788    64466.438 
30515000   -193384.37    1.7149132 0.00073694727    72.123846    64.760712    64.743326    64479.198 
30520000   -193798.97     1.663919 -0.0029398928    71.671325    64.936846    64.848192    64491.996 
30525000   -193929.43     1.746983 0.0037308164     71.74074    64.335184    64.961846    64504.801 
30530000   -193508.51    1.6789908 -0.0013449358    72.178326    64.528809    65.266248    64517.567 
30535000   -193294.95    1.6838341 -0.00015473728     73.26808     64.36942    65.090875    64530.272 
30540000   -193258.37    1.6947628 -0.0010823436    72.490091    64.448853    65.090707    64543.078 
30545000   -193565.14    1.7308204 -0.0055331089    71.901167    64.891329    64.911489    64555.843 
30550000   -193115.85    1.6608033 0.00072528456    72.806058      64.4604    64.866019    64568.589 
30555000   -193113.01     1.703671 -0.0032924227    73.265158    64.325253    65.352657    64581.368 
30560000   -193113.77    1.7244882 0.0019230324    73.430599    64.247437    65.294945    64594.078 
30565000   -193200.23    1.7036061 -0.00027004751    72.538491    64.459192    65.219982    64606.766 
30570000   -193293.83     1.702689 0.0027452588     72.41485    64.090041    65.196128    64619.564 
30575000   -193180.01    1.6852514 0.00052871784    73.744995    64.670685    64.763025    64632.251 
30580000   -192803.57    1.6536679 0.0025257675    74.641885      64.5581    64.274548    64644.917 
30585000   -193035.07    1.7237074 -0.00055169554     73.28901    65.013823    64.555189    64657.573 
30590000   -193291.95    1.7303873 -0.0018448308    73.122249    64.336782     65.27285    64670.306 
30595000   -193181.15     1.733596 -0.00068873296    74.379808    63.814231     65.19829    64683.019 
30600000   -192891.76    1.7255495 0.0068082021    74.469567    63.575166    65.216981    64695.701 
30605000   -193560.87    1.6700652 0.00038593157    72.898829    63.823453    65.121183    64708.401 
30610000   -193364.25    1.7153172 -0.0048627467    73.566024    64.383289    64.947054    64721.218 
30615000   -193117.96    1.6926369 -0.002440551    73.532209    64.793335    64.597366    64733.933 
30620000   -193372.86     1.700485 0.0051708793    72.936999    64.935146    64.001845    64746.656 
30625000   -193574.04     1.724613 -0.00016868398    73.107886     64.77251    64.610981    64759.409 
30630000   -192964.38    1.7244235 0.0022056209    73.620452    64.468149    64.956924    64772.146 
30635000   -193654.08     1.662077 -0.0019942393    72.454124    64.907672     64.52329     64784.83 
30640000   -194232.28    1.6503425 0.0026963287    71.810861     64.79592      64.1581     64797.61 
30645000   -194126.51     1.704266 0.0026593941    71.485847    64.982899    64.416947    64810.396 
30650000   -194040.78    1.6962991 -0.00077931585    71.546272    64.952372    64.783245    64823.175 
30655000   -193771.54    1.7333299 -0.00074807652    72.029486    65.111667     64.62891    64835.901 
30660000   -193686.07    1.7084214 0.00097190394    72.903674    64.849228    64.257938    64848.683 
30665000   -193674.19     1.743216 -0.0015470129    72.719715    64.782225    64.223934    64861.427 
30670000   -193933.35    1.7644645 -0.0033699154    71.826015    64.526582    65.149771    64874.179 
30675000   -193703.95    1.7613647 0.0026801135     72.56574    64.095166    64.869104    64886.981 
30680000   -193368.74    1.7525725 0.0035939796    73.711338    63.838553    64.664348    64899.773 
30685000   -193412.26     1.692116 -0.00089175973    72.701707    64.050851    65.296046    64912.533 
30690000   -193402.69    1.6998925 -0.0044999307    72.237314    64.905008     64.98749     64925.28 
30695000   -192980.34    1.6637814 -0.0012596814     73.72536    65.124131    64.151917    64938.061 
30700000   -193174.48    1.7089726 0.0017298457    73.611969    65.374176    63.727856    64950.792 
30705000   -193479.05    1.7258644 3.1286817e-05     71.94266    65.706337    63.979604     64963.52 
30710000   -193851.23    1.7427788  0.004156509    71.467887    65.334952     63.97515    64976.319 
30715000   -193338.37    1.7022162 0.0046228821    72.094646    64.968783    64.417996    64989.114 
30720000   -193417.33     1.731874 -4.6604038e-05    72.668152    64.993045    64.627058    65001.877 
30725000   -193708.81    1.7159505 -0.0026173771    73.449919    64.690415    64.637561    65014.599 
30730000   -193865.84    1.6408376 -0.00033106721    72.458887    64.991495    64.623691    65027.364 
30735000   -193320.38    1.6389716 -0.0029985392    72.910865    64.705648    64.965834    65040.092 
30740000   -193419.26    1.7081887 0.00096712409    72.938771    64.338213    64.903668     65052.82 
30745000   -193325.16     1.690919 0.0036319583    72.214248    64.401844    65.314559    65065.549 
30750000   -193535.22     1.762103 0.00017988869    71.910241    64.747933    65.126017    65078.283 
30755000    -193126.5    1.6940956 -0.00066911335    73.690314    65.082553    64.307448    65091.034 
30760000   -192920.12    1.6981038 -4.2684673e-06    73.904038     65.42786    64.135928     65103.72 
30765000   -193040.28    1.7285635 0.0052370695    73.663787     64.98293    64.193405    65116.383 
30770000   -193105.23    1.7116462 -0.0024138741    74.009216    65.342697    63.749877     65129.09 
30775000   -193421.19    1.6602447 0.0029909729    72.191415    65.083003    64.174457    65141.823 
30780000   -194025.01    1.6910002 -0.00064536681     71.34807    65.268695    64.504899    65154.586 
30785000   -193658.73    1.7110202 -0.0017766381    72.549796    64.956032    64.409191    65167.357 
30790000   -193641.15    1.7209829 -0.00062139894    73.162816     64.64534    64.504432    65180.091 
30795000   -193730.41    1.6575869 -0.0020815812    73.670207    64.763302    63.884425     65192.84 
30800000   -193579.17    1.6841491 -0.0035936139    72.877505    64.815988    64.643569    65205.571 
30805000   -193526.39    1.6765327 0.0018647851    72.368874    64.802988     64.71506    65218.338 
30810000   -193895.37    1.7368581 -0.00055616995    72.082373    65.042892    64.363747    65231.154 
30815000   -193532.97    1.6760389 -0.00047857534    72.571896    65.228119    64.301819     65243.96 
30820000   -193401.03    1.6701323 -0.0019159478    73.059215    65.509997    63.946995    65256.716 
30825000   -193369.28    1.6865128 0.0012634703    73.243722    65.386508    63.974424    65269.427 
30830000   -193689.87    1.7213698 -0.004405925    72.941026    65.414507    64.151865    65282.165 
30835000   -193646.92    1.7022888 0.0018745597    73.018774    64.700317    64.580761    65294.871 
30840000   -193515.94     1.696402  0.001901072    72.454766    65.081488    64.355149    65307.586 
30845000   -193420.24    1.7290367 -0.00025745797    72.799432    64.826378    64.527538    65320.328 
30850000   -193179.56    1.6781157 0.0027595097    73.259007    64.844687    64.414156    65333.053 
30855000    -194139.2    1.6527764 0.00036191391    71.839148    65.165179     64.18431    65345.859 
30860000   -194240.65    1.6708403 -0.0014701207    72.420214    64.866388    64.210969    65358.688 
30865000   -193904.72    1.7042688 0.0024071626    72.651024    64.612751    64.312513    65371.475 
30870000   -193379.16    1.7409326 0.0028141224    73.358759    64.625173    64.451652    65384.196 
30875000   -193506.12    1.6715984 0.0046557727    72.107524    64.264122    65.047233    65396.904 
30880000   -193743.14    1.6716704 -0.0024203845    71.641841    64.718813    65.044142    65409.711 
30885000    -193522.7    1.6768026 0.0012452927    71.707597    64.812934    64.699661    65422.562 
30890000   -193838.59    1.7231176 4.3823213e-05    71.811119    64.726336    64.533818    65435.374 
30895000   -193563.15    1.7296099 -0.0026605122    72.509098    64.459371    64.980109    65448.164 
30900000   -193713.84    1.6866635   0.00577625    72.998047    64.296062    64.199903    65460.926 
30905000   -193639.49    1.6619806 -0.00025004652    72.415586    64.577707    64.679158    65473.676 
30910000   -193756.87    1.6760616 -0.0015063332    71.915868    65.252924    64.484147    65486.476 
30915000   -193255.78    1.7069641 0.0042025711    73.503066    65.910738    63.242299    65499.205 
30920000   -193208.15    1.7207271 -0.00061869442      73.2586    65.006574    64.057046    65511.922 
30925000   -193429.91    1.7217078 -0.0051804726    72.654612    65.472615    64.038311    65524.688 
30930000   -193384.52    1.7008751 -0.0014056338    73.063157    65.369809    64.018877    65537.471 
30935000   -193170.14    1.7588527 -0.00069574385    74.440599    65.110288    63.753474    65550.211 
30940000   -193196.54    1.6888757 0.0047618153    73.535876    64.864491    64.105316    65562.911 
30945000   -192891.31    1.6951675 -0.0022902208    73.981984    64.999318    64.280804    65575.606 
30950000   -193295.74    1.7035734 -0.0033716352    73.550556    65.208735    64.169353    65588.317 
30955000   -193149.08    1.6547816 -0.00083873122    73.947113    64.740872    64.381782    65601.034 
30960000   -193143.42    1.6821735 0.0010033946    73.078012    64.477202    64.825917    65613.783 
30965000   -193201.74    1.6989729 -0.006407333     73.18812    64.543609     65.04054    65626.546 
30970000    -193384.8    1.6909754 0.0018258951    72.941422    64.117041    65.017353     65639.31 
30975000   -193287.79    1.6994647 -0.0013021758    73.306637    64.272651    64.982318    65652.041 
30980000   -193642.46      1.77053 0.0018700676    72.376049    64.091093    65.118196    65664.821 
30985000   -193350.23    1.7256019 -0.0025487172    73.304579    64.486098    64.604919    65677.615 
30990000   -192831.21    1.6812751 -0.0026481079    73.859217    65.036474    64.503139     65690.41 
30995000   -193089.63    1.7236336 -0.0036307584    74.292389    65.149762    64.048751    65703.154 
31000000   -193226.23    1.6925979 -0.00091137338    73.477651    64.938229    64.478195    65715.839 
31005000   -193531.64    1.6964151 0.00028892247    72.391691    64.544915    64.978773    65728.578 
31010000   -193301.03    1.6992377 -0.00013617079    73.020897    64.502949    64.888562    65741.331 
31015000   -193032.29     1.667616 -0.00021483511     73.67396    64.701425    64.577359    65754.088 
31020000   -193432.77    1.7193568 -0.0022682672    72.648584    65.019109    64.309029    65766.842 
31025000   -193478.51    1.6717574 -0.001606771    72.759066    65.538371     63.82863    65779.626 
31030000   -193540.19    1.7362301 -0.00097789692    72.290441    65.202131    64.550649    65792.421 
31035000   -193278.67    1.6889816 -0.00039977409    73.672737    65.095491    64.367917    65805.137 
31040000   -194043.05    1.7279517 0.0017885617    72.649486    64.364435    65.082904    65817.881 
31045000   -193784.79    1.7123838 -0.0026926196    72.318561    64.171856    65.393156     65830.65 
31050000   -193680.92    1.6568809 -0.0004356947    72.202755    64.173515    65.345047    65843.443 
31055000   -193799.05    1.6666305 0.0010108201     72.44453    64.363304    64.881273    65856.194 
31060000    -193770.6    1.6755628 0.00050526539    73.112144    64.021494    64.879102    65868.983 
31065000   -193358.64    1.6757922 0.0051049604    72.898922     64.16723    65.139827    65881.739 
31070000   -193589.53    1.7431186 -0.000172128    72.139287    65.072542    64.661822    65894.533 
31075000   -193853.94    1.6787076 0.0010658105    70.731561    64.843673    64.850331    65907.356 
31080000   -194118.49      1.69868  0.001023983    70.615775    64.727994    64.833645    65920.228 
31085000   -193999.03    1.7397457 0.00041713753    72.221209    64.291082    64.905675    65933.082 
31090000   -193961.46    1.7173091  0.003607342    71.688523    64.161818    65.471392    65945.877 
31095000   -193448.59    1.6927339 -0.00094866702    72.293976    64.394438    65.242994    65958.663 
31100000   -193318.68    1.7379559 -0.0021453292     72.74077    64.646731    65.176669    65971.452 
31105000   -193502.69    1.7462994 -0.001133487    72.694638     64.97996    64.923417    65984.223 
31110000    -193624.1    1.6792673 -0.002188639    72.323648    64.839472    65.223027    65996.913 
31115000   -193498.77    1.6979431 -0.0015390336    72.749484    64.413572     65.03854    66009.653 
31120000   -193597.93    1.7019101 0.0020265341     71.87841    64.858461    64.601022    66022.424 
31125000   -193912.57    1.6774032 0.0053196922    70.792721    64.884711    64.482513    66035.219 
31130000   -194050.04    1.7734443 -0.00097664349    71.120663    64.686056     64.80919    66048.062 
31135000   -193786.12    1.7258541 -0.0044965766    72.506189    65.435893    64.206964    66060.827 
31140000    -193430.3    1.7265812 0.0023813971    73.403636    65.533673    63.880779    66073.509 
31145000    -193714.5    1.6861546 0.0030550028    72.422092    65.053734    64.158355    66086.245 
31150000   -193830.46    1.7032529 0.0042511309    72.240877    65.305473    63.881563     66099.03 
31155000   -193458.61    1.7028029 -0.00031105458    72.965035    65.531397    63.892075    66111.793 
31160000   -193609.51    1.7266531 0.0016979155    72.226404     65.11383    64.270257    66124.529 
31165000   -193457.54    1.6896429 -0.0041847823    72.176867    64.902679    64.957361    66137.247 
31170000   -193594.33    1.6834078 -0.00081738907    72.403755    64.479897    64.833186    66149.985 
31175000   -193761.47    1.6947167 -0.0040393484    72.716316    64.031239    65.157994    66162.743 
31180000   -193806.37    1.6908545 -0.00079101593    72.319837    64.321025    65.009052    66175.525 
31185000   -193800.57     1.747536 0.0025364542    72.307594    64.786319    64.510433    66188.316 
31190000   -193639.91    1.6556674 0.00065903742    72.246973    65.032197    64.133059     66201.04 
31195000   -193572.52    1.6789801 -0.0019388371    71.900803    65.593502    64.179807     66213.85 
31200000    -193555.6    1.7092944 0.0011760601    71.708175    65.784417    63.879068     66226.64 
31205000    -193352.3    1.7352936 0.0012175948    72.796217    65.047537    64.590668     66239.37 
31210000   -193228.39    1.7107026 -0.00073879391    73.635699    64.766311     64.59708    66252.081 
31215000   -193433.99    1.6671935 -0.0028458915    72.883112    64.868682    64.537615    66264.774 
31220000   -193213.53    1.6935797 0.0017246091     72.73172    64.860251    64.438569     66277.53 
31225000    -193014.4    1.7183048 -0.00060113714    73.588326    64.600976    64.293963    66290.293 
31230000   -193140.81    1.7245343 -0.0036241075    73.956648    64.315273    64.691466    66303.058 
31235000    -193234.2    1.6997785 -0.0054552132    73.449466    64.609301    65.001153    66315.771 
31240000   -193693.41    1.7281089 0.0013746657    72.079479     64.64906    64.802443    66328.515 
31245000   -193554.24    1.6979099 0.0057118414    72.553458    64.235104    64.682072     66341.29 
31250000   -193703.91    1.7006711 -0.0039581124    73.220335    64.623002    64.606209    66354.047 
31255000   -193486.54    1.6396431 -0.0012889356    72.642497    64.822599    64.581194    66366.798 
31260000   -193252.77    1.7065818 6.5054687e-05    71.270876    65.478865    64.837648    66379.584 
31265000   -193237.81    1.7001745 0.0057056015    71.675504    64.843861    64.826717    66392.338 
31270000   -193514.37    1.7385571 0.00011374307    72.806882    65.200941    64.232665    66405.076 
31275000   -193338.01    1.6962224 -0.0016277834    72.659095    65.436601    64.459569    66417.775 
31280000   -193515.26    1.6642969 0.0019987353    72.482005    64.966952    64.487232    66430.575 
31285000   -193769.65    1.6694169 -0.0017336444    72.354236    65.099335     64.50172    66443.373 
31290000   -193718.36    1.6863456 0.0038032402    73.012113    64.813859    64.335665    66456.125 
31295000   -193612.98     1.652789 0.0006412049     73.45536    64.332205    64.846835    66468.857 
31300000   -193282.43    1.6496159 0.0036152109    72.469688    64.480555    65.114198    66481.592 
31305000   -193583.05    1.6674468 -0.00060896966    72.890674    64.529304    64.775196    66494.335 
31310000   -193257.46    1.6693054 -0.0036745743    73.161519    65.101688    64.447448    66507.076 
31315000   -193133.82    1.7493697 -0.00037938832    73.886432    64.496773    64.793591    66519.826 
31320000   -193016.56    1.6926329 -0.0048340205    73.376732    64.509767    64.961897    66532.494 
31325000   -193310.01    1.7273692 0.0013946781    73.361668    64.513447    64.195748    66545.224 
31330000   -193493.69    1.6700156 -0.0019107447    72.330127    65.289452    64.500299    66558.009 
31335000   -193612.29      1.64619 -0.0035467264    73.204039    65.004478     64.31316    66570.761 
31340000   -193291.98    1.7015615 0.00062521399    73.340901    64.033561    65.079334    66583.475 
31345000   -193513.85    1.6702371 -0.0036240221    72.169401    64.738422    65.149487    66596.231 
31350000    -193510.1    1.6928101 0.00048730135    72.431937    64.329941    65.060703    66609.002 
31355000   -193133.32    1.6725855 -0.0033257048    73.248984    64.758815    64.812631     66621.77 
31360000   -193002.64    1.6727242 -0.00071991326    73.907358    64.226847    64.942561    66634.494 
31365000   -192968.51    1.6942846 -0.0024070768    74.404188    63.969825    64.954285    66647.225 
31370000   -193248.99    1.7525901 8.463498e-05    73.667708    64.248696    64.848545    66659.904 
31375000   -193447.14    1.6645897 -0.0011843609    73.054871    64.870458    64.308923     66672.65 
31380000   -193775.06     1.667687 -0.0018367107    71.820167    64.865105    64.387855    66685.413 
31385000    -193840.9    1.7190423 -0.0017478716    71.540348     65.53039    64.100255     66698.22 
31390000    -193900.2     1.680792 0.00020515137     71.98589    64.692925    64.406692    66711.072 
31395000   -194051.01     1.704439 -0.0016888767    71.514345    64.114151    65.401709    66723.861 
31400000   -194020.29    1.6568814 -0.0025592866     71.90095    64.363007    65.049555    66736.684 
31405000   -193972.87    1.6911984 -4.3943701e-05    72.022224    63.975804    65.128282    66749.503 
31410000   -193778.26    1.7581802 -0.0030173405    71.335549    64.560462    65.338169    66762.255 
31415000   -193499.06    1.7277916 -0.0028511163    72.531934    64.226596    65.196262    66775.044 
31420000   -193425.98    1.6795842 0.0020553368    71.742191    64.981106    64.784428    66787.822 
31425000   -193765.82    1.6937211 -0.0013158267    71.844627    64.993138    64.718358      66800.6 
31430000   -193644.19    1.6675304 -0.0015010389    71.984395    64.986178    64.660515    66813.385 
31435000   -193310.73    1.6864689 -0.0036136059    72.603018    64.544726    65.545822    66826.122 
31440000   -193871.63    1.7319576 -0.0016154322    71.980979    64.696015    64.917473    66838.856 
31445000   -193530.78    1.6642329 -0.0004160957    72.907207    64.777455    64.623048    66851.622 
31450000   -193720.45    1.7185649 -0.0007800138    72.584312    65.034115    64.660267    66864.321 
31455000   -193447.74    1.6816354 -0.0029982751    72.114956    65.221197    64.703652    66877.094 
31460000   -193640.32    1.7324319 -0.00063620512    72.748798    64.936522    64.441353    66889.882 
31465000   -193780.75     1.686464 -0.0027003829    72.465605    64.903406    64.190658    66902.612 
31470000   -193483.52    1.7140798 -0.0027393123    72.824821    64.680618    64.510694    66915.338 
31475000   -193457.75    1.7371412 0.0019177909    72.602339    64.459737    64.665796    66928.074 
31480000   -193921.48    1.6679685 -0.0015377896    72.627682    63.490607    65.300742    66940.822 
31485000   -194061.71    1.6997714 -0.0023234632    72.117639    63.943086    65.274151     66953.59 
31490000   -193735.51    1.7228217 -0.0016726364    72.100837    64.721355    64.813263    66966.311 
31495000   -193556.45    1.6768294 0.0023251166    72.334433    65.060909    64.528174    66979.082 
31500000   -193215.46    1.7422221 0.00077092969    72.840584    65.024059    64.389657    66991.873 
31505000   -193664.22    1.6901754 -0.0020836559    72.040055    64.720594     64.33288    67004.641 
31510000    -193523.3     1.741667 -0.0040944677    72.208707    65.064633    64.314813    67017.462 
31515000   -193522.54    1.6828479 0.0026260323    71.955515    64.657712    64.664174    67030.297 
31520000   -193440.04    1.6954343 -0.00028464889    73.133288    64.489926    64.696598    67043.045 
31525000   -193514.67    1.6498241 -0.00011549751    72.166348    64.757224    64.870436    67055.746 
31530000    -193384.1    1.6171127 0.00018547461    72.788064    64.353087    65.057454    67068.501 
31535000   -193413.05    1.6968608 -0.0034459465    73.107058    63.948818    65.240407     67081.23 
31540000   -193857.57    1.7345412 0.00015612797    71.652165    64.333433    64.834099    67094.048 
31545000   -194069.41    1.6784303 0.0028195239    70.964158    64.509471    64.641405    67106.858 
31550000   -193502.77    1.6938253 -0.0025302352    73.001694    64.410674    64.752574    67119.669 
31555000   -193423.05    1.6703685 -0.00094656783    73.398099    63.938104    64.917711    67132.405 
31560000   -193467.88    1.6602539 0.0021819212    72.930376    64.464706    64.803675     67145.14 
31565000   -193319.68    1.7246711 0.0013775236     73.14905    64.366317     64.65811    67157.856 
31570000   -193600.85    1.7665268 -0.002748783    73.529861     64.55312    64.276147    67170.576 
31575000   -193373.68    1.7104169 -0.00069720985    73.321514    64.713021    64.386663    67183.342 
31580000   -193530.34    1.6576787 -0.00047741322    73.014697    64.478689    64.829714    67196.074 
31585000   -193249.27    1.6728987 0.0055045596    73.145629    64.085882    65.152314    67208.814 
31590000   -193470.49    1.6813185 0.0017314866    71.873277    64.247553    65.311995    67221.515 
31595000      -193984    1.7104231 -0.0017803267    71.216264    64.241515    65.656931    67234.347 
31600000   -193558.53    1.7016051 0.0024471132    72.495548    64.423502     65.43954    67247.148 
31605000   -193258.95    1.6661179 -0.0011695848    72.570444    64.862466     64.98802    67259.879 
31610000    -193369.7    1.6605332 -0.00048705355    72.372307    64.392623    65.063148    67272.634 
31615000   -192976.12    1.6949415 -0.0030983959    72.894971    65.173515    64.727399    67285.395 
31620000   -193016.38     1.769532 0.0016050454    73.056855    64.486379    65.082273    67298.117 
31625000   -193282.32     1.765602 0.00016513868    73.490931    63.968835    65.031748    67310.832 
31630000   -193727.88    1.7118452 0.0022856867    72.084819    64.637616    64.453746     67323.56 
31635000   -194199.56    1.6634158 -0.00075020974    70.686229    65.164732    64.705555    67336.397 
31640000   -193912.92    1.6644895 -0.00014072795    72.183973    64.772345    64.306235     67349.18 
31645000   -193873.99    1.7097871  -0.00253835     72.31654    64.849766    64.679393    67362.014 
31650000   -193689.06    1.7182211 0.00079609745    72.567592    64.684514    64.669235     67374.78 
31655000    -193460.9    1.7631157 0.00065719049    72.028657    64.765345    65.006248    67387.543 
31660000   -193593.49    1.6176421 -0.0022757865    71.638708    65.262833    64.649893    67400.333 
31665000   -194007.34    1.6778705 0.0036779892    70.503426    65.076305    64.754819     67413.15 
31670000   -193623.58    1.7138607 -0.00014200237    71.997715    65.172832    64.363365    67425.949 
31675000   -193093.88    1.6943415 -0.00092546351    73.882034    65.146512    64.410682    67438.692 
31680000   -193502.66    1.7096909 -2.9337062e-05    73.418619    64.582368     64.73547    67451.429 
31685000   -193460.95    1.6564663 -0.0014152608    72.351638    64.619126    65.193383     67464.14 
31690000   -193598.99    1.6923014 0.0016682546    72.650539    64.955951    64.144472    67476.891 
31695000   -193723.15     1.692504 0.0014835053    71.972643    64.981394    64.325143    67489.652 
31700000   -193850.45    1.7562991 0.0045164058    71.555948    64.389142    65.103914    67502.417 
31705000    -193622.7    1.6833137 -0.00018772318    72.610505    64.664398    64.821787    67515.231 
31710000   -193293.53    1.7239613 -0.00096268603    72.619903    64.905635    65.125539    67528.028 
31715000   -193151.58    1.6880683 -0.0014424279    73.280138    64.898494    64.927649    67540.756 
31720000   -193589.09    1.6996464 0.0044780641    72.142397    65.367951    64.320625    67553.486 
31725000   -193399.16    1.7022973 0.0020548169    73.294291    64.786478    64.302981    67566.256 
31730000   -193145.69    1.7042527 0.0009256481    73.690849    64.937949    64.151327    67578.977 
31735000   -193254.31    1.7371661 -0.010174596    73.111018    65.089689     64.71643     67591.71 
31740000   -193885.69    1.6854996 -0.0025300904    72.553693     64.95168    64.513024    67604.401 
31745000   -193620.22    1.7284894 0.00066592805    72.479873    64.750692    64.530402    67617.146 
31750000   -193441.35     1.771918 -0.0017439909     72.73152    65.345765    64.343609    67629.884 
31755000   -193897.01    1.7044476 0.00085584227    71.656995    65.013513    64.244958    67642.643 
31760000   -193843.49    1.7394217 -0.0024836009    71.794267    64.485125    64.832662    67655.424 
31765000   -194226.75    1.6992034 0.00061598499    71.444409    64.376237    64.998641    67668.203 
31770000   -194186.24    1.7230135 0.0028284137    71.435442    64.097497    65.057832    67681.021 
31775000   -194218.09    1.7296351 -0.0033932263    71.282258    64.682355    64.828906    67693.852 
31780000   -194037.71    1.7022237 -0.0023247889    71.461087    64.894346    64.825696    67706.661 
31785000   -193602.37    1.7394242 -0.0010445858    72.128171    65.732007    64.169982    67719.425 
31790000   -193409.74    1.7372152 -0.0011826565     72.91091    65.182879    64.682046     67732.13 
31795000   -193195.51    1.7237316 0.00053783836    73.312197      64.6896    64.870228    67744.829 
31800000   -193384.82     1.743561  -0.00212429    73.422602    64.557447    64.970379    67757.576 
31805000   -193762.21    1.6812644 0.0034144186    72.505976    63.952558    65.194839    67770.325 
31810000   -193876.05    1.7549704 0.0022395177    71.390786    64.143412    65.205293    67783.098 
31815000   -193903.82    1.7127239 -0.0002854833    71.743453    64.042136    65.129307    67795.932 
31820000   -193911.84    1.6826703 0.0010470116    71.672459    64.269909    65.085984    67808.733 
31825000   -194062.86    1.6956173 0.0034875993    71.121803    64.324235    65.353187    67821.531 
31830000   -194011.92    1.6728199 -0.00070905133    71.465525    64.405963     65.49529    67834.279 
31835000   -193739.59    1.7296624 0.0047916837    72.566632       64.057    65.187697    67847.026 
31840000   -193688.25    1.6778317 0.0026502019    72.184286     64.27737     65.07799    67859.768 
31845000   -193468.45    1.7088759 -0.0020856185    71.842095    64.293387    65.837594    67872.545 
31850000   -193205.31     1.721109 0.0014097877    73.088276    63.808667    65.752065    67885.282 
31855000   -193620.75    1.7222195 -0.0022453522    72.410053    64.681528    64.929417    67898.035 
31860000   -193818.06    1.6891826 0.0022929876    71.829986    63.907204    65.482154    67910.776 
31865000   -193908.31    1.6923391 0.0032936017    72.031196    63.976373    65.120382    67923.555 
31870000   -193478.45    1.6680631 0.0010192025    73.003156    63.934164    65.047104    67936.313 
31875000   -193173.66    1.6963011 0.0017378407    73.568547    63.805102     65.38751    67949.038 
31880000    -193439.1    1.7322739 0.0015847812    73.699568    63.785895    65.250968     67961.81 
31885000   -193321.23    1.6968426 -0.0023561319    73.485494    64.442941    64.825752    67974.548 
31890000   -193139.09     1.753036 0.0021254333     73.20838    64.500382    64.534841    67987.307 
31895000    -193521.3    1.6887944 -0.00086629878    72.927471    64.085317    64.873272    68000.094 
31900000   -193632.97    1.7183799 0.00048803335    72.636936    64.008994    64.839999    68012.891 
31905000   -193719.44    1.7578165 -0.0016485983    72.610159    64.578587    64.300576    68025.695 
31910000   -193525.23    1.6556071 -0.0014256736    72.673686    64.700931    64.138169    68038.487 
31915000   -193791.15    1.7737545 -0.00063989289    72.473155      64.8867    64.236058    68051.282 
31920000   -193754.72    1.6738831 -0.0027663473    72.256762    65.068916    64.312005    68064.078 
31925000    -193337.8     1.702416 0.00090973517    72.430633    65.550682    64.204281    68076.816 
31930000   -193781.88    1.7050902 -0.0012990455    72.229599    64.844386    64.633162    68089.561 
31935000   -193291.32    1.6943176 -0.0028791731    73.188611    64.529769    65.102118    68102.304 
31940000   -193444.81    1.7445749 0.0024873774     73.23723    64.147051     64.90721     68115.04 
31945000   -193245.49    1.6898247 0.0016199451     73.69087    64.281127    64.589096    68127.762 
31950000   -193787.98    1.6935236 -0.0031177251    71.167366    65.073603    64.800767    68140.509 
31955000   -193895.13    1.6936894 -0.0023571348    71.413405    65.049341    64.841651    68153.302 
31960000   -193415.49    1.7186255 -0.0027759343    72.959197    64.707894    64.715759    68166.067 
31965000   -193626.09    1.7317318 -0.0047749801    72.530198    64.952556    64.670882    68178.782 
31970000   -193359.23    1.6948461 -0.003206205    73.097362    65.542684     64.05422    68191.532 
31975000   -193479.94    1.7061769 -0.005499954    72.921863    64.732056    64.674369    68204.263 
31980000   -193720.76    1.7676063 0.00054598849    72.287422    64.296207    64.959205    68217.075 
31985000   -193634.84    1.7316058 -0.0021294403    72.345149    64.477161    64.960653    68229.856 
31990000   -194053.22    1.6769413 0.00085592303    71.236182    64.633696    65.074448    68242.661 
31995000   -193263.54    1.6332042 -0.00056201822    72.975525    64.636681    64.853468    68255.438 
32000000   -193023.18    1.7021642 0.0018399205    74.055702    64.178367    64.847864    68268.149 
32005000   -193358.89    1.7168444 0.0052295078    73.672431    64.111363    64.819826    68280.843 
32010000   -193453.22    1.7359681 0.00069217516    73.138133    64.292039    65.036872    68293.526 
32015000   -193506.06    1.6981449 -8.0865206e-05    73.171794    64.215601    64.809536    68306.258 
32020000   -193540.72     1.724627 0.0022945819     73.06132     64.04599     64.60285    68319.054 
32025000   -193883.19    1.6861452 0.0010940516    72.893981    63.991563    64.364684    68331.819 
32030000   -194037.96    1.7305046 -0.0055751284    72.365579    64.108488    65.085024    68344.645 
32035000   -193626.63    1.6708727 -0.0020931757    72.666494    64.032357    65.044359    68357.481 
32040000   -193559.93    1.7253532 -0.00020011222    72.876032    63.959122    65.248001     68370.27 
32045000   -193370.14    1.7228329 -0.0031644532    72.902994    64.170725    65.248481    68383.045 
32050000   -193607.21    1.7125781 0.0021805514    71.721731    64.656429    64.949765     68395.86 
32055000   -194149.03    1.7052764 0.00043163503    71.779015    64.839474    64.497965    68408.666 
32060000   -193638.23    1.7267089 0.0039775366    72.009079    64.757575    64.895238    68421.475 
32065000   -193467.75    1.6948254 -0.001689184    72.642419    64.365898    65.262912    68434.207 
32070000   -193240.97    1.7918184 0.0015434479    73.515639    63.815164    65.457093    68446.904 
32075000      -193242    1.6785952 0.0029179404    72.662356    64.143488    65.358966    68459.607 
32080000   -193237.21    1.7409898 -0.0012215909    73.529772    64.691619    64.458693    68472.292 
32085000   -193797.37    1.6823535 -0.0006819498    72.463797     64.69141    64.489344    68485.028 
32090000   -193739.09    1.7221451 -0.00017592157    72.320863    64.926622    64.427611    68497.796 
32095000   -193747.09    1.6799491 0.0061434399    73.323522     64.35008    64.242697    68510.497 
32100000   -193546.79    1.7464414 0.0037966279       74.666    64.292103    63.849123    68523.215 
32105000   -193704.75    1.6799627 -0.0028191662    73.333945    64.354667    64.513687    68535.972 
32110000   -193623.42    1.6916473 -0.00019262391    72.964107    64.772956    64.310944    68548.727 
32115000   -193362.57    1.6947657 -0.00056224911    73.409499    64.333964    64.660289     68561.46 
32120000   -193496.58    1.7268295   0.00153313    72.857458    64.365417    64.662213     68574.18 
32125000   -193661.92    1.7065879 -0.00072945087    72.286769    64.832568    64.539907     68586.98 
32130000      -193254    1.6694938 0.00012617578    73.808284    64.776097    64.009823     68599.69 
32135000    -193180.2    1.6491864 0.0024757824    74.100061    64.410461     63.82844    68612.383 
32140000   -193238.79    1.6728618 0.0013028863    73.372038    64.643229    64.375257    68625.089 
32145000   -193361.29    1.7148545 0.0026747032    73.563582    64.721046    63.936331    68637.757 
32150000   -193414.43    1.6938965 -0.002893487     73.96984    65.039982    63.859404    68650.511 
32155000   -193035.74    1.7055148 0.0023481729    74.711328    65.169466    63.308633    68663.213 
32160000   -193509.66    1.7593809 0.0012393007    73.655566    64.539411    64.286971    68675.951 
32165000   -193419.45    1.7343262 0.00017158353    73.332838    64.453436    64.846093    68688.679 
32170000    -193307.9    1.6364611 0.0014301337    73.183257    65.129292    64.408827    68701.354 
32175000   -193593.98    1.6856155 0.0028174515     72.12255    65.354826    64.294559     68714.13 
32180000   -193703.01     1.733495 0.0021282175    72.274694    65.133566    64.108244    68726.901 
32185000   -193227.43    1.6649205 -0.0014732267    73.563532    64.996359    64.411492     68739.62 
32190000   -193292.72    1.7234082 0.0015752393    73.362237    64.992371    64.109272    68752.347 
32195000   -193239.22    1.7012355 0.0026481996    72.981833    65.479574    64.088764    68765.055 
32200000   -193325.41    1.7234639 0.0014551312    73.002431    65.098282    64.135971    68777.803 
32205000    -193527.7    1.7160067 -0.0010037508    73.149342    65.123195    64.283963    68790.505 
32210000   -193376.52     1.703411 -0.002122219     73.07178    64.806478    64.691076     68803.22 
32215000   -193310.59    1.6739934 -0.00074929165    72.816164     64.64746    64.687838    68815.978 
32220000   -193178.07    1.6587163 0.00015454586    72.612416    65.099295    64.049859    68828.686 
32225000   -193412.29    1.7322004 0.0012739373    72.621475    64.921362    63.911389    68841.503 
32230000   -193294.12    1.6774699  0.002440791    72.931853    64.951664    64.125359    68854.243 
32235000   -193689.34    1.6826535 -0.00092356637    73.188081    64.360265    64.891104    68866.983 
32240000   -193262.23    1.6835747 0.0011070962     73.93801    64.199126    64.620603    68879.733 
32245000   -193353.02    1.7062313 0.0010484588    73.705542    64.661959    64.326859    68892.431 
32250000   -193641.47    1.6892128 -0.0037739515    73.279829    64.607495    64.508245    68905.134 
32255000   -193821.79    1.7500303 0.00014006901    72.558652    64.721113     64.45552    68917.959 
32260000   -193966.45     1.726368  -0.00478756    72.259008    64.874959    64.430351    68930.753 
32265000      -193367    1.7347298 0.0037882342    73.282462     64.69211    64.295477    68943.512 
32270000   -193515.95    1.6996891 0.0045749563    72.482286    64.797334    64.321592    68956.291 
32275000   -193502.34    1.6856169 -0.00023302961    71.735413    64.945071    64.755038    68969.127 
32280000    -193856.6    1.6915638 0.00050160463    71.075512    65.141864     64.80271    68981.913 
32285000   -193380.19    1.6661334 0.0019673904     73.27691    63.832457    65.310073    68994.689 
32290000   -193688.06    1.6825834 -0.0010491316     71.80075    64.251696    65.208057    69007.429 
32295000    -193828.6    1.6455256 -0.0017992695    71.599169    64.206068    65.253192    69020.283 
32300000   -193726.86    1.7007621 0.00041966946     71.86177    64.232619    65.163305     69033.09 
32305000   -193434.28    1.6759105 0.0034714164    72.606099    64.584664     65.12447    69045.912 
32310000   -193532.95    1.6979092 0.0024756397    72.065982    64.708551    65.045694     69058.64 
32315000   -193597.66    1.6429795 0.00022342846    72.327491    64.396757     65.01956    69071.389 
32320000   -193343.46    1.7169951 0.0014959871    73.191771    64.355995    64.855881     69084.15 
32325000   -193437.96    1.6817494  0.001873287    73.156545    64.389198    65.041845    69096.886 
32330000      -193938    1.6945393 0.0022295706    71.786564    64.544031    64.948884    69109.639 
32335000   -193366.45    1.7310898 -0.0025295505    72.929248    64.207223    65.375443    69122.434 
32340000   -193211.44    1.7298145 -0.0028237394    73.681797    63.997762    65.374145    69135.148 
32345000   -193259.72    1.6952166 -0.0032765646    72.739893    64.599113    65.255547    69147.888 
32350000   -193476.95    1.6867225 0.0037790184    72.372349    64.255469    65.056737    69160.608 
32355000   -193465.41    1.6956172 0.0033544178    72.881751    64.354521     64.60494    69173.361 
32360000   -193802.47    1.6905933 -0.002664516    71.404339    64.691921    65.155433    69186.145 
32365000   -193533.64     1.733187 -0.0055704746    72.224722    64.560466     65.48127    69198.992 
32370000   -193360.92    1.7045653  0.001586766    72.960757    64.124822     65.16825     69211.73 
32375000   -193441.86    1.7401429 0.0036655574    72.826315    64.271399      65.0241    69224.509 
32380000   -193886.01    1.7003411 -6.1697371e-05    72.405319    64.535278    64.811716    69237.279 
32385000   -193482.51    1.6941539 -0.0011936129    73.232203    64.516107    64.386208     69250.05 
32390000   -193314.71    1.7381738 -0.0039677624    73.515733    65.050306    64.467084    69262.791 
32395000   -192945.67    1.6900586 -0.0012648135    73.648113    65.342102    64.145021    69275.466 
32400000   -192989.17    1.7215505 0.0017647472    73.946981    64.976118    64.040064    69288.203 
32405000   -193231.46    1.7034844 0.0011377258    73.120104    64.969341    64.250468    69300.908 
32410000   -193204.86    1.7055822 0.00066804245    73.462497    64.766944    64.548576    69313.677 
32415000   -193306.77    1.6804777 0.0021332836    74.162369    64.266553    64.394501    69326.438 
32420000   -193591.38    1.6877013 -0.00045680863    73.735719    63.900819    64.769568    69339.123 
32425000   -193496.92    1.7176797  0.003921948    73.432651    64.034563    64.446338    69351.848 
32430000   -193467.61    1.6736222 0.0025127424    73.236215    64.556695    64.213048    69364.586 
32435000   -193217.72    1.7058162 -0.0023679948    74.035579    64.949732    64.041257     69377.29 
32440000   -193163.06    1.7148292 0.0014671454    73.770718    64.943164    63.729602    69389.995 
32445000   -193427.34    1.7263455 -0.00048702845    73.343485    64.952855    63.604377    69402.733 
32450000   -193577.33    1.7010423 0.0020880294    72.828299    65.062656    63.935021    69415.468 
32455000   -193688.64    1.6847636 0.0011841907    72.341395    65.375797    63.937144    69428.289 
32460000    -193671.1    1.7211891 9.8060912e-05    73.093133    64.414124    64.523143    69441.083 
32465000   -193373.97    1.6690963 0.0015504477    73.713267    64.746785    64.168999    69453.799 
32470000   -193363.23    1.7061378 -0.0065212549    73.119338     64.70271    64.564289    69466.529 
32475000   -193741.16    1.6751674 -0.0055210285    72.223913    64.781678    64.602301    69479.273 
32480000   -193293.98    1.6967652 -0.00014166114    72.999529    64.534795    64.581078    69492.044 
32485000   -193374.06    1.6723414 -5.7635104e-05    73.816131    64.828746    64.328228    69504.764 
32490000   -193527.85     1.714193 0.00044923543    73.228459    64.885423    64.350725    69517.503 
32495000   -193698.51    1.6882933 0.00087420243    72.601989    64.364312    64.796534    69530.272 
32500000   -193876.72     1.702529 -0.0023845026      71.7802    65.042823    64.642632    69543.062 
32505000   -194076.19    1.6911412 0.00015399654    71.292557     64.67786    64.594417    69555.877 
32510000   -193744.01    1.6657685 0.0044363317    71.836073    64.561731    64.557841    69568.698 
32515000   -193616.07    1.6969047 0.0017382989    72.119047     64.26162    64.964058    69581.479 
32520000   -193638.48    1.6771503 -0.0026305112    72.274624    64.716253     65.03926    69594.236 
32525000   -193423.98    1.6681228 -0.0013686628    72.698188    64.621649    64.942741    69606.972 
32530000   -193416.55    1.6838728 0.0013600238    71.817779    65.097224     64.76178    69619.715 
32535000   -193626.44     1.663975  0.001558874    72.016177    65.394068    64.065522    69632.484 
32540000   -193348.03    1.7241964 -7.611473e-05    72.942217    64.771771    64.742921    69645.227 
32545000   -193321.89    1.7272868 -0.00065238381    72.215022    64.872204    65.006433    69657.921 
32550000   -193439.16    1.6994534 -0.00044932986     72.60879    64.867643    64.894568     69670.69 
32555000   -193519.42    1.6130779 -0.0032330249    72.042281    64.881411    64.983502    69683.403 
32560000   -193674.32    1.6236941 0.0023146412     71.15527    65.004408    64.801257    69696.165 
32565000   -193688.23    1.7302445 0.0033095398     71.30087    64.587814    65.131065    69708.936 
32570000   -193663.12    1.6816906 0.0037074259    71.956705    64.575813    64.653113    69721.725 
32575000   -193458.83    1.7405106 0.0054606739    72.878842    64.281652    64.688661    69734.485 
32580000   -193054.86    1.7022201 -8.9524433e-05    74.479426    65.195221    63.596024    69747.188 
32585000   -192966.69    1.6924508 0.0029906281     74.53017    65.356441     63.52316    69759.912 
32590000   -193386.51    1.6804941 -0.0029724441    73.680563    65.295393    63.878473    69772.598 
32595000   -193538.01    1.7085361 -8.8136017e-05    73.283997    65.266033    63.758619     69785.31 
32600000   -193397.97    1.6563979 -0.0013936777    73.198034    65.009604    64.072921    69798.063 
32605000   -193435.48    1.6792674  0.004960487    72.508896    65.509558    63.805103    69810.826 
32610000   -193849.13    1.7343032 0.0013601307    72.432976    65.484739    64.105828    69823.577 
32615000   -193710.49    1.6895444 -0.0053535437    72.422386     65.92085    63.862009    69836.321 
32620000   -193536.26    1.6943363 -0.0052700021    73.161381    65.461412    64.157556    69849.044 
32625000   -193212.12    1.6862977 0.0020077585    73.386062    64.902622    64.150503    69861.741 
32630000    -193474.9    1.6893505 0.00085843833    72.451353    65.368085    63.872182    69874.491 
32635000    -193554.8    1.7298394 0.0019306303     72.00779    65.239142    64.038329    69887.266 
32640000   -193430.19    1.6822183 -0.0020659774    72.161457    65.170352    64.665088    69900.049 
32645000   -193554.07    1.6962242  0.002149395    72.209856     65.16892    64.317944    69912.809 
32650000    -193308.3    1.6621965 0.0015813737       73.306    65.161585    64.254376    69925.601 
32655000   -193321.62    1.7677605 -0.0017265883    73.666672     65.39529     63.96787    69938.346 
32660000   -193326.12    1.7058261 0.0012151123    72.866348    65.111649    64.436169    69951.058 
32665000   -193562.62     1.737906 0.00061858221    72.372858    65.327368    64.495358    69963.758 
32670000   -193489.03    1.7034512 -0.0029861307    72.360244    64.957242      64.6689    69976.483 
32675000   -193562.86    1.7125915 -0.002858191    72.584831    65.414722    63.864006    69989.253 
32680000    -193351.2    1.7053021 0.0023489805    72.319016    65.559417    64.183026    70001.986 
32685000   -193604.84    1.6843496 -0.0027216937    72.598155    64.837336    64.564187    70014.791 
32690000   -193567.23    1.7089444 -0.0031962253    72.539255    64.974441    64.726169    70027.576 
32695000   -193704.43    1.7071734 0.0030986198     72.45562    64.689348    64.654267    70040.333 
32700000   -193482.57    1.7246391 0.0022581179    72.959908    64.164955    64.841446    70053.087 
32705000   -193795.37    1.6764149 0.0027730231    72.251713    64.796426    64.400893    70065.847 
32710000    -193648.5    1.7008371 0.0014793979     72.69545    65.243327     63.98417    70078.602 
32715000    -193799.9     1.710205 0.0011933553    72.296441    65.072025    64.303423    70091.405 
32720000   -193591.43    1.7036361 0.00075876109    73.223194    64.985202    64.100432    70104.143 
32725000   -193467.62    1.7172603 -0.001541512    72.833069    64.400632    64.992687    70116.934 
32730000   -193434.41    1.6609057 -0.0011345997    72.785584    63.996761    65.077686    70129.727 
32735000   -193533.52    1.7341155 -0.0036005033    73.123238    64.274557    64.724462    70142.486 
32740000   -193497.09    1.7274364 -0.00040979951    73.001164    64.194279    64.812858    70155.221 
32745000   -193536.61    1.6581913 -0.0011529641    73.790054    64.042109    64.584047    70167.939 
32750000   -193161.27    1.6764096 0.00039207042    73.598009    64.053245    64.975615     70180.62 
32755000   -193568.79    1.7221256 -0.0012105646    73.142722     64.73363    64.223278    70193.332 
32760000   -193326.22    1.6931061 0.00021613612    72.511205    64.592115    64.802601    70206.111 
32765000   -193706.31    1.7140103 -0.00098887384    72.701556    64.731959    64.599202    70218.886 
32770000   -193243.51    1.7224215 -0.0030897614    74.470391    64.775598    64.300484    70231.642 
32775000   -193113.57    1.7278204 -0.0034156431    74.346407    64.489971    64.590749    70244.342 
32780000    -193243.3    1.6580389 -0.0022323353    73.634315    64.414314      64.9111     70257.06 
32785000   -193566.75    1.7142897 -7.4141534e-05    72.699565    64.752138    64.509576     70269.83 
32790000   -193747.92    1.6592133 0.0014125731    71.878583    64.801546    64.539517    70282.591 
32795000   -193575.75    1.6964512 -0.0040273915    72.522833    64.908643    64.823709    70295.363 
32800000   -193644.54    1.6594768 0.00016355905     72.68208    64.825956     64.60765    70308.086 
32805000   -193634.37    1.6639469 -0.0034961569    72.897591    64.795652    64.479241    70320.823 
32810000   -193873.84    1.6686644 0.00045215299    71.844205    64.797451    64.500693    70333.607 
32815000   -193565.57    1.7131744 -0.00044585321     71.90426    64.789791    64.904963    70346.382 
32820000   -193369.24    1.6287579 -0.0049183768    72.704592    64.949217    64.668435    70359.161 
32825000   -193408.34    1.6879638 0.0022896886     72.91835    64.064531    64.980233    70371.901 
32830000   -193252.46    1.7649732 0.0010507036       73.456    63.930995    65.311912    70384.657 
32835000   -193260.41    1.7103922 -0.0043064557    72.965468     64.91419    64.931112    70397.369 
32840000    -193829.2    1.6802167 0.0017984359    72.044411    64.269168    65.075132    70410.075 
32845000   -193422.48    1.7394204 0.00057596694    72.902904    64.886903    64.467951     70422.82 
32850000   -193615.65    1.6749407 0.0019341252    72.794347    64.738127    64.392256     70435.54 
32855000   -193611.59    1.6789675 -0.0032461848    72.469476     64.63773    64.437419    70448.323 
32860000   -193998.84    1.7540612 -0.0030290523    71.349174    65.009091    64.487427    70461.121 
32865000   -193993.43    1.7053834 -6.5596273e-05    70.789477    64.873006    64.813829    70473.941 
32870000   -193678.69    1.7114003 0.0015719981     72.04442    64.434069    64.902976    70486.729 
32875000   -193323.89    1.7280742 0.0020043526    73.084092      65.0413    64.314087    70499.518 
32880000   -193140.67    1.7555416 -0.0019141512    73.438223    65.541425    64.101795    70512.242 
32885000   -193159.55     1.729685 0.0030027501    73.235129    65.278113    64.014968    70524.983 
32890000   -193613.73    1.7173811 -0.0023049719      72.2416    64.822647     64.50855    70537.727 
32895000   -193489.23    1.7239805 -0.00060181778    72.833835    64.471388    64.876326    70550.487 
32900000   -193629.56    1.6832271 0.0019393617     73.08704    63.979393    64.895608    70563.192 
32905000   -193752.47    1.6947115 0.0023050893    72.451535    64.098834     64.79909     70575.96 
32910000   -193701.11    1.6810151 0.0012945145    71.345044    64.854461    64.586091    70588.771 
32915000   -193696.67    1.6955427 0.0015275053    71.181962    64.921379    64.897169     70601.59 
32920000   -193661.92     1.719496  0.004340093    71.403814    64.879156    64.733261     70614.44 
32925000   -193503.92    1.6959097 0.00037581233    72.651113    64.668416    64.480171    70627.266 
32930000   -193895.04    1.6883354 0.0026382108    71.682496    64.669742    64.812441    70639.984 
32935000   -193630.07    1.6738761 -0.0018823191     72.75963    64.856451    64.476097    70652.728 
32940000   -193459.88    1.7274158 -0.00041558162    73.398482    64.957097    64.255992    70665.474 
32945000   -193217.47    1.6428299 -0.0036213732    73.449809     65.29229    64.196259    70678.216 
32950000   -193480.96    1.7192795 0.00052054362    72.391953    65.325567    64.233331    70691.005 
32955000   -193709.72    1.6866521 -0.0027920767    71.721809    65.167985     64.44161    70703.756 
32960000   -194110.94    1.6971147 0.00023499671    71.043229    65.146343    64.267071    70716.552 
32965000   -193833.08    1.6324302 -0.0017094844    71.135743    64.931779    64.906554    70729.397 
32970000   -193397.97    1.7205305 -0.0028631302    73.318251    64.524843    64.738948    70742.153 
32975000   -193408.73    1.7122572  0.001111099    72.869761    64.077633    64.996997    70754.889 
32980000   -193663.06    1.6928029 -0.0030415588    72.771904    64.200362    64.939246    70767.647 
32985000   -193982.07    1.7207663 -0.0008146452    72.076819    63.960982    65.142119    70780.397 
32990000   -193777.44    1.6819885 -0.00058396957    72.556232     64.44558    64.611343    70793.215 
32995000   -193502.63    1.7051807 0.0034855842    72.471458    64.853529    64.532263    70806.016 
33000000   -193293.38    1.7038639 -0.0021560834    72.307311    65.259023     64.64143    70818.732 
33005000   -193223.65    1.7188406 0.0012129941    73.170817    65.249958    64.086507    70831.445 
33010000   -193123.98    1.7350214 -0.00058454792    73.282823    64.895751    64.321759    70844.111 
33015000   -193497.58    1.6975109 0.0038870509    71.572533    65.156196    64.367987    70856.885 
33020000   -193628.53    1.6556371 -9.2402342e-05    72.242873    64.927692    64.466943    70869.672 
33025000   -193451.34     1.710672 -0.0010428476    72.530524    64.926853    64.684631    70882.449 
33030000   -193736.56    1.6753722 -0.0011251053    71.979022    65.360501    64.290038    70895.181 
33035000   -193902.05    1.7092654 -0.0047535185    71.666599    65.300934    64.684531    70908.054 
33040000      -193761    1.6894841 0.0036205935    72.221805    65.088304    64.439194     70920.87 
33045000    -194064.8    1.6907465 0.0002197029    70.959041    64.901795    64.754929    70933.631 
33050000   -194105.89    1.6930243 -0.0012277085    70.518854    65.078446    64.943054     70946.52 
33055000   -193910.25    1.7182721 0.0057019189    72.057652    64.533603    64.492906    70959.357 
33060000   -193809.19    1.7209124 -0.00045064141    72.092667    64.928975     64.19419    70972.097 
33065000   -193960.18     1.714252 0.00083885198    71.183834    65.170692    64.501711     70984.94 
33070000   -194165.06    1.6602816 0.0043493672    70.702692    65.257887    64.528558     70997.77 
33075000   -194067.31    1.6656436 0.0050668562    71.282019    65.149421    64.327671    71010.587 
33080000   -193710.39    1.7233684 0.0010168633    71.748569    65.193962    64.439974    71023.297 
33085000   -193576.54    1.6857196 0.00032790544    72.307068    64.664182    64.831775    71036.106 
33090000   -193552.99    1.7182264 0.0026221807    72.268219    64.809107    64.693202    71048.884 
33095000   -193699.71    1.7202951 -0.0010848992    71.630791    64.874258    65.225269    71061.655 
33100000   -193583.01    1.6951922 -0.00052855898    72.251019     65.15322    64.473824    71074.452 
33105000   -193563.08    1.7431186 0.0026702286    72.381996    65.272408    64.237412    71087.206 
33110000   -193611.52    1.7184023 0.0024941407    72.699139    65.008497    64.199506    71099.985 
33115000   -193647.64    1.7126427 -0.00023999856    72.881054    64.573642    64.528329    71112.786 
33120000   -193770.93     1.719182 0.00086362827    72.282833    64.443576    64.917685    71125.646 
33125000   -193874.25    1.7202597 0.00049378329    72.344931    64.012451    65.167634    71138.488 
33130000   -193768.33    1.6619267 -0.00088938616    72.780087    64.194867    64.546764    71151.196 
33135000   -194103.84    1.7433188 0.0064518568    71.832845    64.329479     64.40203    71163.975 
33140000   -194020.91     1.742703 -0.00027854228    71.181322    65.311579    64.315749    71176.752 
33145000   -193428.19    1.7319238  0.001756964    72.333617    64.866829    64.572472    71189.531 
33150000   -193136.95    1.6775357 0.0035260615    73.177394    64.442914    65.025078    71202.243 
33155000   -193625.82    1.7076215 0.0025586212    72.871145    64.377587    64.703406    71214.955 
33160000   -193463.95    1.7218157 0.00063076221    72.538879    64.615191    64.788962    71227.714 
33165000   -193392.32    1.6864847 -0.0018178863    72.576355    64.776186    64.700005    71240.451 
33170000   -193302.04    1.7722405 -0.0024745547    73.281256    64.899889    64.550552    71253.181 
33175000   -193499.51    1.6927837 -7.0569131e-05    72.364782    65.049524    64.323024    71265.935 
33180000    -193827.5    1.7160138  0.004220114    72.503016    65.140237    63.602499    71278.753 
33185000   -193464.98    1.7203019 -0.0029356303     72.81642    65.211934    64.240158    71291.453 
33190000   -193466.79    1.7028424 0.0024333657    72.568726    64.812216    64.794706    71304.171 
33195000   -193226.44    1.6789701 0.0017858032    73.412589    64.625831    64.792738     71316.85 
33200000    -193405.1    1.7147473 1.401952e-05    73.246626      64.6469    64.732678    71329.585 
33205000    -193839.1     1.721816 0.0017040859    72.138146    64.549354    64.939456    71342.346 
33210000   -193350.77    1.6768775 0.00041002852    73.051786    64.817037    64.432039    71355.074 
33215000   -193085.42    1.7934974 0.0039346274    73.027502    64.604557    64.677885    71367.786 
33220000    -193463.3    1.7028071 0.00090525448    72.134796    64.972974    64.494383    71380.541 
33225000   -193041.34    1.6976397 0.0018919343    72.089159    64.750134    65.072183    71393.267 
33230000   -193410.36    1.6729214 -0.0001859381    72.309547    64.556453    65.109424    71406.008 
33235000   -192891.31    1.6786437 0.0045860489    73.068486     65.11831    64.794955    71418.717 
33240000   -193169.76    1.7193389 -0.00026662731    72.619722    65.043862    65.133567    71431.403 
33245000   -193448.88    1.6727699 -0.0052534403    71.794022    65.258681    65.015667    71444.147 
33250000    -193649.4    1.6701653 -0.0014222089    71.564737     65.69661    64.790087    71456.887 
33255000   -193741.93    1.6422753  0.002256803    72.073605    65.349804    64.776564    71469.639 
33260000   -193809.58    1.7349559 -0.0028730956    72.719544    65.125548    64.333269     71482.34 
33265000   -193495.28    1.7717705 0.0020243858    72.583819    65.068436    64.311253    71495.098 
33270000   -193740.56    1.6770152 0.0013709202    71.776039    65.383028    64.294839     71507.83 
33275000   -193638.85    1.7310766 0.00069838934    72.662051    65.082969    64.105838    71520.596 
33280000   -193440.72    1.6975879 -4.7406997e-05    72.390168    64.989024    64.237699    71533.384 
33285000   -193155.14     1.741484 0.00025106005    72.571964    65.065242    64.706545     71546.09 
33290000      -193168    1.6557563 0.00066559433    72.963689     65.27664    64.624189    71558.855 
33295000   -193042.76    1.7116949 -0.0026576745    73.077665    65.342695    64.860472    71571.599 
33300000   -193164.94    1.7612843 0.00025054374    72.658854    64.553434     65.33832    71584.294 
33305000   -192896.12    1.7043423 -0.0011117398    73.183789    64.929965    64.696334    71597.004 
33310000   -193082.45    1.7265605 0.00015478399    71.956714    65.096051    64.783933    71609.758 
33315000   -193566.53    1.7129128 4.0891051e-05    71.132152    65.236264    64.786507     71622.55 
33320000    -193418.1    1.6881175 -0.0016890328    72.197515     65.14957    64.712717    71635.347 
33325000   -193062.84     1.716149 0.0010116024    73.532994     64.77651    64.430505    71648.081 
33330000   -193019.58    1.6981021 -0.00091617958    73.106096    64.678631    65.077042    71660.786 
33335000      -193670    1.7032157 0.0026086101    71.440908    64.720759    64.986219    71673.513 
33340000   -193764.82    1.7330951 -0.00083736179    72.217896    64.362314    65.229775    71686.281 
33345000   -193578.47    1.6326561 -0.0050462252    72.922224    64.848463    64.656531    71699.027 
33350000   -193592.69    1.7242096  0.002613122    72.383406     64.35246     65.06205    71711.801 
33355000   -193875.23    1.7158931 -1.3200412e-05    72.008261    64.769748    64.807128    71724.576 
33360000   -193827.08    1.6849749 0.0053441517    71.508814    64.933962    64.421749    71737.377 
33365000   -193841.61    1.7197111  0.005229523    71.609339    64.721716    64.604008    71750.167 
33370000   -193490.77    1.7127877 -0.0037463497    72.719533    64.581829    65.111937    71762.969 
33375000   -193309.65      1.66097 -0.0020950064    74.043046     63.97343    65.000651    71775.728 
33380000    -193194.6    1.6781429 0.0029251876    73.730204    63.687984    65.281631    71788.391 
33385000   -193324.21     1.737786 -0.0070505708    73.460315    64.291582    64.898819    71801.125 
33390000   -193361.13    1.6963672 -0.0010606954    72.605264    64.492796    64.936228    71813.828 
33395000   -193726.79    1.6948927 0.0049530663    72.818884    64.183905    64.762545      71826.6 
33400000   -193653.74    1.6757543 -0.0036766651    71.949248    64.504348    65.149095    71839.344 
33405000   -193952.08    1.7398986 -0.002283853    71.396636    64.479548    65.287735    71852.124 
33410000   -193353.01    1.6770989 -0.0014364778    72.048859    63.908154    65.991361    71864.932 
33415000    -193166.5    1.6648868 -0.0030782973      72.6051    64.404029    65.237793    71877.697 
33420000   -193165.56    1.7230333 0.0022429477    73.513409    64.223892    64.970887    71890.454 
33425000   -193528.77     1.692984 -0.0014091633    71.997578    65.093527    64.817806    71903.179 
33430000    -193602.6    1.7504159 -0.00017376783    72.695122     64.78463    64.761034    71915.954 
33435000   -193490.36    1.6731333 -0.0040645281    73.445173    64.503855    64.908014    71928.694 
33440000   -193455.17    1.7018964 0.0014614646    73.140032    64.568474     64.63532    71941.429 
33445000   -193348.99    1.6685924 -0.0016553666    73.260245      64.7305    64.640276    71954.189 
33450000   -193520.82    1.7288246 -0.0025955349    72.333515    64.548365    64.998678    71966.963 
33455000   -193029.34    1.6565079 -0.0067445336    72.895106    64.933232    65.131364    71979.701 
33460000   -193107.77    1.6960471 -0.0018710373    73.406357    65.287915    64.530742    71992.434 
33465000   -193377.68    1.6633788 0.0010549912    73.569806     64.58345    64.803374    72005.168 
33470000   -193184.52    1.7177319 -0.0014994338    73.798535    64.686555    64.862359    72017.822 
33475000   -193242.65    1.6640854 0.0034864614    73.047942    64.270076      65.2028    72030.516 
33480000   -192822.05    1.6908195 -0.0012734413    73.487474    64.631726    65.014085    72043.217 
33485000   -193244.63    1.6887286  -0.00263059    72.159206    64.777597    65.092724    72055.949 
33490000   -193438.15    1.7078286 -1.389008e-05    71.067391    65.366509    64.937688    72068.731 
33495000   -193759.47     1.715286 0.0004060368    70.811714    65.437502    64.877442    72081.528 
33500000   -193658.02    1.7176288 0.0033309039    71.290995    65.000992      64.8608    72094.319 
33505000   -193720.79    1.6845918 0.0018871376    71.247308    64.703692    65.185886    72107.114 
33510000   -193652.69    1.7111895 -0.0011755688    71.629286    64.957491    64.938918    72119.912 
33515000   -193450.14      1.71657 -0.003526422    72.788327    64.760388    65.039487    72132.646 
33520000   -193662.88     1.713665 0.0017345332    72.452251    64.670587     64.97424     72145.36 
33525000   -193372.33    1.7073807 0.0039263528    73.615068    64.771326    64.167994    72158.096 
33530000   -193438.21    1.6887464 0.00040045733    72.819095    65.153093    64.274324    72170.826 
33535000   -193736.06    1.6948182 0.0010225369    71.841854    65.473353    64.295545    72183.554 
33540000   -193991.63    1.7528917 4.1778024e-05     71.48729    65.105848    64.363226    72196.327 
33545000   -193644.45    1.7316558 -0.0038901832    71.790713    65.198444    64.522465    72209.143 
33550000   -193409.67    1.7318147 0.0034291371    71.981099    64.785972      64.5505    72221.951 
33555000   -193403.21    1.7024256 -0.003424301    72.798357    64.231626    65.224989    72234.705 
33560000   -193496.47     1.717392 -0.0015835701    72.565975     64.06398     65.48466    72247.496 
33565000   -193239.53    1.7113795 0.0012076746    73.053494    64.553783    64.894445    72260.227 
33570000    -193662.8    1.6978962  0.002015864      72.2033    64.696135    64.900789    72272.957 
33575000   -193579.11    1.6819291 -0.0030666734    72.189464    64.653916    65.256176    72285.758 
33580000   -193541.64    1.6550691 -0.0025654446    72.221715    65.236497    64.478464    72298.491 
33585000   -193556.51    1.6846939 6.0517281e-05    71.741664     65.24409    64.821598    72311.286 
33590000   -193649.35    1.6701123 -0.0012519508    71.501811    64.903909    65.061562    72324.079 
33595000   -193681.34    1.7381817 0.00062867445    72.630479    64.268165     64.95082    72336.881 
33600000   -193521.32    1.7327742 0.0028840247    73.155304    64.319474    64.807977     72349.61 
33605000   -193495.17     1.705878 -0.0023108068    73.003504     64.90213    64.710626    72362.374 
33610000   -193549.53    1.7254724 -0.0005176854    72.233975    64.858352    64.858098    72375.101 
33615000   -193630.91    1.7110447 -0.0037165662    72.828255    64.658926    64.790175    72387.893 
33620000   -193170.75    1.6653886 -0.0033648185    73.012007    64.975474    64.751091    72400.633 
33625000   -193038.67    1.7155228 0.0021302193    73.343881    64.838541    64.526999     72413.35 
33630000    -193132.8    1.7031726 0.0049927518     73.99885    65.013178    63.605088    72426.034 
33635000   -193183.56    1.7294093 0.0044428382    72.832931    64.945126    64.505626    72438.747 
33640000   -193217.55     1.766016 -0.0014329623    72.824323    64.613851    65.016997    72451.506 
33645000   -193545.98    1.7003023 0.00029638015    72.722407    63.963222    65.313982     72464.26 
33650000   -193626.34    1.7014867 0.0040361402    72.590271    64.041926    65.110343    72476.991 
33655000   -193120.15     1.697915 -0.0027980584    73.768199    64.011644    65.297646    72489.667 
33660000   -193473.45    1.7704024 0.0034112264    73.718482    63.506603    64.903571    72502.418 
33665000   -193025.53    1.6861705 -0.0041086899    74.694529    64.692566    64.333122    72515.104 
33670000   -192948.12    1.6809635 -0.000135473    74.532632    64.261044    65.221298    72527.736 
33675000   -192924.19      1.69617 0.00074450436    75.159232    64.229896    64.644291    72540.403 
33680000   -193339.36    1.7025611 0.0026949493     73.84635    63.603272    65.435591    72553.063 
33685000   -193039.81    1.6745258 0.0032186586    73.767263    64.190804    64.925607    72565.739 
33690000   -193347.86    1.7249513 0.0010435064    73.536719    63.871797    64.889946    72578.455 
33695000   -193853.71    1.6964699 -0.0018795122    72.396403    64.366313    64.764924    72591.208 
33700000   -193673.16    1.7337286 -0.0014150847    72.484105    64.692648    64.536166    72603.999 
33705000   -193540.51    1.7419426 0.0016697649    72.416278     65.34302      64.2298    72616.709 
33710000    -193640.9    1.6370911 -0.0028147854    72.555461    64.555697     64.81881    72629.476 
33715000   -193598.71    1.6791012 0.00038842385    72.388597    64.240936    65.304531    72642.244 
33720000   -193352.14    1.6678734 -0.00098287852    72.137658     64.57024    65.092811    72655.007 
33725000   -193322.16    1.7340122  0.002553626    72.847661    64.195318    65.051407    72667.794 
33730000   -192929.81    1.6528183 0.00015098074    74.135564    64.413626    64.542909    72680.492 
33735000   -193261.88    1.7384584 -0.0019097958    73.261506    65.055083    64.500863    72693.178 
33740000   -193427.09    1.7640266 -0.00099502031     72.87256    65.209408    64.151134    72705.912 
33745000    -193384.5    1.7155784 -8.2202843e-05    73.315369    64.922899     64.47503     72718.64 
33750000   -193228.31    1.7448987  0.002267012    73.896959    64.372607    64.501513    72731.338 
33755000   -193185.31    1.6622546 -0.0048927221    74.635189    64.212735    64.660424    72744.029 
33760000   -192955.11    1.7263477 0.0051260087    73.075619    64.464949    64.916594    72756.756 
33765000   -193446.81    1.7176587 0.00074135704     72.62795    64.125699    65.116065    72769.469 
33770000    -193362.9    1.7395267 -0.0010517656    73.202881    64.299205    64.724774    72782.221 
33775000   -193579.89    1.6455394 0.00090109133    72.588564     64.31573    64.841817     72794.98 
33780000   -193504.86    1.7343398 -0.0026292696    72.696148    64.591912    65.171575    72807.828 
33785000   -194001.59    1.6892766 0.0052808557    71.841945    64.417881    64.883168    72820.598 
33790000   -193403.72    1.7098701 0.0043061395    72.749712    64.338296    64.996493     72833.38 
33795000   -193132.19    1.7501475 -0.00053349074    73.581623    64.021556    65.065066    72846.093 
33800000      -193088     1.731771 0.0023766739     73.63004    64.300993    64.712469    72858.776 
33805000   -193254.87    1.6585351 -0.00032208665    73.156101    64.542419    65.018583    72871.488 
33810000   -193081.29    1.6952738 0.00037603029    74.557652    64.262862    64.778736      72884.2 
33815000   -192978.51     1.699159 0.00048633496    74.850143    64.199426    64.905826    72896.864 
33820000   -192959.68     1.743822 -0.0011609493    74.283693    64.616364     64.77831    72909.498 
33825000   -193079.47      1.73232 0.00042357967    73.615201    64.885836    64.103406     72922.17 
33830000   -193414.01    1.7272877 -0.001718131    73.420804    64.821194    64.052415    72934.882 
33835000   -193435.36    1.7587932 -0.0018038527    73.013293    64.252108    65.052669    72947.627 
33840000   -193419.34    1.7076152 -0.002949741    73.474113    63.881957    65.448085    72960.324 
33845000   -193665.56    1.7055513 0.0010532534    73.719833    63.670643    64.849724    72973.029 
33850000   -193400.23     1.680148 -0.0020506796    73.254114    64.084773     64.85951    72985.762 
33855000   -193562.77     1.640607 -0.00010909003    72.635764    64.779159    64.553596    72998.422 
33860000   -193359.83    1.7751534 0.0009744346    72.897547    64.686185    64.596489    73011.164 
33865000   -193416.73    1.7817853 -0.0014176825    73.304095    64.858494     64.39911    73023.881 
33870000   -193088.15    1.7267565 0.0010644587     73.42511    64.734791     64.71619    73036.587 
33875000   -193251.58    1.7381372 -0.00035920466    72.149565    64.696648     65.05161    73049.333 
33880000   -193771.31    1.6829385 -0.00054204759    71.850114    64.242997    65.238264    73062.119 
33885000   -193857.95    1.6930568 -0.0040513185    72.016603    64.734386    64.943665    73074.931 
33890000   -193389.72    1.7028954 0.0014246817    71.152479    64.828221    65.127238     73087.74 
33895000   -193234.41    1.7075412 -0.00089135881    72.768398    65.231819     64.10777    73100.538 
33900000   -193139.97    1.7401867 0.0033435079     73.15596    64.794431    64.192568    73113.275 
33905000   -193183.24     1.691499 -0.0021538716    73.379144    64.600417    64.614243     73125.99 
33910000   -193464.18    1.6981533 -0.0017929193    72.403712    64.729764    65.104626    73138.711 
33915000   -193264.25    1.7153913  -0.00488752    72.993253    64.710287    64.867953    73151.458 
33920000    -193377.1    1.7162552 0.0025215067    72.764207    64.473537    64.998915    73164.199 
33925000   -193356.52    1.6999979 -0.00093235876    72.779067    64.643445    65.055389    73176.911 
33930000   -193225.49    1.7078782 0.00097082001    73.197706    65.296375     64.17169    73189.607 
33935000   -193492.42    1.6495098 0.0015839535    71.776429    65.297754    64.526231    73202.354 
33940000   -193338.08    1.7583415 0.0030018034    73.197182    64.982862    64.260503    73215.158 
33945000   -192933.37     1.681402 -0.0022311866    74.049698     64.58654    64.939565    73227.848 
33950000   -193315.63    1.7235672 -0.0019003339    73.311924    64.308476     65.10463    73240.513 
33955000    -193435.8     1.723781 -0.0019979517    72.557566    64.384461    65.413676    73253.269 
33960000   -193355.32     1.704096 0.0021823964     73.22661    64.644437     64.85908    73265.999 
33965000   -193119.01    1.6439182 -0.0017065136    73.732366     64.77339     64.55788    73278.722 
33970000   -193645.16    1.7242238 -0.0014414443    72.395539    65.316569    64.050133    73291.469 
33975000   -193975.51    1.6850005 0.0017962607    71.135472    65.290399    64.297298    73304.307 
33980000   -193412.96    1.7077454 0.0010083598    72.543544    65.049592    64.553687    73317.113 
33985000    -192843.6    1.7066087 0.0020444483    74.205613    64.073845    65.050579    73329.859 
33990000    -193074.5    1.7216136 -0.0017115085    73.690535     64.53062    64.696675    73342.627 
33995000   -193792.08    1.6991727 -0.0024975983     72.13995    64.698081    64.780601    73355.393 
34000000    -193800.1    1.6701013 -7.125185e-05    71.807951    64.895268    64.482943    73368.228 
34005000   -193761.26    1.7435102 0.0032691149     72.32625    64.699654    64.409355        73381 
34010000   -193259.65    1.7269096 0.0041925679    72.878014    65.041235    64.234077    73393.762 
34015000   -193023.69    1.7079156 0.0037088129    72.876125    64.576144    64.808556    73406.493 
34020000   -192952.07    1.7083152 -0.0017702088    74.065902      64.8965    64.474159    73419.202 
34025000   -193532.73    1.6802069 -0.00088455805    72.444543    65.132191    64.450791    73431.931 
34030000   -193779.96    1.6985366 -0.00062646928    72.385417    64.481968    64.778765    73444.683 
34035000   -193806.09    1.6910529 0.0011072851    72.276923    64.447549    64.683063    73457.433 
34040000   -193703.32    1.7091025 -0.00088298116    72.358473    64.476588    64.869194    73470.234 
34045000   -193747.82     1.685333 -0.0023892947    72.279734    64.634653    64.898942    73483.047 
34050000   -193652.51    1.6483277 -0.00078956121    71.659089    65.162201    64.538917    73495.855 
34055000   -193463.08     1.690713 0.0028119685    72.214874    64.677549    64.866342     73508.62 
34060000   -193141.73     1.726869 0.0070444264     73.47942    64.567998    64.713507    73521.323 
34065000   -193165.09    1.7076278 -0.0011377486    72.653046    64.417134     65.57918    73534.023 
34070000   -193474.67    1.6599849 -0.0011722362    72.434121     64.11629    65.414234    73546.774 
34075000   -193316.89    1.6754144 -0.00040740282    73.081042    64.120214    65.260752    73559.526 
34080000   -192885.82    1.7362364  0.001213444    73.699797    64.827043    64.790078    73572.219 
34085000   -193279.77    1.7093626  0.001323327    73.401218    64.819123    64.328241    73584.884 
34090000   -193250.95    1.6900104 -0.0028865602    72.666973    65.033246    64.509717    73597.651 
34095000   -193728.51    1.7175145 -0.0025697152    71.594713    64.985324    64.868858    73610.457 
34100000   -193791.13    1.7214934 0.00047599719    72.511195     64.51565    64.723738     73623.25 
34105000   -193706.99    1.6753336 0.0019967967    72.770204    64.276977    64.695322    73635.961 
34110000   -193787.82    1.6610493 0.00012708821    72.061195    64.364031    65.115507    73648.741 
34115000   -193965.97    1.6868668 -0.00084410896    71.377036    64.745558    64.998683    73661.554 
34120000   -193786.43    1.6882782 -0.0018233031    72.461309    64.891601    64.634801    73674.355 
34125000   -193501.27     1.686363 -0.0003756074     71.71153    65.005288    64.915454    73687.143 
34130000   -193996.43    1.7144249 0.0024337701    71.065818    64.926228    64.660974    73699.883 
34135000   -193653.16    1.7311375 -0.0011435145    72.336895    65.079647    64.550378    73712.678 
34140000   -193233.03    1.6812523 -0.0011060307    72.713105    64.514145    64.794249    73725.443 
34145000    -193434.5    1.7332592 0.0054012611    72.704895    63.945551    64.672586    73738.235 
34150000   -193639.85    1.7278438 -0.00016684807    71.951438      64.7971    64.626255    73751.042 
34155000   -193796.45    1.6905591 -0.0061960238    72.058384    64.955566    64.554241    73763.828 
34160000   -193717.35    1.6974516 -0.0030486949     71.64432    65.096489    64.783892     73776.62 
34165000   -193209.89    1.7236612 0.00058289648     73.14142    65.063179    64.251617    73789.408 
34170000   -193400.42    1.7031527 0.0036640649    73.210195    64.742522    64.316448     73802.09 
34175000   -193318.72     1.704697 -0.0030215416    73.383317      64.8383    64.655605    73814.834 
34180000   -193826.79     1.713517 0.00056399992    72.117341    64.896658    64.649744    73827.578 
34185000   -193649.02    1.6458828 0.00038621167    72.781548    64.876819      64.3886    73840.342 
34190000   -193590.57    1.6946174 -0.0002053773    71.988362    64.739148    64.497023    73853.103 
34195000   -193718.62    1.7211403 0.0019848612    71.196964    64.604484    64.795274    73865.907 
34200000   -193467.66    1.6898827 0.0017627786    71.877448    65.104002    64.918242    73878.733 
34205000   -193418.48    1.6981201 -0.0017745281    73.594164    65.198741    64.293778     73891.43 
34210000   -193041.84    1.7330933 0.0018469531    74.312234     64.68739    64.368442    73904.086 
34215000   -193654.33    1.7037186 0.00090073963    72.189179    65.180355    64.591372    73916.844 
34220000   -193743.95    1.6881148 0.0016587018    72.384129    64.887842    64.419604    73929.575 
34225000   -193652.25     1.687357 0.00018848198    71.754889    64.632408    64.936951    73942.366 
34230000   -193487.21    1.7125636 0.0026574655    72.202098    64.606451    64.832506    73955.143 
34235000   -193377.98    1.7641965 0.0031248125    72.464318    65.142002    64.497658    73967.904 
34240000   -193371.33    1.6350452   0.00131314    73.436348    64.588584    64.535686    73980.598 
34245000   -193456.56    1.6948981 -0.0011881495    73.583494      64.5317     64.70977    73993.306 
34250000   -193170.38    1.6663176 0.00026063328    73.211994      64.9696    64.759793    74006.035 
34255000      -193654    1.7423366 -0.0014070745    72.407839    65.014785    64.549674    74018.809 
34260000   -193682.64     1.651188 0.00023477057    72.937208    64.719213    64.297396    74031.576 
34265000   -193337.56    1.7052579 0.0035111071    72.718939     64.96101    64.371014    74044.324 
34270000   -193540.87    1.7505502 -0.0023511913    73.275587    64.579407     64.61871    74057.074 
34275000   -193539.38    1.6520737 -6.5189735e-06    73.467487    65.023258    63.888657    74069.807 
34280000   -193606.03    1.6886133 0.00013080162    72.608286     65.30145    64.019833    74082.516 
34285000   -193613.49    1.7130194 -0.00015775926    72.300419    65.280623    64.290828    74095.269 
34290000   -194046.67    1.7112086 0.0011364621    70.696154    64.704267    65.080198    74108.067 
34295000   -193828.98    1.7057811 0.0017209987    71.352046    65.045004    64.431052    74120.844 
34300000   -193664.83    1.6564804 -0.00048212246    72.605971     65.03335    64.138722    74133.649 
34305000   -193599.81    1.6478349 -0.00015309014    72.039777    65.455012    64.121764    74146.454 
34310000   -193579.52    1.6591026 0.0038876539     71.43886    65.292057    64.254909    74159.273 
34315000   -194026.76    1.7039883 0.00087544865    71.234755    65.078118    64.584308    74172.071 
34320000   -193689.89    1.6711118 -0.0026244748    71.910288    65.281112    64.764406    74184.858 
34325000   -193526.63    1.7435743 -0.00029183623    72.696801    65.069565    64.676672    74197.547 
34330000   -193284.67    1.6971297 0.0024354526    72.906072       64.937    64.646874    74210.313 
34335000    -193596.9    1.6991723 -0.0051917134    72.389348    64.764158    64.874014    74223.063 
34340000   -193316.88    1.7335544 0.00092902056    73.146559    64.544771    64.664125    74235.815 
34345000   -193542.66    1.7485847 0.0024288313      72.8762    64.859086    64.188719    74248.542 
34350000   -193712.54     1.711393 0.0026284801    71.767692    65.121152    64.274741    74261.311 
34355000   -193683.85    1.7135381 -0.0042821955    72.011627    65.295557    64.469193    74274.102 
34360000   -193474.33    1.6731036 -0.0016245136    72.794234     65.16232     64.32559     74286.85 
34365000   -193427.33    1.6804798 0.0037139177    73.237228    64.609438    64.450062    74299.622 
34370000   -193581.95    1.6995836 0.0026801638    72.209136    65.076081    64.199401    74312.318 
34375000   -193975.69    1.6517198 -0.0043046081    71.021336    65.345297    64.639952    74325.111 
34380000   -194066.67    1.7239784 -0.0008447312    71.942085    64.876075    64.614324    74337.876 
34385000   -193961.61    1.6688031 0.0059150507    71.480078    64.325121    64.974934    74350.653 
34390000   -193499.47    1.6965675 -0.0013801761     72.76161    64.248086    65.101783    74363.447 
34395000   -193208.61     1.705628 -0.00018239361    72.831384    64.301144    65.408614    74376.199 
34400000   -193527.51    1.6908372 -0.0022210897    72.526731    64.933073    64.536032    74388.927 
34405000   -193737.01    1.7009549 0.00055963738    71.915847    64.665697    64.938397    74401.665 
34410000   -193767.96    1.6910352 -0.00030596445    73.034475    64.490044    64.656938    74414.466 
34415000   -193492.13    1.7160566 0.00068881451    73.433549    64.391027    64.751493    74427.206 
34420000   -193534.65    1.6961162 -0.0026379349     72.82517    64.084097    64.995558    74439.979 
34425000   -193677.92    1.7080459 -0.00089326003    71.451119    64.661604    65.118367    74452.804 
34430000   -193857.75      1.70041 0.0019739759    71.679361    64.226173    65.157037    74465.617 
34435000   -193478.09    1.7353269 0.00090346303    72.935761    64.363003    64.580956      74478.4 
34440000    -193821.6      1.74468 0.0020841399    72.607374     65.13134    63.492527    74491.138 
34445000   -193695.47    1.7317803 0.00085748011    73.081478      64.8184    63.960454    74503.972 
34450000    -193956.5    1.6951534 -0.0015898947    72.644926     64.85782    64.237508    74516.776 
34455000   -193986.34     1.665917 -0.00080253783    73.652701      64.7109    64.095623    74529.499 
34460000   -193554.32    1.6379616 0.0013063025    73.571664    64.843577    64.143199    74542.227 
34465000   -193371.16    1.7137871 -0.0018273761    72.998872    64.949621    64.406808    74554.975 
34470000   -193768.45    1.6658571 -2.7447439e-06    72.060823    65.076906     64.13669    74567.828 
34475000   -193608.76    1.6851985 -0.00035702966    72.856905    64.817501    64.107742     74580.61 
34480000   -193370.64    1.7413372 0.0042168024    72.671476    64.995653     64.34112    74593.339 
34485000   -193349.55    1.7077081 0.00029978131     72.83698    64.607898    64.710239     74606.06 
34490000   -193184.26    1.7246201 -0.0015848132     73.70031    65.007493    64.178149    74618.803 
34495000   -193456.29    1.7056941 0.0015747789    73.976899    64.500498    64.201507     74631.51 
34500000   -193745.72    1.7219794 0.0032626547     72.32371    65.079838    64.218027    74644.231 
34505000   -193870.67    1.7094913 0.0017188473    71.916318    64.649973     64.79037    74656.986 
34510000    -193354.9    1.6641785 -0.0027712095    72.935146    65.078587    64.460131    74669.748 
34515000   -193099.27    1.6549984 -0.0048923231    73.833019    64.852014    64.581128    74682.493 
34520000   -193279.38    1.6997068 -0.0046677078    72.923489    65.093995    64.379816     74695.24 
34525000   -193919.68    1.6907259 0.0028535895    71.523714    64.482836    64.790356    74708.002 
34530000   -193745.42    1.6952588 -0.00029853913    72.517231     64.11255    64.897526    74720.842 
34535000   -193418.74    1.7197772 0.0022282012     72.54962     64.41651    64.728267    74733.605 
34540000   -193390.29    1.6564211 0.0040480544    73.108727    64.270773    64.929824    74746.361 
34545000   -193365.98    1.6802581 0.00031571687    73.562171    64.292464    64.660716    74759.074 
34550000    -193308.8    1.6416812 0.0027941331    73.559667    64.438696    64.304435    74771.795 
34555000   -193597.71    1.7271918 -0.0018471788    71.846283    64.908204    64.619593    74784.533 
34560000   -193810.75    1.6864588 0.0024202122    71.767347    64.725367      64.4035    74797.363 
34565000   -193699.92     1.691007 0.0010304066    72.445886    64.525457    64.664198    74810.113 
34570000   -193729.68     1.707012 -0.00033875457    72.381293    65.220059    63.977329    74822.878 
34575000   -193994.76    1.6964512 -0.0029955684    73.171677    64.901123    63.868191    74835.645 
34580000   -193821.45    1.6992751 0.0045853916    72.921791    64.675951    63.876389    74848.393 
34585000   -193709.39    1.6913181 0.00096208839    72.473151    64.975349    64.275406    74861.163 
34590000   -193303.24    1.6626837 0.0016141555    72.495737    64.690459    64.531598    74873.962 
34595000   -193656.88    1.7051329 -0.0016605793    71.654049    64.408814    64.973994    74886.767 
34600000   -193544.45    1.6728807 0.0011756049    72.597833    64.440219    64.630076    74899.598 
34605000   -193509.49    1.7083939  0.001581677    72.812142    64.182469    64.999558    74912.362 
34610000   -193649.16    1.7180323 -0.0013561722    72.690551    64.685893    64.550902    74925.145 
34615000   -193959.98     1.667919 -0.0031463595    72.009496    64.841827    64.797238     74937.92 
34620000    -193864.7    1.6917399 -0.0024049474    72.114535    65.273766    64.374045    74950.712 
34625000   -193011.78    1.6894262 -0.0023111915    73.390862    65.008738    64.632518    74963.433 
34630000   -193316.05    1.6996287 0.0013276084    72.665018    64.618239    64.811338    74976.119 
34635000   -193199.69    1.6793316 -0.0034234865     73.29594    64.538977    65.273342    74988.839 
34640000   -193495.02    1.6954012 0.0032826528    72.728415     64.53659    64.833546    75001.623 
34645000   -193356.22    1.7066812 0.0035813374    73.575848    64.649394    64.418505     75014.38 
34650000   -193526.71    1.7483585 -0.00073148273    72.882372    65.088875    64.290698    75027.082 
34655000   -193498.97     1.691026 0.00012406019    73.354145    64.402932     64.75735    75039.822 
34660000   -193570.19    1.6853707 0.0055675369     72.88386    64.164911    64.481451    75052.565 
34665000   -193568.25     1.682351 -0.0019905742    72.879679    64.797264    64.561575     75065.36 
34670000    -193317.5    1.6915456 -8.6410335e-05    72.844145    64.851361    64.579922    75078.108 
34675000   -193598.08     1.683576 0.0044473804    72.488129    65.230584    64.023179    75090.832 
34680000   -193312.21    1.7085985 -0.0009038295    72.633138    64.773437    64.609655     75103.65 
34685000   -193538.95    1.6736059 0.0065452442    72.129606    64.421674    65.051652    75116.398 
34690000   -193273.01    1.7438998 -0.0027576671    73.726455    63.788878    65.441141    75129.141 
34695000   -193587.91    1.6730249 -0.0011765803    72.573859    64.521665    65.008714    75141.829 
34700000   -193549.86    1.7236634 -0.0014669865    72.539864    64.923585    64.328161      75154.6 
34705000   -193505.18    1.7295944 -0.0032659166    72.726316    64.874975    64.329223     75167.37 
34710000   -193464.84    1.6584806  0.002382222     72.56013    63.872832    65.136537    75180.078 
34715000    -193668.1    1.6902977 0.0032998428    71.420793    64.152829    65.355945    75192.882 
34720000    -193942.8     1.730477 -0.00035551847    71.967826    64.378681    64.897083    75205.738 
34725000   -193776.09    1.7606546 0.00041363521     72.62842    64.355075    64.817613    75218.495 
34730000    -193507.2    1.6830464 -0.0013890867     73.21712    64.720919    64.465475    75231.246 
34735000    -193254.9    1.6783715 -0.003351202    73.805914    64.570841    64.452647    75243.992 
34740000   -193647.89    1.6889084 -0.0021424057    72.654466    65.306157    64.101589    75256.794 
34745000    -193763.1    1.6930103 -0.0021999457    71.074175    65.447163    64.859616    75269.601 
34750000   -193728.91    1.6857278 -0.00089081913    71.623415    65.225148    64.517924    75282.435 
34755000   -193716.31    1.7224802 0.0026371721      71.7197    64.730695    64.930699    75295.224 
34760000    -193538.3    1.6891723 -0.00066917152    72.456962    64.463037    65.067441    75307.983 
34765000   -193621.42     1.719968 0.00048728957    72.087777    64.590359    65.141912    75320.745 
34770000   -193823.21    1.6738301 0.0002407932    71.918932     64.85032    64.745952    75333.483 
34775000   -193688.59    1.7206726 0.0041274796     72.85357    64.764051    64.316437    75346.197 
34780000   -193485.75    1.7038946 -0.00019533167    73.927781    65.372163    63.279137    75358.943 
34785000   -193451.74    1.7123312 -0.00016909887    73.114814     65.59029    63.474591    75371.698 
34790000   -193650.84    1.7426961 -0.0033161363    72.166679    65.238626    64.515174    75384.457 
34795000   -193891.43     1.655641 -0.0029344833    71.946307      64.7138    64.697132    75397.245 
34800000   -193558.09    1.7340456 0.00034569646    72.252411    65.056034    64.799055    75410.099 
34805000   -193733.59    1.6559956 0.00048243438    72.466042    64.803428    64.742432     75422.85 
34810000   -193615.01    1.7001144 -0.0038188301    72.013734    65.127477    64.769585    75435.635 
34815000   -193293.86    1.7139708 -0.00085807163    73.429872    64.977453    64.365501    75448.403 
34820000   -194176.56    1.6864807 0.0074170855    72.039207    64.377184    64.334983    75461.179 
34825000   -193916.32    1.7172921 0.0017243145    72.183724    65.044672    63.737304    75473.974 
34830000   -193893.83    1.7148131 0.0015684449    72.179437     64.59999    64.152848    75486.831 
34835000    -193673.7    1.7251954 -0.0031805364    72.355537    64.724325    64.409678    75499.611 
34840000   -193490.26    1.6797273 0.0019981142    72.683337    64.705137    64.265211    75512.407 
34845000   -193501.95    1.6869097 0.0062524959    72.880917     64.88463    64.139565    75525.167 
34850000   -193869.87    1.6737703 0.00094098804    72.212282    64.535566    64.777295    75537.904 
34855000   -193911.65    1.6897785 -0.00017064791     72.12371    64.254264    65.133596     75550.72 
34860000   -193871.94    1.7944701 0.0026626204    72.184969    64.825175    64.466571    75563.485 
34865000   -194031.47    1.6681742 0.00021465304    71.608113    65.265718    64.318377    75576.275 
34870000   -193174.59    1.7337731 0.0036189426    73.344073    65.032954    63.963286    75589.021 
34875000   -193446.31    1.7066959 -0.00031397052    73.016871    65.128682    64.013515    75601.735 
34880000   -193761.06    1.6921414 -0.00044596957    72.775808    64.866596    64.078966     75614.47 
34885000   -193897.78    1.6909328 0.00012382278    72.515387     64.79889    64.196548    75627.269 
34890000   -193644.73    1.7103372 -0.0023914197    73.274915    64.932792    64.033472    75640.063 
34895000   -193524.85    1.7040036 -0.0013776306    72.988477    64.749232    64.569599    75652.792 
34900000   -193440.19    1.6782974 0.0032840193    72.270245    64.574852    64.662094    75665.523 
34905000   -193432.43    1.6844513 0.00010730569    72.302596    64.544274    64.655464    75678.304 
34910000   -193498.16    1.6670703 -0.00096242307    72.278054    65.073342    64.689165    75691.034 
34915000   -193762.67    1.6460726 -0.0027743789    72.700136    65.013977    64.446375    75703.765 
34920000    -193754.4    1.6728719 -0.00019994949    72.392901    65.051055    64.595203    75716.487 
34925000   -193749.58    1.7036402 0.0021341901    71.596238    65.115137    64.562861    75729.288 
34930000   -193849.24    1.7428369 -0.00085709324    71.226192    65.130667    64.571931    75742.061 
34935000   -193718.74    1.7283395  0.002390807    71.471308    64.569224     64.76743    75754.881 
34940000   -193787.06    1.7263531 -0.0020551212    71.695509     64.84998    64.672643    75767.729 
34945000   -194004.01    1.7062585 -0.0040659921    72.206743    64.167928     65.13207    75780.543 
34950000   -194049.24    1.6847945 -0.0012948747    71.040655    64.774195    65.248547    75793.341 
34955000   -193577.35    1.7426093 0.0021893806    72.405664    64.668971    64.603818    75806.123 
34960000   -193219.73    1.6505372 0.00013955569    72.639115    64.675009    64.758644    75818.887 
34965000    -192944.6    1.6608626  0.002211121    73.494789     64.66556    64.377215    75831.625 
34970000   -193224.87    1.7272303 0.0034296293    72.673838    64.503755     64.55583    75844.347 
34975000   -193446.78    1.6480112 0.0015503405    72.438611    64.629832    64.889125    75857.111 
34980000   -193745.97     1.710972  0.003378713    72.166078    64.759615    64.516419    75869.909 
34985000   -193603.02    1.7428671 0.00073351064      72.4744    64.669475    64.742499    75882.691 
34990000   -193819.08    1.7520028 0.0015274977    72.771227    64.604511    64.568439    75895.516 
34995000   -193763.57    1.7427927 -0.00072792193    72.408087    64.338239    65.136545    75908.316 
35000000   -193446.97     1.734976 -0.00070785924    72.832736    64.634817     64.83364    75921.087 
35005000   -193973.26    1.6790444 -0.005880933    72.547831    64.705504    64.596669    75933.896 
35010000   -193454.23     1.717261 0.0031565868    73.216545    64.710772    64.177135    75946.623 
35015000   -193603.58    1.6284337 -0.0024028793    72.116888    64.812375    64.801736    75959.365 
35020000   -193665.57    1.6822213 0.0024314792    72.843648    64.161316    64.874128    75972.071 
35025000   -193625.11    1.7079375 -0.0019770309    72.704507    64.233083    65.269604    75984.809 
35030000   -193470.86    1.7393789 -0.0036201992    72.624465    64.777408    65.209663    75997.575 
35035000   -193075.07    1.7113763 0.0013668834    73.588644     64.57138    64.470096    76010.345 
35040000   -192665.85    1.6518215 -0.0044598451    74.422494    65.112946    64.128837    76023.031 
35045000   -193246.03    1.7084221  -0.00106373    72.970321    65.195311    64.601256    76035.704 
35050000   -193318.32    1.7069747 0.0029367095    73.180967    64.435701    64.591018    76048.409 
35055000   -193817.41    1.6788173 -0.0048250399    72.350138    64.430384    64.811191    76061.219 
35060000   -193756.34    1.7279701 0.0060728392    72.319971    64.705469    64.441612    76074.053 
35065000   -193353.88    1.7150353 3.4811348e-05    72.424675    64.748883    64.834776    76086.828 
35070000      -193099    1.7119556 -0.00086766934     72.98927    64.899916    64.531876    76099.575 
35075000    -192836.9    1.7310292 -0.0043111207    73.880188    64.897056    64.645415    76112.271 
35080000    -193425.7    1.6929848 0.00047502249    73.338456    64.381013    64.801511     76124.99 
35085000   -193302.18     1.722357 -0.00012203752    73.888765    64.455915    64.816593    76137.709 
35090000   -193251.96    1.6779309  0.001811814    74.030259    64.168404    65.075692     76150.42 
35095000   -193680.76    1.6990679 -0.00029708624    72.746684    64.203306    65.170852    76163.076 
35100000   -193739.85    1.7208367 0.0046903692     72.16167    64.415515    65.012802    76175.838 
35105000   -193657.41    1.6832493 0.0014162854    72.032343    64.333677    65.331416    76188.633 
35110000   -193564.25    1.7057555 0.0012771132    72.857065    64.138874    65.413948    76201.374 
35115000   -193261.32    1.7154525 0.0007813802    73.606826    64.068386    65.488411    76214.075 
35120000   -193642.62    1.6767803 0.0028422751    73.577892     63.50322    65.477243    76226.768 
35125000   -193329.72    1.6880586 -0.0024140708    73.446228    63.669707    65.735069    76239.487 
35130000   -193374.09    1.6820633 0.0037300648    72.806434    63.502327     65.52486     76252.27 
35135000   -193470.39    1.6919118 -0.0049612965    72.553286    63.890018    65.773174    76265.028 
35140000   -193648.91    1.7431471 -0.00027858355    71.756975    63.812856    65.686925    76277.788 
35145000   -193744.96    1.7360987 -0.0010475635    73.155835    63.528284    65.398408    76290.523 
35150000   -193383.53    1.6773843 0.0026735336    74.617656    63.008358    65.327337    76303.241 
35155000   -193371.88    1.7045568 0.0011188388     73.02755    63.871529     65.30956    76315.959 
35160000   -193693.94    1.7182401  0.001960518    72.524441    64.383791    64.759529     76328.67 
35165000   -193620.84    1.7033184   -0.0010798    72.590888    64.294683    64.740904     76341.46 
35170000    -193240.2    1.6669007 -0.0035405817    73.236274    64.363612    64.663845    76354.238 
35175000   -193729.61    1.6146751 0.0024042995    72.407166     64.09194    64.785935    76366.948 
35180000   -193448.28    1.6931751 -0.00058088853    73.347647    63.834652    65.123858    76379.691 
35185000    -193202.2    1.6954522 -0.00029529002     74.20375    63.963204    64.915577    76392.435 
35190000   -193092.58    1.7082943 0.00090957179    74.676839    63.607202    65.046232    76405.124 
35195000   -192965.17    1.7141415 -0.00067138341    74.975827    64.225383    64.903863    76417.766 
35200000   -193136.19    1.7132697 0.00016135496    73.588606    64.633377    64.639425    76430.447 
35205000   -193277.85    1.6908514 -0.001632604    73.050946    64.848821     64.38074    76443.182 
35210000   -193505.19    1.7327749 -0.00045497016    72.526964    64.794123    64.415913     76455.94 
35215000    -193250.8     1.658275 -0.002148294    72.695593    64.698007    64.264311    76468.717 
35220000   -193389.82    1.6566495 -0.002886749    72.524501    64.220627    64.950161    76481.443 
35225000   -193328.32    1.6976384 -0.0010387911    72.563126    64.206533    65.056373    76494.147 
35230000   -193500.53    1.6794604 -0.0027908262    72.808332    64.500298    65.034173    76506.884 
35235000   -193357.92    1.7086658 -0.0014186703    74.038365    64.033611    65.097843    76519.625 
35240000   -193475.29    1.6934139 0.00088844367    73.820545    64.101857    64.865024    76532.316 
35245000   -193799.63      1.70106 0.00085429551    72.268824    64.646404    64.822148    76545.085 
35250000   -194070.25    1.6679241 -7.5222633e-05     71.57593    64.781872    64.773553    76557.874 
Loop time of 76557.9 on 8 procs for 30000000 steps with 2304 atoms

Performance: 16928.368 tau/day, 391.860 timesteps/s
95.8% CPU use with 8 MPI tasks x 1 OpenMP threads

MPI task timing breakdown:
Section |  min time  |  avg time  |  max time  |%varavg| %total
---------------------------------------------------------------
Pair    | 11249      | 12484      | 14266      | 826.1 | 16.31
Bond    | 2.1752     | 2.739      | 3.1702     |  21.8 |  0.00
Kspace  | 32528      | 32727      | 32936      |  85.4 | 42.75
Neigh   | 1920.7     | 1938.1     | 1998.6     |  54.6 |  2.53
Comm    | 2925.2     | 2962.7     | 3022.5     |  53.8 |  3.87
Output  | 4.3443     | 4.4472     | 5.1518     |  12.6 |  0.01
Modify  | 19650      | 24208      | 27303      |1724.8 | 31.62
Other   |            | 2231       |            |       |  2.91

Nlocal:        288.000 ave         292 max         280 min
Histogram: 1 0 0 0 0 1 2 1 1 2
Nghost:        5884.50 ave        5932 max        5851 min
Histogram: 3 1 0 0 0 2 0 0 1 1
Neighs:         0.00000 ave           0 max           0 min
Histogram: 8 0 0 0 0 0 0 0 0 0
FullNghs:      237057.0 ave      241383 max      229712 min
Histogram: 1 0 0 0 1 0 3 1 1 1

Total # of neighbors = 1896454
Ave neighs/atom = 823.11372
Ave special neighs/atom = 0.0000000
Neighbor list builds = 229909
Dangerous builds = 0

Total wall time: 25:36:32
