LAMMPS (27 Oct 2021)
OMP_NUM_THREADS environment is not set. Defaulting to 1 thread. (src/comm.cpp:98)
  using 1 OpenMP thread(s) per MPI task
package gpu 0
package gpu 2 neigh no pair/only on
#Lammps gcmc code for electrolytes

## ----- Simulation times ----- ##
    variable t_nve      equal 50000             #nve/limit
    variable t_deform 	equal 50000            #nvt
    variable t_pressed 	equal 50000            #nvt
    variable t_relaxed 	equal 100000            #nvt
    variable t_eq 	equal 5000000           #nvt

    variable smallc	equal 10
    variable bigc	equal -80
    variable numB	equal 256
    variable numS	equal ${numB}*8
    variable numS	equal 256*8
#    variable numCl	equal ${numS}*${smallc}+${bigc}*${numB}

## ----- Environment setting ----- ##
    boundary p p p
    atom_style full

## ----- System Variables  ----- ##
    variable    ttemp       equal   1.6          	#reduced temperature
    variable    ppress      equal   0			#osmetic pressure
    variable    cutoff_pppm equal   28.3	        #cutoff for the real part of pppm
    variable	ipress      equal   0.1

    variable    bigd        equal   10                      #LJ sigmas
    variable    smalld      equal   2
    variable    d_bs        equal   0.5*(${bigd}+${smalld})
    variable    d_bs        equal   0.5*(10+${smalld})
    variable    d_bs        equal   0.5*(10+2)

    variable    cut_small   equal   ${smalld}*1.122462	    #cutoffs for LJ
    variable    cut_small   equal   2*1.122462	    
    variable    cut_big     equal   ${bigd}*1.122462
    variable    cut_big     equal   10*1.122462
    variable    cut_bs      equal   ${d_bs}*1.122462
    variable    cut_bs      equal   6*1.122462


## ----- Initialization and grouping ----- ##
    read_data config_fcc8.dat
Reading data file ...
  triclinic box = (-80.000000 -80.000000 -80.000000) to (80.000000 80.000000 80.000000) with tilt (0.0000000 0.0000000 0.0000000)
  2 by 2 by 2 MPI processor grid
  reading atoms ...
  2304 atoms
Finding 1-2 1-3 1-4 neighbors ...
  special bond factors lj:    0        0        0       
  special bond factors coul:  0        0        0       
     0 = max # of 1-2 neighbors
     0 = max # of 1-3 neighbors
     0 = max # of 1-4 neighbors
     1 = max # of special neighbors
  special bonds CPU = 0.001 seconds
  read_data CPU = 0.016 seconds

    set type 1 charge   ${bigc}    	#large NPs
    set type 1 charge   -80    	
Setting atom values ...
  256 settings made for charge
    set type 2 charge   ${smallc}       #small NPs
    set type 2 charge   10       
Setting atom values ...
  2048 settings made for charge
#    set type 3 charge   1       #Na+
#    set type 3 charge   -1      #Cl-

    mass    *   0.2
    mass    1   25.0

    group big       type 1
256 atoms in group big
    group small     type 2
2048 atoms in group small
#    group cation    type 3
#    group anion     type 3

## ----- Interaction setting ----- ##
    pair_style lj/cut/coul/long ${cut_big} ${cutoff_pppm} #lj/cut/coul/long/soft 2.0 0.5 5.0 ${cut_small} ${cutoff_pppm}
    pair_style lj/cut/coul/long 11.22462 ${cutoff_pppm} 
    pair_style lj/cut/coul/long 11.22462 28.3 
    #Between regular particles (4*5/2=10)
    pair_coeff  1   1   2.0     ${bigd}     ${cut_big}	        # big-big
    pair_coeff  1   1   2.0     10     ${cut_big}	        
    pair_coeff  1   1   2.0     10     11.22462	        
    pair_coeff  2   2   2.0     ${smalld}   ${cut_small}	    # small-small
    pair_coeff  2   2   2.0     2   ${cut_small}	    
    pair_coeff  2   2   2.0     2   2.244924	    
    pair_coeff  1   2   2.0     ${d_bs}     ${cut_bs}	        # big-small
    pair_coeff  1   2   2.0     6     ${cut_bs}	        
    pair_coeff  1   2   2.0     6     6.734772	        
    pair_modify shift yes
    kspace_style	pppm	5.0e-4

## ----- Simulation setup ----- ##
    neighbor 1.2 bin
    neigh_modify delay 0 every 1 check yes #one 2000

    compute temp all temp
    compute press all pressure temp

    thermo 5000
    thermo_style custom step pe temp c_press lx ly lz cpu
    thermo_modify norm no flush yes

   # dump moldump all custom 50000 ${xyzname} id type q x y z

## ----- Thermalization of system ----- ##
    timestep 0.0002

    fix 1 all nve/limit 0.05
    fix 2 big langevin ${ttemp} ${ttemp} 0.2 ${rseed1}
    fix 2 big langevin 1.6 ${ttemp} 0.2 ${rseed1}
    fix 2 big langevin 1.6 1.6 0.2 ${rseed1}
    fix 2 big langevin 1.6 1.6 0.2 22201
    fix 3 small langevin ${ttemp} ${ttemp} 0.008 ${rseed2}
    fix 3 small langevin 1.6 ${ttemp} 0.008 ${rseed2}
    fix 3 small langevin 1.6 1.6 0.008 ${rseed2}
    fix 3 small langevin 1.6 1.6 0.008 15158

    fix freeze big setforce 0.0 0.0 0.0
    fix zeromom all momentum 1 linear 1 1 1 angular
    run ${t_nve}
    run 50000

CITE-CITE-CITE-CITE-CITE-CITE-CITE-CITE-CITE-CITE-CITE-CITE-CITE

Your simulation uses code contributions which should be cited:

- GPU package (short-range, long-range and three-body potentials):

@Article{Brown11,
 author = {W. M. Brown, P. Wang, S. J. Plimpton, A. N. Tharrington},
 title = {Implementing Molecular Dynamics on Hybrid High Performance Computers - Short Range Forces},
 journal = {Comp.~Phys.~Comm.},
 year =    2011,
 volume =  182,
 pages =   {898--911}
}

@Article{Brown12,
 author = {W. M. Brown, A. Kohlmeyer, S. J. Plimpton, A. N. Tharrington},
 title = {Implementing Molecular Dynamics on Hybrid High Performance Computers - Particle-Particle Particle-Mesh},
 journal = {Comp.~Phys.~Comm.},
 year =    2012,
 volume =  183,
 pages =   {449--459}
}

@Article{Brown13,
 author = {W. M. Brown, Y. Masako},
 title = {Implementing Molecular Dynamics on Hybrid High Performance Computers â€“ Three-Body Potentials},
 journal = {Comp.~Phys.~Comm.},
 year =    2013,
 volume =  184,
 pages =   {2785--2793}
}

@Article{Trung15,
 author = {T. D. Nguyen, S. J. Plimpton},
 title = {Accelerating dissipative particle dynamics simulations for soft matter systems},
 journal = {Comput.~Mater.~Sci.},
 year =    2015,
 volume =  100,
 pages =   {173--180}
}

@Article{Trung17,
 author = {T. D. Nguyen},
 title = {GPU-accelerated Tersoff potentials for massively parallel Molecular Dynamics simulations},
 journal = {Comp.~Phys.~Comm.},
 year =    2017,
 volume =  212,
 pages =   {113--122}
}

@Article{Nikolskiy19,
 author = {V. Nikolskiy, V. Stegailov},
 title = {GPU acceleration of four-site water models in LAMMPS},
 journal = {Proceeding of the International Conference on Parallel Computing (ParCo 2019), Prague, Czech Republic},
 year =    2019
}

CITE-CITE-CITE-CITE-CITE-CITE-CITE-CITE-CITE-CITE-CITE-CITE-CITE

PPPM initialization ...
  using 12-bit tables for long-range coulomb (src/kspace.cpp:340)
  G vector (1/distance) = 0.11279571
  grid = 60 60 60
  stencil order = 5
  estimated absolute RMS force accuracy = 0.0003775628
  estimated relative force accuracy = 0.0003775628
  using double precision KISS FFT
  3d grid and FFT values/proc = 42875 28800
  generated 0 of 1 mixed pair_coeff terms from geometric mixing rule
Neighbor list info ...
  update every 1 steps, delay 0 steps, check yes
  max neighbors/atom: 2000, page size: 100000
  master list distance cutoff = 29.5
  ghost atom cutoff = 29.5
  binsize = 14.75, bins = 11 11 11
  1 neighbor lists, perpetual/occasional/extra = 1 0 0
  (1) pair lj/cut/coul/long/gpu, perpetual
      attributes: full, newton off
      pair build: full/bin
      stencil: full/bin/3d
      bin: standard
Per MPI rank memory allocation (min/avg/max) = 11.95 | 12.05 | 12.16 Mbytes
Step PotEng Temp c_press Lx Ly Lz CPU 
       0 1.7992005e+08            0    175.78446          160          160          160            0 
    5000   -68450.675    1.4200391 -0.0043343288          160          160          160    30.273538     10000   -73611.024    1.3866565 -0.0044353847          160          160          160     60.39444     15000   -78550.584    1.3979064 -0.0045157176          160          160          160    90.794035     20000    -82714.07    1.4177959 -0.0044601415          160          160          160    121.07782    25000   -85919.517    1.4111668 -0.0044082755          160          160          160    203.70183 
   30000   -89246.725    1.4434298 -0.0043725432          160          160          160    244.46575 
   35000   -92378.841    1.4588615 -0.0044837836          160          160          160    285.25423 
   40000   -95256.737    1.4136879 -0.0043406952          160          160          160    326.03027 
   45000   -98235.524    1.4768385 -0.0043049322          160          160          160     366.7583 
   50000   -100838.18    1.4387287 -0.004300384          160          160          160    407.61772 
Loop time of 407.621 on 8 procs for 50000 steps with 2304 atoms

Performance: 2119.617 tau/day, 122.663 timesteps/s
99.7% CPU use with 8 MPI tasks x 1 OpenMP threads

MPI task timing breakdown:
Section |  min time  |  avg time  |  max time  |%varavg| %total
---------------------------------------------------------------
Pair    | 9.0354     | 9.2569     | 9.4452     |   5.9 |  2.27
Bond    | 0.005689   | 0.0076648  | 0.0094647  |   1.2 |  0.00
Kspace  | 390.98     | 391.88     | 392.31     |   2.2 | 96.14
Neigh   | 0.064804   | 0.073335   | 0.083188   |   2.4 |  0.02
Comm    | 2.4118     | 3.0151     | 3.8311     |  27.0 |  0.74
Output  | 0.00037263 | 0.01183    | 0.09201    |  27.9 |  0.00
Modify  | 2.7326     | 2.8006     | 2.8615     |   2.1 |  0.69
Other   |            | 0.5758     |            |       |  0.14

Nlocal:        288.000 ave         313 max         261 min
Histogram: 2 0 0 1 0 2 1 0 0 2
Nghost:        1365.25 ave        1394 max        1337 min
Histogram: 1 0 1 1 1 2 0 1 0 1
Neighs:         0.00000 ave           0 max           0 min
Histogram: 8 0 0 0 0 0 0 0 0 0
FullNghs:      17381.2 ave       19944 max       14865 min
Histogram: 2 0 0 1 0 3 0 0 0 2

Total # of neighbors = 139050
Ave neighs/atom = 60.351562
Ave special neighs/atom = 0.0000000
Neighbor list builds = 67
Dangerous builds = 0

    fix deforming all deform 10 x final -33 33 y final -33 33 z final -33 33 remap x
    run ${t_deform}
    run 50000
PPPM initialization ...
  using 12-bit tables for long-range coulomb (src/kspace.cpp:340)
  G vector (1/distance) = 0.11279571
  grid = 60 60 60
  stencil order = 5
  estimated absolute RMS force accuracy = 0.0003775628
  estimated relative force accuracy = 0.0003775628
  using double precision KISS FFT
  3d grid and FFT values/proc = 42875 28800
  generated 0 of 1 mixed pair_coeff terms from geometric mixing rule
Per MPI rank memory allocation (min/avg/max) = 11.95 | 12.05 | 12.16 Mbytes
Step PotEng Temp c_press Lx Ly Lz CPU 
   50000   -100838.18    1.4387287 -0.004300384          160          160          160            0 
   55000   -107267.67    1.4223491 -0.0038075998        150.6        150.6        150.6     43.25594 
   60000   -114308.42    1.4208972 -0.0041121348        141.2        141.2        141.2    86.592751 
   65000   -121914.69    1.3835461 -0.0045553378        131.8        131.8        131.8    129.90149 
   70000    -129979.7    1.4383227 -0.0036345371        122.4        122.4        122.4    173.24769 
   75000   -138194.73    1.4006082 -0.0026998036          113          113          113    216.63226 
   80000   -146842.92    1.4335849  0.001611919        103.6        103.6        103.6    260.02078 
   85000   -155397.07    1.4141365 0.0097162172         94.2         94.2         94.2      303.588 
   90000   -163959.61    1.4242002  0.032026981         84.8         84.8         84.8    347.29415 
   95000   -172364.82     1.466402  0.077977848         75.4         75.4         75.4    391.25122 
  100000   -182154.38    1.4910182   0.17668348           66           66           66    435.54193 
Loop time of 435.545 on 8 procs for 50000 steps with 2304 atoms

Performance: 1983.723 tau/day, 114.799 timesteps/s
99.7% CPU use with 8 MPI tasks x 1 OpenMP threads

MPI task timing breakdown:
Section |  min time  |  avg time  |  max time  |%varavg| %total
---------------------------------------------------------------
Pair    | 9.8473     | 10.176     | 10.436     |   6.1 |  2.34
Bond    | 0.0057478  | 0.0079812  | 0.0099802  |   1.2 |  0.00
Kspace  | 386.42     | 387.15     | 387.64     |   1.8 | 88.89
Neigh   | 0.88412    | 0.96728    | 1.0718     |   6.1 |  0.22
Comm    | 3.7504     | 4.4555     | 5.2039     |  21.9 |  1.02
Output  | 0.00039246 | 0.011106   | 0.058568   |  17.3 |  0.00
Modify  | 27.042     | 29.72      | 32.113     |  34.1 |  6.82
Other   |            | 3.061      |            |       |  0.70

Nlocal:        288.000 ave         305 max         274 min
Histogram: 2 0 0 1 2 1 0 0 1 1
Nghost:        6158.88 ave        6189 max        6123 min
Histogram: 2 0 0 0 1 1 1 0 2 1
Neighs:         0.00000 ave           0 max           0 min
Histogram: 8 0 0 0 0 0 0 0 0 0
FullNghs:      246485.0 ave      262994 max      234310 min
Histogram: 2 0 0 2 2 0 0 0 1 1

Total # of neighbors = 1971878
Ave neighs/atom = 855.84983
Ave special neighs/atom = 0.0000000
Neighbor list builds = 330
Dangerous builds = 0

    unfix 1
#    unfix 2
    unfix freeze
    unfix deforming

    timestep 0.002

    fix 1 all   nph	            tri ${ipress} ${ipress} 1.0
    fix 1 all   nph	            tri 0.1 ${ipress} 1.0
    fix 1 all   nph	            tri 0.1 0.1 1.0
    run ${t_pressed}
    run 50000
PPPM initialization ...
  using 12-bit tables for long-range coulomb (src/kspace.cpp:340)
  G vector (1/distance) = 0.11896362
  grid = 32 32 32
  stencil order = 5
  estimated absolute RMS force accuracy = 0.00045532445
  estimated relative force accuracy = 0.00045532445
  using double precision KISS FFT
  3d grid and FFT values/proc = 9261 4096
  generated 0 of 1 mixed pair_coeff terms from geometric mixing rule
Per MPI rank memory allocation (min/avg/max) = 9.318 | 9.324 | 9.328 Mbytes
Step PotEng Temp c_press Lx Ly Lz CPU 
  100000   -182113.57    1.4910182    0.1783374           66           66           66            0 
  105000   -200510.96    1.6414876   0.10875278    61.818859    61.622128    61.304738     15.48343 
  110000   -202643.32    1.5991378  0.096876652    60.949833    60.621719    60.683087    31.286314 
  115000    -204129.8    1.5927543  0.089343076    60.249043    60.388316    60.184001     47.31923 
  120000   -204597.79      1.56344   0.10166341     60.17416    59.954047    59.855092    63.301754 
  125000    -205014.6    1.5650089   0.10435804    59.988897    59.842827    59.902581    79.433278 
  130000   -205399.27     1.556648   0.10556383    59.843979    59.867735    59.886225     95.52469 
  135000   -205391.34    1.6397382   0.10544296    59.893317    60.012089    59.766725    111.42293 
  140000   -205472.67    1.5951896  0.097820014    60.242348    59.683769    59.918405    127.51003 
  145000   -205544.44     1.607573   0.10022696    59.741805    60.212822    59.876408    143.56645 
  150000   -205691.27    1.5934554  0.094539367    59.869141    59.762532    60.351383    159.63593 
Loop time of 159.639 on 8 procs for 50000 steps with 2304 atoms

Performance: 54121.964 tau/day, 313.206 timesteps/s
97.0% CPU use with 8 MPI tasks x 1 OpenMP threads

MPI task timing breakdown:
Section |  min time  |  avg time  |  max time  |%varavg| %total
---------------------------------------------------------------
Pair    | 18.259     | 20.491     | 22.601     |  28.0 | 12.84
Bond    | 0.0041294  | 0.0045376  | 0.0050343  |   0.4 |  0.00
Kspace  | 66.757     | 67.467     | 68.27      |   5.9 | 42.26
Neigh   | 14.909     | 15.224     | 15.932     |   7.9 |  9.54
Comm    | 6.3224     | 6.3721     | 6.4191     |   1.3 |  3.99
Output  | 0.00032764 | 0.012864   | 0.1006     |  29.2 |  0.01
Modify  | 46.342     | 48.228     | 50.175     |  20.7 | 30.21
Other   |            | 1.84       |            |       |  1.15

Nlocal:        288.000 ave         291 max         285 min
Histogram: 1 1 0 1 0 2 1 0 1 1
Nghost:        7287.88 ave        7295 max        7280 min
Histogram: 1 0 2 0 1 0 1 0 2 1
Neighs:         0.00000 ave           0 max           0 min
Histogram: 8 0 0 0 0 0 0 0 0 0
FullNghs:      331682.0 ave      335686 max      327718 min
Histogram: 1 1 0 1 2 0 1 0 1 1

Total # of neighbors = 2653456
Ave neighs/atom = 1151.6736
Ave special neighs/atom = 0.0000000
Neighbor list builds = 1402
Dangerous builds = 0
    unfix 1
    fix 1 all   nph	            tri ${ipress} ${ppress} 1.0
    fix 1 all   nph	            tri 0.1 ${ppress} 1.0
    fix 1 all   nph	            tri 0.1 0 1.0
    run ${t_relaxed}
    run 100000
PPPM initialization ...
  using 12-bit tables for long-range coulomb (src/kspace.cpp:340)
  G vector (1/distance) = 0.11966148
  grid = 30 30 30
  stencil order = 5
  estimated absolute RMS force accuracy = 0.00046001056
  estimated relative force accuracy = 0.00046001056
  using double precision KISS FFT
  3d grid and FFT values/proc = 8000 3600
  generated 0 of 1 mixed pair_coeff terms from geometric mixing rule
Per MPI rank memory allocation (min/avg/max) = 9.753 | 9.768 | 9.778 Mbytes
Step PotEng Temp c_press Lx Ly Lz CPU 
  150000    -205691.3    1.5934554  0.094538522    59.869141    59.762532    60.351383            0 
  155000   -205690.37    1.6493894   0.09909368    59.943145    60.051107    59.934469    15.386573 
  160000   -206014.13     1.585664  0.086317213    59.764196    60.205187    60.063339    30.850178 
  165000   -205883.81    1.5995404  0.083154078    60.045637    59.890357    60.339596    46.218448 
  170000   -205968.08    1.5740602  0.068451845    60.193457    60.199392    60.195697    61.615227 
  175000   -206001.34    1.6196637  0.076543343    60.090973    60.045206    60.191759    77.096684 
  180000    -206009.8    1.6249285  0.068257752    60.279906    60.359288    60.269382    92.660204 
  185000   -206008.99    1.6000369  0.055336261    60.541363    60.254812    60.360908     108.2268 
  190000   -206144.95     1.595907  0.058158928     60.44728    60.204474    60.349726    123.48852 
  195000   -205991.43    1.5902139  0.054603687    60.613341     60.27492    60.411948    138.90683 
  200000   -205854.87    1.5735739  0.041853873    60.867226    60.423437    60.477542    154.32953 
  205000   -205848.83    1.5995482  0.040612471    60.542503    60.565388    60.828257    169.67923 
  210000   -205868.02    1.5879612  0.036642985    60.812287    60.670645    60.660437     185.0718 
  215000   -205836.68    1.6092459  0.032856875    60.795258    60.732166    60.643331    200.26949 
  220000   -205791.62    1.5849321  0.027834484    60.687038     60.85087     60.85563    215.55368 
  225000   -205591.13    1.6290072  0.027139821     60.90618    60.833197    60.948764    230.75393 
  230000   -205574.34     1.616665  0.019991876    60.805845    60.891263    61.335081    246.07832 
  235000   -205356.09      1.62061  0.010377797    61.200832    61.009414    61.357757    261.42521 
  240000   -205358.83    1.5665695  0.012389843    61.220544    61.065198    61.231971    276.73796 
  245000   -205035.87    1.6229011 0.0013050596    61.584431     61.32535    61.287467     292.0851 
  250000   -205057.63    1.5681753 -0.0012882044    61.434103    61.444505    61.486498    307.35101 
Loop time of 307.355 on 8 procs for 100000 steps with 2304 atoms

Performance: 56221.719 tau/day, 325.357 timesteps/s
94.3% CPU use with 8 MPI tasks x 1 OpenMP threads

MPI task timing breakdown:
Section |  min time  |  avg time  |  max time  |%varavg| %total
---------------------------------------------------------------
Pair    | 55.335     | 62.147     | 65.271     |  39.0 | 20.22
Bond    | 0.0084543  | 0.0091016  | 0.0097512  |   0.5 |  0.00
Kspace  | 110.36     | 111.66     | 113.32     |   8.1 | 36.33
Neigh   | 30.297     | 30.94      | 31.554     |   7.5 | 10.07
Comm    | 12.753     | 12.853     | 12.981     |   2.1 |  4.18
Output  | 0.00065268 | 0.010547   | 0.079763   |  25.5 |  0.00
Modify  | 67.371     | 82.677     | 91.79      |  99.6 | 26.90
Other   |            | 7.061      |            |       |  2.30

Nlocal:        288.000 ave         292 max         281 min
Histogram: 1 0 1 0 0 1 0 1 2 2
Nghost:        7229.00 ave        7241 max        7211 min
Histogram: 1 0 0 0 1 3 0 0 2 1
Neighs:         0.00000 ave           0 max           0 min
Histogram: 8 0 0 0 0 0 0 0 0 0
FullNghs:      308644.0 ave      312856 max      301217 min
Histogram: 1 0 1 0 0 1 0 1 2 2

Total # of neighbors = 2469150
Ave neighs/atom = 1071.6797
Ave special neighs/atom = 0.0000000
Neighbor list builds = 2847
Dangerous builds = 0
    unfix 1

    timestep 0.001
    dump moldump all custom 10000 ${xyzname} id type q x y z vx vy vz
    dump moldump all custom 10000 r8T1.6_coulombic_.1.lammpstrj id type q x y z vx vy vz
    fix 1 all   nph                 tri ${ppress} ${ppress} 1.0
    fix 1 all   nph                 tri 0 ${ppress} 1.0
    fix 1 all   nph                 tri 0 0 1.0
    run ${t_eq}
    run 5000000
PPPM initialization ...
  using 12-bit tables for long-range coulomb (src/kspace.cpp:340)
  G vector (1/distance) = 0.11911302
  grid = 30 30 30
  stencil order = 5
  estimated absolute RMS force accuracy = 0.00049283201
  estimated relative force accuracy = 0.00049283201
  using double precision KISS FFT
  3d grid and FFT values/proc = 8000 3600
  generated 0 of 1 mixed pair_coeff terms from geometric mixing rule
Per MPI rank memory allocation (min/avg/max) = 11.02 | 11.04 | 11.05 Mbytes
Step PotEng Temp c_press Lx Ly Lz CPU 
  250000   -205057.73    1.5681753 -0.0012915076    61.434103    61.444505    61.486498            0 
  255000   -205092.68    1.6098173 -0.0046706132    61.729477     61.50555    61.335197    14.257828 
  260000   -204944.06    1.5897764 -0.0023396594     61.74769    61.319858     61.68008    28.492273 
  265000   -204756.95    1.5937551 -0.0012080812    61.621693    61.587215    61.579842    42.793536 
  270000   -204907.46    1.6036804 0.00044209344    61.558339    61.656766    61.372006    57.134538 
  275000   -204718.87    1.6214506 0.0016520762    61.483748    61.701189    61.564699    71.400844 
  280000   -204859.91    1.6133178 0.0035823342     61.53151    61.454488    61.551792    85.650241 
  285000   -204933.52    1.5625299 -0.0035606499    61.432964    61.798929    61.508305    99.898791 
  290000    -204890.9    1.6237238 0.0018549183    61.435332    61.445323    61.650688    114.17719 
  295000   -205220.52    1.5881878 -0.0048154293    61.586715    61.352168    61.488935    128.48169 
  300000   -204872.49     1.624105 -7.6705562e-05    61.468223    61.567328     61.47021    142.78988 
  305000   -205009.04    1.6279385 1.3793385e-05    61.608902    61.363104    61.566198    157.09544 
  310000   -205008.96    1.6359953 -0.0012937477    61.424692    61.737373    61.268208    171.42212 
  315000   -204915.57    1.5594868 0.0050274219    61.292911    61.366648    61.719664    185.74094 
  320000   -205137.28    1.6055571 0.0073749234    61.450512    61.279171     61.38096    200.06193 
  325000    -204916.3    1.5849248 0.0044042272    61.544024    61.464115    61.298715    214.38468 
  330000   -205001.72    1.6106891 0.0015196444    61.405055    61.475096    61.449877    228.73363 
  335000   -205011.78    1.6023495 -0.0034883662    61.587961    61.546179    61.310794    243.02745 
  340000   -205008.02    1.6120275 0.0014024853    61.616197    61.474809    61.282017    257.34044 
  345000   -205006.41    1.6298887 0.0015393247    61.458265    61.369039    61.679915    271.59263 
    350000   -204767.76    1.6536186 -0.0017371571    61.664072    61.424909    61.621365    358.2392  3  355000   -204775.67    1.6109062 -0.0011475411    61.592463    61.526809    61.630612    376.1479  3  360000   -204750.02    1.5402033 0.0018542943    61.718091    61.363499    61.410406    394.0326  3  365000   -204594.51    1.5928326 -0.0012912532    61.665877    61.534172    61.665714    411.8878  3  370000   -204675.87    1.6160809 0.0011408331    61.533708    61.628528    61.554093    429.77338 
  375000    -204699.8    1.6066136  0.012721277    61.245632    61.347861    61.600714    447.62205 
  380000   -204853.88    1.5993971 -0.00063077586    61.336727    61.672115    61.495332    465.48079 
  385000      -204699    1.5827396 2.2309678e-05    61.602291    61.429216     61.57648    483.35517 
  390000   -204955.53    1.6010899 0.0025775611    61.488878    61.160495    61.672255    501.28514 
  395000   -205046.82    1.5919426 0.0034176407    61.518212    61.661995    61.246818    519.16091 
  400000   -204921.15     1.612058 0.0049219092    61.277917    61.372869     61.77924    537.04808 
  405000   -204759.14    1.6228239 -0.00025659608    61.605278    61.602993    61.401043    554.89975 
  410000    -204732.8    1.5673179 0.0072088302    61.286236    61.579774    61.636593    572.76897 
  415000   -204668.26    1.5698802 -0.00094076218    61.716453    61.468019    61.486678    590.65646 
  420000   -204728.13    1.5777912 0.0020353028    61.675044    61.358789    61.501898    608.52781 
  425000   -205076.86    1.5758758 0.00016553762    61.347426    61.592442    61.501506    626.38204 
  430000   -204889.42    1.5574262 -0.00028974516    61.711362    61.153378    61.595303    644.27783 
  435000   -204921.71    1.5698794 -4.8507118e-05    61.332349    61.434037    61.617448    662.14692 
  440000   -204935.33    1.6137625 -0.008264326    61.528685    61.467545     61.70969    680.05006 
  445000    -205003.5    1.6265712 0.0015994834    61.393149    61.507772    61.432749    697.99217 
  450000   -204679.48    1.5876201 -0.0012816952    61.752666     61.28565    61.588136    715.90115 
  455000   -204816.49    1.6602429 -0.00039646594    61.362584    61.621793    61.604029    733.74439 
  460000    -204796.8     1.616855 0.00054182878    61.702196    61.450471     61.62455     751.6338 
  465000   -204985.54    1.6450561 -0.0016869938    61.648125    61.390242    61.525482    769.51051 
  470000   -205095.87    1.5829922 0.00049861611    61.430933    61.397896     61.44897    787.33449 
  475000   -204815.36    1.6652671 -0.0011970421    61.373832    61.415561    61.865588    805.22901 
  480000   -204597.45    1.5818907 -0.0035893019    61.562928    61.385816    61.761645    823.11288 
  485000   -204645.25    1.5782032 0.0024063904    61.440633    61.542416    61.703471    841.04606 
  490000   -204925.25    1.5765869 0.0025852598    61.464843     61.43766    61.642104    858.92176 
  495000   -204670.24     1.611288 -0.0059929434    61.570505    61.578381     61.78885    876.84051 
  500000   -204768.23     1.583371 -0.0042208617    61.618094    61.562268    61.596177    894.75617 
  505000   -204585.89    1.6071941 0.0036580366     61.46219    61.608949    61.541655     912.6461 
  510000   -204957.98    1.6050311 -0.0037016429    61.610916    61.523132    61.580427    930.65749 
  515000    -204776.5    1.6326507 0.0019772083    61.560409    61.474985     61.60615    948.53713 
  520000   -204817.45    1.6187047  0.002606778    61.563232    61.607031    61.221106    966.46807 
  525000   -204837.12    1.6037828 -0.00045635855      61.4435    61.449104    61.751274    984.37033 
  530000   -204973.67    1.6125035 0.00081869464     61.56196    61.404967    61.634035    1002.2896 
  535000   -204778.04     1.649221 0.00062089654     61.72137    61.546169    61.471084    1020.1325 
  540000   -204805.08    1.6052379 0.0004611017    61.393635    61.645505    61.547051    1038.0242 
  545000   -204802.03    1.6126836 -0.0005416202    61.504363    61.446233    61.645317    1055.8529 
  550000   -204700.12    1.5812984 -0.0014587755    61.660139    61.530941    61.501487     1073.851 
  555000   -204804.48    1.6002586 0.0013466672    61.326459    61.685778    61.549479    1091.6727 
  560000   -204761.77    1.5616095 -0.002394393    61.691501    61.385107    61.629563    1109.5739 
  565000   -204884.94    1.5694645 0.0040339539    61.492964    61.376246    61.637821    1127.4071 
  570000   -204639.11    1.6262609 -0.0039759553    61.828618    61.498071    61.592592    1145.3484 
  575000   -205025.96    1.6178965 0.0059048389    61.533854    61.324907    61.296451    1163.1996 
  580000   -204902.44    1.6286987 0.0014822634    61.421731    61.402623    61.376515    1181.1459 
  585000   -204927.45    1.5847918 -0.0034390637    61.226652    61.621977    61.692729    1199.0489 
  590000   -204786.35    1.6123491 0.0021216954    61.513404    61.214065    61.693306    1217.0359 
  595000   -205048.23    1.5980733 0.0017616825    61.221878    61.493942     61.56003    1234.9384 
  600000   -204781.65    1.5705331 -0.0018044432    61.463592    61.483524    61.729406     1252.869 
  605000   -204986.05    1.5652448 0.0019874518    61.340786     61.64414    61.436036    1270.7335 
  610000   -204848.02     1.562321   0.00406966     61.36466    61.590376    61.536398    1288.6637 
  615000   -204767.11    1.5804418 -0.0041384119    61.467753    61.815251     61.34209    1306.4988 
  620000   -204924.25    1.5861074 0.0002580824    61.572258    61.576772    61.397449    1324.3869 
  625000   -204870.32    1.6540356 -6.2721144e-05    61.706209    61.377512    61.359685    1342.2879 
  630000   -204931.87    1.5575331 -0.0059446596    61.615457    61.490139    61.410529    1360.2027 
  635000   -204937.46    1.5839802 -4.4783614e-05    61.559641    61.446836    61.378778    1378.0723 
  640000   -204752.26    1.5825843 -0.0040186744    61.669465    61.563384    61.451819    1395.9363 
  645000   -204952.92    1.5899172 -0.0019574076    61.370621     61.70361    61.357628    1413.8884 
  650000   -204945.92    1.6111507 -0.0021719855    61.341294    61.613722    61.556641    1431.7963 
  655000   -204829.57    1.5514179 -0.00045043478    61.594537    61.495654     61.32749    1449.6731 
  660000   -204876.63    1.5967038 0.00077814711    61.258247    61.839555    61.321181    1467.5118 
  665000   -204894.84     1.609957 0.00090253756     61.65272    61.293968    61.519913    1485.4157 
  670000   -204975.16     1.573486 0.0038608583    61.577142    61.429981    61.420672    1503.2946 
  675000   -204914.71    1.6155667 -0.0021145584    61.396623    61.508929    61.596801    1521.2469 
  680000   -204775.84    1.5923846 0.00062042043    61.586407    61.512736    61.450502     1539.055 
  685000   -205146.24    1.5519803 -0.00028008715    61.349855    61.647407    61.225233    1556.8834 
  690000   -204960.33    1.5971471  0.002328637    61.555018     61.50312    61.297646     1574.785 
  695000   -205111.48    1.6337922 -0.00039015219    61.262651    61.626401    61.404603    1592.7094 
  700000   -205087.22    1.5892428 -0.0027117449    61.386646    61.410335    61.549687    1610.6699 
  705000   -205072.51    1.5759581  0.003591219    61.933098    61.169647    61.116315    1628.5022 
  710000   -204917.71    1.6084439 -0.0010443124    61.500455    61.402637    61.509273     1646.412 
  715000   -204799.01     1.624798 0.0023555835    61.445278    61.472069    61.513436    1664.3226 
  720000   -204984.83      1.63436 0.0025011283    61.386011    61.457595     61.42317    1682.1814 
  725000   -205017.46    1.5855768 -0.0035543368    61.433962     61.51471    61.537236    1700.0434 
  730000    -204996.8    1.6319035 -0.00022903306    61.375832    61.508959    61.419616    1717.9493 
  735000   -204947.56    1.6377634 0.0033909853    61.314247    61.320994    61.567793    1735.7999 
  740000    -205074.3    1.5979831 0.0035352762    61.201102    61.481075    61.454242    1753.5869 
  745000   -205095.08    1.5777981 0.0029774604    61.352504     61.40483    61.467631    1771.4912 
  750000    -205036.3    1.6127721 -0.0038641062    61.386795    61.520066    61.543306    1789.4198 
  755000   -204810.01    1.5809744 0.00018582186    61.330866    61.422697    61.717895    1807.3613 
  760000   -204878.65    1.5629339 0.0014037175    61.508153    61.597893    61.490549    1825.3235 
  765000   -204741.03    1.5743602 -0.0065090387    61.438541    61.640885    61.735961    1843.2099 
  770000   -204841.84    1.6175308 -0.0021585118     61.42639     61.93307    61.504022    1861.0601 
  775000    -204828.6    1.5628695 0.00089496252    61.429871    61.451156    61.508226    1878.9415 
  780000   -204989.37    1.6400271 0.0058509648    61.427048    61.452868    61.391494    1896.8357 
  785000    -205061.9    1.6330726 -0.001322334    61.585558    61.670562    61.166529    1914.6621 
  790000   -205003.81    1.6209934 0.0052960919    61.297901    61.630577    61.492439    1932.5641 
  795000   -204890.18    1.5972538 -0.0033363186    61.677549    61.370784     61.58823    1950.4429 
  800000      -205053    1.5862047 -8.1026334e-05    61.410618    61.347473    61.573442    1968.3774 
  805000   -204992.22    1.6040556 6.1358907e-05    61.367414    61.714027    61.260246    1986.2662 
  810000   -204960.41    1.5990434 -0.0025747291    61.276262    61.705457    61.541822     2004.191 
  815000    -205047.4    1.6173336 -0.0047484248    61.417384    61.550396    61.529003    2022.0775 
  820000   -204972.41    1.5753311 -0.00028997824    61.508122    61.468253     61.43481    2039.9498 
  825000      -204981    1.6036777 0.0019419579    61.545542    61.320836    61.418426    2057.8147 
  830000   -204929.66    1.6477924 -0.00070677152    61.421223    61.443108    61.590209    2075.6623 
  835000    -204642.4    1.6037981 -0.0018497009    61.409054    61.794194     61.52777    2093.5872 
  840000   -204717.37    1.5766726 -0.0057927614    61.453022    61.616339     61.86143    2111.5403 
  845000   -204734.83    1.6222385 0.0046333003    61.348421    61.589722    61.657479    2129.3838 
  850000   -204962.27    1.5887293 0.00085728482    61.309801     61.60365    61.544898    2147.2905 
  855000   -204929.52    1.6257244 -0.0032965237    61.422339    61.485711    61.693675    2165.2033 
  860000   -205084.48    1.5900319 -0.00017913377    61.565519    61.422474    61.428427    2183.1644 
  865000   -204882.35    1.5762784 -0.0010106609    61.794316     61.40284    61.391674     2201.029 
  870000   -204898.11    1.5760535 0.00045000076    61.519159     61.65427    61.438085    2218.9301 
  875000   -204940.02    1.5956053 0.0040278184     61.45693    61.650053     61.33502    2236.8055 
  880000   -205056.87    1.5780548 -0.0031900224    61.362447    61.800097    61.352488    2254.6674 
  885000    -204847.1    1.5747151 0.00077074728    61.074052    61.641285    61.858914    2272.5116 
  890000   -204871.52    1.6090226 -0.0037088295    61.676485    61.457648    61.507388    2290.4287 
  895000   -204836.03    1.5765449 -2.8960873e-05    61.316007    61.654917    61.676017    2308.3406 
  900000   -204819.67    1.6107701 -0.0048314238    61.587608    61.138042    61.943294    2326.2446 
  905000   -204954.02    1.6226152 -0.0034199234     61.43554    61.661639    61.310784    2344.1831 
  910000   -204896.49    1.5542926 0.0019440454    61.362943    61.677242    61.392435    2362.1001 
  915000   -204897.05     1.574285 -0.0069433783    61.732131    61.159161    61.833392    2379.9006 
  920000    -204689.5    1.6030361 -0.00016057444    61.505993    61.634192    61.664246    2397.8021 
  925000   -204532.55    1.6244243 0.00011065272    61.618069    61.588752    61.739426    2415.6421 
  930000   -204509.36    1.5902204 -0.00093364229    61.267743    61.689988    61.884927    2433.6167 
  935000   -204758.03    1.5777245 0.00070235682     61.85705    61.436712    61.418284     2451.443 
  940000   -204909.97    1.5801643 0.0044411047    61.489818    61.459895    61.551021    2469.3343 
  945000   -204718.13    1.5752975 0.0014701377    61.641153    61.612683    61.263458    2487.2379 
  950000   -204838.11    1.5881109 0.00052565139    61.308623    61.588238    61.518256    2505.2165 
  955000   -204833.68    1.5811289 0.0045943463    61.448167     61.58455    61.399811    2523.1467 
  960000   -204825.34    1.5672716 -0.0071140871    61.808501     61.84565    61.378082    2541.0144 
  965000   -204986.26    1.6241601 0.0010032981    61.295795    61.709334    61.491758    2558.8313 
  970000   -204917.18    1.5769113 -0.0023899222    61.557315    61.452805    61.600377    2576.7171 
  975000    -204893.3    1.5846766 -0.0033346894    61.550828    61.453919    61.751216    2594.6557 
  980000   -204822.83    1.5655766 0.0069517319    61.361124    61.641862    61.380177    2612.5879 
  985000   -204877.61    1.5906803 -0.0022337881    61.695145    61.512123    61.341105    2630.4656 
  990000   -204934.65     1.628395 -0.0041506414    61.373815    61.794252    61.421828    2648.3498 
  995000   -204940.26    1.5726578 -0.0015631444    61.334417    61.350898    61.828978    2666.2637 
 1000000   -204907.41    1.6114937 -0.00064767503    61.403598    61.562641    61.605015    2684.1464 
 1005000   -204939.82      1.60197 -0.0055204575     61.52304    61.734932    61.428858    2702.0117 
 1010000   -204755.65    1.6035924 0.0020206696     61.58722    61.497789    61.543382    2719.8788 
 1015000   -204818.84    1.5390213 0.0079161303    61.520415     61.31332      61.5897    2737.7352 
 1020000   -204875.15     1.605924 -0.0003899532    61.634753    61.575897    61.481037    2755.5918 
 1025000   -204822.63    1.6288612 -0.002894645    61.387334     61.67914    61.577294    2773.5488 
 1030000   -204894.87    1.5805821 0.0059311547    61.463076    61.441791     61.43973    2791.4224 
 1035000   -204767.57    1.6119415 0.0010425987    61.478975    61.629173    61.601067    2809.3098 
 1040000   -204798.86    1.5743492 -0.0044091486    61.564334    61.309628    61.851362    2827.1885 
 1045000    -204769.6    1.6050319 -0.003907077    61.563898    61.557713    61.764789    2845.1567 
 1050000   -204973.29    1.5802775 0.0022538572    61.520104    61.229497    61.626202    2863.0206 
 1055000   -204832.21    1.5622351 0.00078066287    61.622871    61.562802    61.368262    2880.9341 
 1060000   -204791.61    1.6022433 -0.0058276701    61.522302    61.731276    61.604236    2898.7947 
 1065000   -204801.74    1.5992232 -0.00013985005    61.483248    61.716217    61.525633    2916.6326 
 1070000    -204814.9    1.6023245 -0.0017442676    61.299514    61.843017    61.563319    2934.5305 
 1075000    -204793.4    1.5237394 0.0018752701    61.268332    61.468671    61.847281    2952.4306 
 1080000   -204944.61    1.6027517 0.0022578556    61.530924    61.339361    61.399965    2970.3718 
 1085000   -204997.22    1.6494705 -0.0026288146    61.516121    61.426408     61.42009    2988.2956 
 1090000   -204807.69    1.6228768 0.0018146153     61.62028    61.376833    61.505132    3006.2086 
 1095000   -204855.94    1.6591631 -0.0019475018    61.660371    61.329531     61.66833    3024.0913 
 1100000    -204947.9    1.5848651 0.0014285536    61.706133    61.230109      61.5513    3041.9562 
 1105000    -204908.3     1.602192 0.0010507086    61.743378    61.429116    61.379446    3059.8491 
 1110000   -204657.71    1.6146221 0.0020231198    61.572714     61.68695    61.492965    3077.7613 
 1115000   -204921.55    1.5564986 0.0051363234    61.458267    61.331534     61.50981    3095.6639 
 1120000   -204785.24    1.6122696 -0.0070351819    61.744232    61.499286    61.752642     3113.541 
 1125000   -204874.41    1.6203774 0.0070266346     61.57669    61.438555    61.376166    3131.4297 
 1130000   -204968.05    1.5853622 0.0022267412     61.57863     61.44954    61.480525    3149.2905 
 1135000   -205014.39    1.5686376 -0.0034505754    61.449804    61.665319    61.553714    3167.1938 
 1140000   -204782.78    1.5965623 0.00078381625    61.487146    61.665906    61.526487    3185.2011 
 1145000   -204891.95    1.6090952 0.0030490062    61.337656    61.477595    61.756649       3203.1 
 1150000   -204818.53    1.6245444 -0.0037124483    61.505316    61.970181    61.520598    3221.0289 
 1155000    -204726.1    1.6292785  0.006514897    61.504459    61.278603    61.769121    3238.8574 
 1160000   -204805.88    1.6456638 -0.00049741036    61.429365    61.652535    61.649243    3256.7503 
 1165000    -204852.6    1.5790965 -0.0020014778    61.336219     61.54964    61.793364    3274.7191 
 1170000   -204952.01    1.6160773 0.0070017574     61.40207    61.457492    61.534499    3292.7081 
 1175000   -204905.14    1.6080675 0.0042952956    61.548336    61.413791    61.422947    3310.5847 
 1180000   -204867.04    1.6120071 -0.0013095335    61.396912    61.723493    61.541581    3328.4627 
 1185000   -204959.97     1.582136 -0.00066292015    61.615913    61.386239    61.584441    3346.3791 
 1190000   -205060.96    1.6115203 0.0016682308    61.431813     61.56855    61.281231    3364.1975 
 1195000   -205129.69    1.6127626 -0.0011615773    61.531529    61.326913    61.376311    3382.0621 
 1200000   -204913.85    1.6223274 -0.0079258164    61.647136    61.593633    61.500704    3399.9735 
 1205000   -205184.25    1.5310481 -0.0029123209     61.21406    61.471651    61.677762     3417.845 
 1210000   -204797.27    1.5964724 0.00029479442    61.492938    61.786747    61.418011    3435.7165 
 1215000   -204735.04    1.5886641 -0.0035568457    61.518548    61.732919    61.672908    3453.6163 
 1220000    -204875.7    1.5379331 0.0099174018    61.525338    61.444736    61.343215    3471.4638 
 1225000   -204616.16    1.6568864 -0.0039051846    61.551449    61.845716    61.558526    3489.2812 
 1230000   -204737.94    1.5418207 0.0072260476    61.583765    61.662747    61.230074    3507.1309 
 1235000   -204938.24    1.5772441 -0.0021451315    61.415003    61.456924    61.587774    3524.9616 
 1240000   -204995.29    1.6018723 -0.0057470671    61.612721    61.587806    61.429334    3542.8203 
 1245000   -205072.93    1.5718431 -0.0040643313    61.186513    61.820714    61.467935    3560.6836 
 1250000   -205003.04    1.5466918 0.0011566392    61.561212    61.628687    61.305918    3578.6035 
 1255000    -204673.8     1.602461 -0.0034476724    61.452938    61.766134    61.821165    3596.4228 
 1260000   -204693.95    1.6294465 0.00086113528    61.426984    61.787411    61.593269    3614.2966 
 1265000   -205047.01    1.6058745 -0.0017426839    61.712838    61.515258    61.271929     3632.193 
 1270000   -204876.07    1.5959566 -0.003285961    61.528361    61.613325    61.589311    3650.0535 
 1275000   -204926.46    1.5814827 0.0060416521    61.544786    61.380528    61.302367    3667.9781 
 1280000   -204847.73    1.5913472 0.0047872364    61.451751    61.403451    61.567746     3685.858 
 1285000   -204812.01    1.6029303 -0.00058315297    61.681744    61.407468    61.593018    3703.7016 
 1290000   -205130.57    1.5830142 -0.0041111442    61.508634    61.353778    61.627445    3721.5701 
 1295000      -204901    1.5930791 6.3335171e-05    61.126283    61.446934    61.862063    3739.4534 
 1300000    -205044.8    1.6051688 0.0070872164    61.480822    61.369171    61.349911    3757.4399 
 1305000   -205069.91    1.5826067 -0.0029154427    61.294293    61.497563    61.682811    3775.3504 
 1310000   -205054.92    1.6253277 -0.0030704474    61.635521    61.400486    61.314154    3793.2263 
 1315000      -205027    1.5989508 0.0046210984    61.392799    61.583925    61.289647    3811.0632 
 1320000   -205158.39    1.5628497 0.0027098512    61.654632    61.303755    61.194586    3829.0142 
 1325000   -205052.22    1.6159554 -0.0080653586    61.564766    61.358227    61.634165    3846.8567 
 1330000   -204989.69    1.5852228  0.000398019    61.322861    61.405469    61.643405    3864.7155 
 1335000   -205002.54    1.5917439 0.0012579455    61.294048    61.600513    61.560776    3882.5927 
 1340000   -205100.18    1.5325068 -0.0041778731    61.325287    61.488924     61.68867    3900.5353 
 1345000   -205135.41    1.5799266 0.0021331344    61.485003    61.456216    61.370256    3918.4305 
 1350000   -204933.52    1.5879836 0.0013763026    61.509705    61.455112    61.532399    3936.3283 
 1355000   -205068.56    1.6249532 -0.0057496771    61.486316    61.555969    61.604367    3954.1272 
 1360000    -205004.5    1.6341591 0.0050398048    61.489993    61.231152    61.461158    3971.9402 
 1365000   -205109.01    1.6191636 -0.0012054638    61.358458    61.435881    61.469639    3989.7598 
 1370000   -205099.28    1.5985035 0.0048471333    61.540248    61.144969    61.410166    4007.5552 
 1375000   -205209.85    1.5585434 0.0040141527    61.491888    61.369982    61.207291    4025.4273 
 1380000   -205232.89    1.5742717 -0.00060181061    61.365899    61.568096    61.260178    4043.3624 
 1385000   -205029.58    1.6124229 0.0033171384    61.453291    61.363036    61.484124    4061.3622 
 1390000      -204990    1.5809445 0.0039013133    61.431943    61.535862    61.365578    4079.2763 
 1395000   -204967.79    1.5816528 -0.00039912696    61.479575    61.374777    61.569845    4097.1812 
 1400000   -204897.21    1.6041986 -0.0044651542    61.658284    61.609968    61.401367    4115.0885 
 1405000   -205174.52    1.5156054 -0.00064584095    61.589034    61.290363    61.428611    4132.9434 
 1410000   -204960.87     1.591871 -0.0047125415    61.537306    61.737242    61.328851     4150.836 
 1415000   -204984.35     1.575652 -0.0020567096    61.662642    61.651431    61.272224    4168.7457 
 1420000   -205052.79    1.5685437 0.00092321826    61.565664    61.163072    61.676869    4186.5795 
 1425000   -205318.89    1.6105021 -1.998135e-06    61.382131    61.473383    61.320618    4204.4971 
 1430000   -204912.53    1.6371068 0.0050947158    61.609492    61.524421    61.342378    4222.3875 
 1435000   -205027.23    1.5944079 -0.0038671765    61.559492    61.466624    61.520476    4240.2687 
 1440000   -205149.92    1.5938749 -0.0007225049    61.409552    61.394145    61.615536    4258.2259 
 1445000   -205107.49    1.6061619 -0.00067948008    61.596499    61.418152    61.487514    4276.1933 
 1450000   -204990.25    1.5779771 0.00028226796     61.71209    61.329028    61.398759    4294.0743 
 1455000   -205149.55    1.5980945 -0.0018011262    61.411979    61.510741    61.408107    4312.0234 
 1460000    -205230.5    1.5883333 -0.0057344277    61.511007    61.172428    61.657898    4329.9132 
 1465000   -205172.16    1.5735692 -0.0056226546     61.53413    61.443256    61.445747    4347.7627 
 1470000   -205016.53    1.6309366 -0.0021458777    61.772705    61.498189    61.248777    4365.6918 
 1475000   -204925.38    1.6299953 0.0029346598    61.669909    61.453079    61.339528    4383.5348 
 1480000   -205249.23    1.5898082 -0.005588474    61.315446    61.526041    61.766721    4401.4395 
 1485000   -205078.89    1.6357557 -0.00041064687    61.736764    61.500855    61.241649    4419.3093 
 1490000   -204861.24    1.5986629 0.00095197472    61.422338    61.603135    61.546115    4437.1982 
 1495000   -204871.94    1.5921288 -0.0012527478    61.698819    61.352986    61.507335    4455.0637 
 1500000   -205047.11    1.6297712 -0.0045756748    61.646446    61.515331    61.602379    4472.9569 
 1505000   -205022.35    1.6104085 0.0057297474     61.32368    61.414313    61.570425    4490.8499 
 1510000   -204957.93    1.5976136 0.0010737739     61.54079    61.302731    61.745747    4508.7446 
 1515000   -205035.94    1.5959121 0.0030129902     61.35596    61.255504    61.794496    4526.6923 
 1520000   -204825.19    1.6280571 0.0035774033    61.596878    61.651386    61.342462    4544.6004 
 1525000   -204857.24    1.5966335 -0.005657479     61.77601     61.35033    61.713681     4562.467 
 1530000   -204782.84    1.6955204 0.00049614488    61.427741    61.446607    61.649118    4580.3996 
 1535000   -204966.83    1.6044115 -0.00098213158    61.431159    61.431676    61.763038    4598.3244 
 1540000      -204985    1.6204418  0.001482912    61.526674    61.621585    61.304988    4616.2192 
 1545000   -204876.07    1.6076264 -0.008822059    61.591688    61.501515    61.610588    4634.1852 
 1550000   -204959.76    1.5991558 -0.0036329498    61.633589    61.455016    61.503984    4652.0379 
 1555000   -205160.72    1.6250113 5.5433223e-05    61.335924    61.390769    61.611092    4669.8658 
 1560000   -205001.05    1.6156479 0.0048732148    61.304754    61.557028    61.313995    4687.6998 
 1565000   -205113.77    1.5948913 -0.0016845465    61.519553    61.399794    61.569916    4705.6672 
 1570000   -204837.95    1.6317635 -0.004352992    61.843453    61.495716    61.620665    4723.5611 
 1575000      -204738    1.6310123 -0.0029519117    61.390723     61.84856     61.69638    4741.4252 
 1580000   -204769.37    1.5947933 -0.0048696803    61.739927    61.608482    61.640929    4759.3292 
 1585000   -204777.54    1.5675072 0.0045283142    61.597223    61.630186    61.346471     4777.153 
 1590000   -204920.69    1.6075731 -0.00010904372    61.615752    61.476152    61.429965    4795.0294 
 1595000   -204855.36    1.5970943 -0.0043960425    61.617973    61.489029      61.7189    4812.9944 
 1600000   -204893.08    1.6128727 0.0029140545    61.484579     61.82424    61.289022     4830.864 
 1605000   -204901.53    1.6022638 0.00015169065    61.488438    61.668136      61.5018    4848.7585 
 1610000    -204934.4    1.5949304 -0.00022914934    61.418203    61.471806    61.779964    4866.7212 
 1615000   -204927.12    1.5786521 -0.0057139884    61.599218    61.743682    61.445472    4884.5841 
 1620000   -204706.95    1.6003333 0.0062762794    61.691629    61.384261    61.513172    4902.4094 
 1625000   -204805.45    1.6582557 0.00083486077    61.467486    61.782563     61.49368    4920.2311 
 1630000    -204752.1    1.6138053 -0.0028900516     61.48091    61.763919    61.643197    4938.0892 
 1635000   -204643.05    1.6213411 -0.0013431994    61.631005    61.602357    61.601468    4955.9363 
 1640000   -204965.25     1.587718  0.001837723    61.536141    61.446591      61.4156    4973.8108 
 1645000   -205001.02    1.6325112 0.0043317424    61.429561    61.294278     61.48332    4991.6327 
 1650000   -205101.02     1.587974 0.0015933092    61.448656    61.442911    61.404944    5009.5192 
 1655000   -204848.96    1.5972638 -0.00028522535    61.558186    61.543473    61.535348     5027.335 
 1660000   -204727.12    1.5657038 -0.0033939281    61.597162    61.770359    61.372607    5045.3033 
 1665000   -204795.32    1.5809633 -0.0035469882    61.329258    61.800733    61.658988    5063.1879 
 1670000   -204771.73    1.6297816 -0.0026760293    61.511422    61.689253    61.571327    5081.0393 
 1675000   -204924.92    1.5839526 0.0023903983    61.410423    61.660882    61.454129    5098.9438 
 1680000   -204726.38    1.5709466 -0.0023863296    61.448945    61.703753    61.738621     5116.932 
 1685000   -204889.29    1.5751825 0.0045396638     61.36034    61.593019    61.395192    5134.8075 
 1690000   -204793.43    1.5536464 0.0024946351    61.320459    61.774378    61.343916    5152.7181 
 1695000   -204631.71    1.6546701 0.00063906025    61.376292    61.674422    61.690112    5170.5079 
 1700000   -204769.18    1.6386637 0.0046192414    61.397361    61.734393    61.458328     5188.397 
 1705000   -204903.51    1.6004935 0.0016019232     61.25652     61.50406    61.708694    5206.2934 
 1710000   -204946.04    1.6087399 -0.00037852096    61.126123    61.745635    61.550227    5224.1631 
 1715000   -205098.26    1.6101403 0.00040128545    61.495056    61.583425    61.298584    5242.0029 
 1720000   -204737.14    1.5768492 0.0028591121    61.629386    61.621097    61.182007    5259.8814 
 1725000   -205026.68    1.5615619 -0.0039442607    61.413226    61.451251    61.595339    5277.7963 
 1730000   -205054.24    1.5689387 0.0013443941    61.406603    61.531106    61.155893    5295.6925 
 1735000   -205192.69    1.5870505 -0.0038157494    61.429648    61.369049    61.246007    5313.6639 
 1740000   -204939.43     1.642952 0.0013542917    61.616657    61.302922    61.298007    5331.5028 
 1745000   -204896.57    1.6466691  0.001639696    61.311695    61.493032    61.587637    5349.3435 
 1750000   -205217.16    1.6071303 -0.0012823466    61.712339    61.340559    61.203623    5367.2268 
 1755000   -205014.84    1.5764807 0.0026135236    61.450555    61.422554    61.515114    5385.1127 
 1760000   -204896.67     1.592281 0.0025212219    61.573262      61.4506    61.472962    5403.0083 
 1765000   -204731.07    1.6250273 0.0028948847    61.419602    61.613056    61.584312    5420.8941 
 1770000   -204684.67    1.5893859   0.00156888    61.342835    61.486563    61.769286    5438.7667 
 1775000   -204751.88    1.5766069 0.0061593349    61.360112    61.544522    61.415447    5456.6393 
 1780000    -205076.8    1.6142363 -0.0012932545    61.488097    61.460204    61.339301    5474.5712 
 1785000   -204833.44    1.6416191 -0.002136596    61.455301     61.60925    61.489067    5492.5431 
 1790000   -204911.65    1.5828363 -0.0031848403    61.534528    61.567926    61.588418    5510.4554 
 1795000   -204936.02     1.586227 0.0004257289    61.329142    61.477794     61.64905    5528.3834 
 1800000   -204916.97    1.5661512 -0.00046699404    61.591959    61.591667    61.345019    5546.2564 
 1805000   -204944.22    1.5523657 -0.00078245658    61.762089    61.265355     61.45339    5564.1448 
 1810000   -204995.23    1.6163014 0.0082398619    61.212351    61.526687    61.379204    5582.0407 
 1815000   -204885.91    1.6172494 -0.0032084301    61.641231    61.529827    61.474133    5599.9595 
 1820000   -204966.13    1.6324716 0.0028634222    61.639351    61.456721    61.333365    5617.8485 
 1825000   -204877.94    1.5908084 0.0025095404    61.370973    61.397497    61.611722    5635.7831 
 1830000   -204771.24    1.5858541 0.00079059439    61.638811    61.403381     61.48717    5653.7168 
 1835000    -205153.4     1.630347 0.0028768123    61.421131    61.443736    61.379639    5671.6047 
 1840000   -205151.33    1.6226253 -0.00028174823    61.464174    61.540377    61.351838    5689.4876 
 1845000   -204820.31    1.6188168 -0.0031875031    61.447598    61.524953    61.686543    5707.3728 
 1850000   -204661.09    1.6141148 -0.0011763525    61.609851    61.730705    61.458711     5725.264 
 1855000   -204753.62    1.6061402 -0.0029524196    61.909494    61.722202    61.272205    5743.1283 
 1860000   -204788.33    1.6096646 -0.00059976153    61.572921    61.607903    61.405851    5760.9447 
 1865000   -204917.78     1.627625 -0.0021445846    61.450596    61.492792    61.447464    5778.7301 
 1870000   -204758.09    1.6233538 0.0048350196    61.442393    61.402607    61.691346    5796.6269 
 1875000   -204632.29    1.6237429 0.0034427694    61.637867    61.581814    61.520418    5814.5275 
 1880000   -204637.78    1.6158962 0.0009478042    61.804116    61.588906    61.536424    5832.5375 
 1885000   -204629.71    1.5881013 -0.0014352468    61.749799    61.425053    61.708053    5850.3468 
 1890000   -204679.64    1.6006091 -0.00041689767    61.696657    61.613416     61.71318    5868.2222 
 1895000   -204838.73     1.538896 -0.004297248    61.709307    61.495059    61.615298    5886.0586 
 1900000    -204903.3    1.5705808 -0.00060474977    61.638891    61.461927    61.465853    5904.0156 
 1905000   -204737.08    1.6161026 0.00099533519    61.410903    61.587489    61.752742    5921.9151 
 1910000   -204665.45    1.6339966 -0.0044693576    61.745734    61.635061     61.58542    5939.8148 
 1915000   -204602.58    1.5529541 -0.0017400369    61.484002    61.622394    61.696091     5957.682 
 1920000   -204784.78    1.5682957 -0.00076835188      61.4611    61.612694    61.481865    5975.5392 
 1925000   -204690.17    1.6245431 -0.0026519178    61.530036    61.678802    61.621582    5993.3669 
 1930000   -204730.41    1.6156859 0.00098652098    61.577967    61.347142    61.756209     6011.192 
 1935000    -204952.7    1.6063472 -0.0035489258    61.505183    61.445076    61.659873    6029.0768 
 1940000   -204700.13    1.6316814 0.0023278499    61.547327    61.235116    61.711512    6046.9167 
 1945000   -204658.31    1.5566649 -0.0084356046    61.570148    61.750615    61.498277    6064.8692 
 1950000   -204789.48     1.566178 0.0028784338    61.721529    61.413189     61.26211    6082.7106 
 1955000    -204828.8    1.5683253 0.0038302738     61.46103    61.468189    61.461898    6100.5878 
 1960000   -204651.46    1.5768515 -0.0034584744    61.629989    61.484478    61.813421    6118.4779 
 1965000   -204537.88     1.627776 -0.0015015563    61.528784    61.617129    61.831688    6136.3008 
 1970000   -204612.65    1.6172749 -0.0028541481    61.466849     61.74659    61.938258    6154.1245 
 1975000   -204510.86    1.6157191 0.0025074824     61.66572    61.735943    61.614432    6172.0218 
 1980000   -204360.21    1.5872005 -0.0015253124    61.805945    61.610697    61.646693    6189.9292 
 1985000   -204715.76     1.645732 -0.00068705241    61.565803    61.439192    61.656865    6207.8519 
 1990000   -204559.47    1.6193824 -0.0030111377    61.778596    61.601371    61.561036    6225.7379 
 1995000   -204779.43    1.6113435 -0.0002135079    61.625642    61.499112    61.536736    6243.5393 
 2000000   -204643.14    1.5753424 -0.00037534869    61.631473    61.578757    61.566935    6261.4057 
 2005000   -204560.27    1.6144235 -0.0012616772    61.618008    61.511442     61.84159    6279.2182 
 2010000   -204712.33     1.641302  0.002224053    61.701303    61.678636     61.46787    6297.0879 
 2015000   -204503.73    1.5695088 -0.0010269881    61.574341     61.77632     61.65612    6314.9971 
 2020000   -204755.14     1.609349 0.0020541835    61.456375    61.496979      61.7391    6332.8541 
 2025000   -204969.79    1.6081496 -0.0014182913    61.336256    61.483155    61.707871    6350.6995 
 2030000   -204716.57    1.6283619 -0.00064872603    61.579182    61.597604    61.539291    6368.6861 
 2035000   -204706.82    1.6031145 0.0043675279    61.655492     61.63186     61.33469    6386.5954 
 2040000   -204714.28    1.5733732 -0.0043823378    61.695359    61.598218    61.576768    6404.5376 
 2045000   -204976.17    1.6321121 -0.00090669111    61.600082    61.507258     61.37165    6422.4454 
 2050000   -204736.95    1.5875104 -0.000819106    61.682381    61.537454    61.599698    6440.2761 
 2055000   -204698.86    1.5783065 -0.0025878931    61.731423    61.583075    61.618984    6458.1178 
 2060000   -204710.37     1.594157 0.0025433723    61.441678    61.680972    61.530445    6475.9753 
 2065000   -204667.72    1.5941642 0.00019864348    61.701443    61.592076    61.466425    6493.8512 
 2070000   -204596.38    1.5676054 0.00047420484    61.694756    61.654411    61.571966    6511.7562 
 2075000   -204823.31    1.5654739 0.0014489441    61.390047    61.713508    61.432403    6529.6057 
 2080000   -204787.35    1.5756847 0.0063722221    61.659477    61.351808    61.361902    6547.4465 
 2085000   -204864.73    1.5516566 -0.0010751411    61.663319    61.594529    61.428069    6565.2967 
 2090000   -204841.36    1.6006291 0.0032461684    61.479477    61.524961      61.3869    6583.2155 
 2095000   -204765.85    1.5665585 0.0013778841    61.468252    61.520907    61.605717    6601.0458 
 2100000   -204761.63      1.62007 -0.0011234342    61.568242    61.710048    61.492461    6619.0389 
 2105000   -204960.85    1.5527757 -0.0028366305    61.337548    61.691563    61.567015    6636.9612 
 2110000   -205091.65    1.6294781 0.0030740322    61.276368    61.485169    61.586029    6654.8458 
 2115000   -204843.98    1.6350783 0.0060159301    61.240272    61.459066    61.702497    6672.7544 
 2120000      -204923    1.6195453 0.0023262848    61.506726    61.516552     61.48747    6690.5967 
 2125000   -205041.28    1.5830614 0.0080354669    61.160164    61.352171    61.538622     6708.418 
 2130000   -204918.44    1.6303577 -0.0042809677    61.484578    61.456838    61.762515    6726.2985 
 2135000   -204995.23    1.6319527 -0.002823654    61.384414    61.320451     61.88396    6744.1971 
 2140000   -204759.19    1.5912391 0.0032861684    61.524511    61.548837    61.398709    6762.1361 
 2145000   -204925.85    1.6219054 -0.00085382917    61.905758    61.475816    61.250957    6780.0006 
 2150000   -204794.02    1.5827698 -0.0010978363     61.55529    61.584521     61.45166    6797.9145 
 2155000   -204876.11    1.5651034 -0.0035726377    61.548107    61.495468    61.530448    6815.9281 
 2160000   -204994.05    1.6143931 0.00094246771    61.487515    61.556547    61.400419    6833.8317 
 2165000   -204933.23    1.5814735 0.00099111265    61.549498    61.572867    61.325974    6851.7293 
 2170000   -204989.55    1.5940448 0.0012985936    61.370687    61.618368     61.31176    6869.7055 
 2175000   -205035.43    1.5944141 0.0040202766    61.513268    61.409411    61.400863    6887.6666 
 2180000   -205134.33    1.5917798 0.00055200446    61.417702    61.443338    61.349528    6905.6127 
 2185000    -205135.5    1.6298544 0.0018342601    61.581454    61.271543     61.36269    6923.4764 
 2190000   -205007.61    1.5964761 -0.0079853429    61.557946    61.551736    61.689152     6941.386 
 2195000   -204824.41    1.6062366 -0.0020217329    61.728705    61.503286    61.583841    6959.2317 
 2200000   -204863.26    1.5774845 -0.0043977714    61.713023     61.66572    61.336804    6977.1018 
 2205000   -204920.28    1.6551076 0.0014174406    61.630964    61.456764    61.477473    6995.0726 
 2210000   -204778.97    1.6345517 -0.0023194805    61.733685    61.474464    61.563734    7012.9725 
 2215000   -204929.81    1.6083091 -0.0024569216    61.572934    61.528772    61.480441    7030.8907 
 2220000   -204749.53     1.580819 -0.0021569912    61.461695     61.57534    61.677835    7048.7672 
 2225000   -204635.48    1.5832954 0.0024428422    61.492433    61.772986     61.46879    7066.5581 
 2230000   -204771.53    1.6142845  0.006205777    61.265936    61.455959    61.669193    7084.3558 
 2235000   -204560.15    1.6199905 -0.00036520213    61.632043    61.658555    61.655349    7102.2668 
 2240000   -204588.12    1.6030724 -0.0062457407    61.657502    61.706099    61.655484    7120.1274 
 2245000   -204601.19    1.6205452 -0.0014093826    61.714149     61.39917    61.798364    7138.0164 
 2250000   -204537.12    1.6277858 0.0051943881    61.660448    61.772332    61.400212      7155.91 
 2255000   -204582.41    1.5772199 -0.0067762187    61.953866    61.586944    61.624823    7173.7287 
 2260000   -204728.58    1.5795923 0.0047557058     61.66966    61.699477    61.360973    7191.6647 
 2265000   -204719.44    1.5999846 -0.0042970486     61.49569    61.842654    61.514225    7209.5915 
 2270000   -204920.25    1.6051291 0.00043666209    61.472204     61.80892    61.316149    7227.4399 
 2275000   -204722.74      1.58692 -0.00050222822    61.739523    61.515464    61.539887    7245.2689 
 2280000   -204935.52    1.6015715 0.0006800849    61.592636    61.491174    61.471324    7263.1271 
 2285000   -204852.35    1.6002392 -0.0003404687     61.42298    61.577575    61.722387    7281.0248 
 2290000   -204982.22    1.5985027  0.001568191    61.578265    61.325185    61.460528    7298.9502 
 2295000    -204844.3    1.5778256  0.005454696    61.467977     61.51711     61.39753    7316.9049 
 2300000   -205047.23    1.5819105 0.0041287614    61.434558    61.427999    61.253813    7334.8353 
 2305000   -204861.69    1.5783914 0.0010385841    61.179267    61.295694    61.803128    7352.6772 
 2310000   -204888.06    1.6362061 -0.0062220567    61.668122    61.458709    61.697444    7370.5734 
 2315000    -204876.2    1.5875364 -0.0033758244    61.586924    61.464152    61.515908    7388.4149 
 2320000   -204652.33    1.6025705 -0.0033804792    61.478677    61.524887    61.761273     7406.244 
 2325000   -204829.55    1.6014595 0.0064174231    61.531713    61.451049     61.31217    7424.0965 
 2330000   -204888.38    1.5795075 0.0027812522    61.381234    61.571997    61.360184    7442.0027 
 2335000   -204710.51    1.5438539 -0.00098144658    61.546997    61.644707    61.579066    7459.8284 
 2340000   -204729.57    1.5848734 0.0016058205    61.657498    61.602402    61.386363    7477.6542 
 2345000   -204710.68     1.535687 6.5590593e-05     61.80596    61.374995    61.618626    7495.5566 
 2350000   -204811.93    1.6077216 -0.0024984075    61.930007     61.47843    61.498072    7513.4887 
 2355000   -204673.97    1.5832345 0.00076866087    61.529457    61.930814    61.395306     7531.344 
 2360000    -204905.1    1.5956737 0.0035133431     61.63308    61.557871    61.375531    7549.2058 
 2365000   -204934.61    1.5796496 0.0028263313    61.534524    61.323117    61.514954    7567.0657 
 2370000   -204833.61    1.5592534 -0.0044241421    61.552532    61.638555    61.603171    7584.9492 
 2375000   -204865.13    1.6160176 0.0034848783    61.295227    61.579743    61.608323     7602.875 
 2380000   -205003.98    1.5682023 -0.00098582935    61.337813    61.441901      61.6733    7620.8832 
 2385000   -204813.19    1.5874171 -0.00069407868    61.775402    61.556389    61.332976    7638.7347 
 2390000   -204802.35    1.5789932 0.0027661059    61.628088    61.290057     61.57476     7656.664 
 2395000   -204905.93    1.5641989 -7.8829882e-07    61.489165    61.559899    61.441815    7674.5056 
 2400000   -204737.01    1.6284212 -0.0022032942    61.349656    61.599729    61.692094    7692.4161 
 2405000   -204959.21    1.5739191 0.00080481908    61.658143    61.502932    61.256924    7710.3479 
 2410000   -204799.66    1.6342886 0.0015986024    61.519258     61.50619    61.606347    7728.2888 
 2415000   -204889.23    1.5386874 0.0022291764    61.714178    61.429569    61.487921     7746.123 
 2420000   -204891.02    1.5569126 -0.0049628941    61.515731    61.414291    61.618508    7764.0212 
 2425000   -204945.59    1.5989204 0.0021850668    61.347415    61.349592    61.700064    7781.8851 
 2430000   -204994.37    1.5722396 0.0028112439    61.379928    61.485368    61.481649    7799.7297 
 2435000   -205012.07    1.5992452 -0.0016022747    61.512343    61.500711    61.606368    7817.5992 
 2440000   -204881.35    1.6095506 -0.00024646865     61.41432    61.618808     61.58935    7835.5112 
 2445000   -204760.15    1.5710624 0.0032944179    61.757843    61.596519    61.167069    7853.3572 
 2450000   -204999.56     1.590656 0.0063723078    61.137906    61.532592    61.460436    7871.2292 
 2455000   -204979.05    1.5748677 -0.0010291284    61.663643    61.458303    61.419839    7889.0711 
 2460000   -205055.81    1.6190905  0.003634181    61.395598    61.422104    61.404638    7906.9514 
 2465000   -204997.89    1.6499959 -0.00057359286    61.375886     61.59899    61.552337    7924.8309 
 2470000   -205063.84    1.5998625 8.9839814e-05    61.590731    61.479486    61.275301     7942.804 
 2475000   -205162.88    1.6045239 -0.0018945522    61.332333    61.469869    61.421057    7960.7073 
 2480000   -205170.15    1.6016106 0.0035733524    61.396431    61.618301    61.175763    7978.7037 
 2485000   -204838.75     1.596795 -0.0018975059    61.608924    61.524179    61.416418    7996.6619 
 2490000   -204733.36    1.6009759 -0.0012640636    61.479812    61.658489    61.541863    8014.5192 
 2495000   -204770.13    1.5762063 0.0022158706    61.604344    61.511771    61.375058     8032.401 
 2500000   -204649.84    1.5847608 0.0024140603    61.665685    61.556521    61.425514    8050.3295 
 2505000   -204747.83    1.5751562 0.00039813756    61.573421    61.433946    61.566897    8068.1986 
 2510000    -204873.7    1.6068279  0.003684186    61.370093    61.490131    61.492268    8086.0996 
 2515000   -205043.63     1.577248 -0.0030866252    61.522665    61.477937    61.282097    8103.9846 
 2520000   -204902.08    1.6087074 -3.9814024e-05    61.654314    61.526409    61.275952    8121.8994 
 2525000    -204976.4    1.5477388  0.001512672    61.643436    61.453893    61.385538    8139.7686 
 2530000   -204887.69    1.6175349  0.001648133    61.637816    61.507396    61.413873    8157.6478 
 2535000   -204934.36    1.5920112 0.0019205857    61.487618    61.464784    61.477233    8175.4875 
 2540000   -204961.77    1.6017943  -0.00122825     61.38173    61.529016    61.666247     8193.426 
 2545000   -204840.14    1.6043738  0.002766507    61.749044    61.352181    61.432886    8211.3313 
 2550000   -204842.46    1.5908268 -0.0015757725    61.916394    61.247755    61.543249    8229.3251 
 2555000   -204890.69    1.6214691 -0.0057554602    61.487431    61.581229    61.678162    8247.1725 
 2560000   -204902.26    1.6155284 -0.0052959193    61.380728    61.776061    61.516236    8265.0426 
 2565000   -204720.04    1.5590424 0.0096762995     61.65538    61.261081    61.376967    8282.8773 
 2570000   -204865.86    1.6493294 0.0048216262    61.618788    61.331147     61.59408    8300.8059 
 2575000   -204960.32    1.5730195 -0.0070303974     61.29279    61.457602    61.884793    8318.6427 
 2580000   -204914.32    1.6014693 -0.0010700411    61.452763    61.635588    61.513849    8336.5372 
 2585000   -205025.62    1.5838229  0.001435549     61.43612    61.327937    61.483661    8354.4447 
 2590000   -204737.11    1.6102235 -0.001219547    61.656763    61.455754    61.614272    8372.4035 
 2595000   -204809.15    1.6218603 0.0017562652    61.522463    61.279682    61.731793    8390.2861 
 2600000   -204707.64    1.6081549 -0.0010016015    61.525177    61.692739    61.542221    8408.2073 
 2605000   -204731.45    1.5857413 -0.0031982752    61.478956     61.78898    61.549315    8426.1051 
 2610000   -204912.33     1.568604 -0.0082427723    61.602016    61.593224     61.49483    8444.0643 
 2615000   -204693.84    1.6128868 0.0016179077     61.54886    61.480192    61.491153     8461.932 
 2620000   -204887.72    1.6146191 -0.00055024652    61.235322    61.828813    61.421981    8479.8283 
 2625000    -204772.1    1.5992168 -0.00041063326    61.518258    61.565911    61.629602    8497.6989 
 2630000    -204756.5    1.5731712 0.00018408689      61.5182    61.568121    61.584292    8515.6433 
 2635000   -204703.08    1.5588153 -0.0059458501    61.697996    61.656693    61.620792    8533.6247 
 2640000   -204776.19    1.6245718 -0.0033322004     61.66202    61.533084    61.499963    8551.4815 
 2645000   -204735.06    1.5899439 -0.002166527     61.69038     61.23997    61.715774    8569.4004 
 2650000   -204848.17    1.5884469 -0.010773556    61.659991    61.488072    61.758764     8587.262 
 2655000   -204761.45    1.5655053 0.0012812049      61.4587    61.554391    61.562731    8605.1297 
 2660000    -204805.2    1.5971145 -0.0037277876    61.730283    61.674906    61.320976    8622.9881 
 2665000   -204804.82    1.5744791 -0.0014721393    61.762666    61.325158    61.431653    8640.9086 
 2670000   -204822.45    1.6412167  0.007816849    61.736628    61.368523    61.217145    8658.8097 
 2675000   -204935.92    1.6115368 -0.0086907894    61.614233    61.722717    61.499886    8676.6435 
 2680000   -204952.03     1.575087 0.00065096719    61.740838    61.381629    61.339698    8694.4796 
 2685000   -205011.87    1.6340652 -0.0022859068      61.5659    61.547643    61.328511    8712.3296 
 2690000   -204885.53    1.5746984 -0.00074302825    61.531125    61.594674    61.476772    8730.1848 
 2695000   -204711.95    1.5968584 -0.0031401559    61.648278    61.530771    61.638298    8748.0844 
 2700000   -205012.48    1.5923435 0.00057019348    61.695684    61.418531    61.292487    8766.0505 
 2705000   -204902.54    1.5882695 -0.0016693816    61.470153    61.188128    61.814603    8783.9417 
 2710000   -204725.59    1.5722007 -0.0029375006    61.681949    61.549125    61.463726    8801.7978 
 2715000   -205047.73    1.6009997 0.0024053606     61.30529    61.466061    61.557647    8819.6679 
 2720000    -205066.8    1.5787796 -0.00087996415    61.376502    61.372688     61.51151    8837.5649 
 2725000   -204993.12    1.5610229 -0.00011350981    61.136288    61.659973    61.634021    8855.4321 
 2730000   -204999.82    1.5937863 -0.0024212014    61.249681    61.666647    61.578926    8873.3701 
 2735000   -205205.98    1.5754186 0.0012715172    61.394682    61.448951    61.392289    8891.2959 
 2740000   -204946.22    1.6006654 -0.0045889886    61.605713    61.369381    61.559435      8909.26 
 2745000   -204825.56    1.5966486 0.0037543615    61.372368    61.563547    61.276784    8927.1862 
 2750000   -204704.03    1.6300729 0.0068833254    61.446763    61.450564     61.51614    8945.1023 
 2755000   -204870.72    1.6243792 -0.010648853    61.420717     61.72414     61.76316    8962.9217 
 2760000   -204759.74    1.5877672 -0.0030975087    61.329722     61.63488    61.746701    8980.8084 
 2765000   -204707.78    1.6590496 -0.0044689105    61.490647    61.604251    61.667426     8998.709 
 2770000   -204713.04    1.5750474 -0.00018044374    61.434187    61.642848    61.355647    9016.5433 
 2775000   -204848.18    1.6190424 -0.0058594198    61.467262    61.638282    61.570207    9034.4102 
 2780000    -205065.7    1.5835898 -8.7530388e-05    61.553225    61.125123    61.552439     9052.379 
 2785000   -204770.76    1.6353518 -0.003204273    61.650604    61.571857     61.45241    9070.2464 
 2790000   -204768.26    1.6271431 8.6549557e-06     61.48839    61.573496    61.492092    9088.1367 
 2795000   -204905.79    1.5839617 -0.0014038963    61.457829    61.653922    61.453315    9106.0692 
 2800000   -204958.05    1.5988135 0.0043549503    61.420442    61.473043    61.365175    9123.9743 
 2805000   -204915.78    1.6225011 -0.001309785    61.481029    61.630163    61.361123    9141.8589 
 2810000   -204848.98    1.5892917 0.00034764318    61.387584    61.637449    61.471336    9159.8426 
 2815000   -204981.19    1.5681046 0.00033006241    61.387082    61.402736    61.595653    9177.7766 
 2820000   -205046.19    1.5803038 -0.0042386468    61.427209    61.389638    61.587061    9195.7667 
 2825000   -204938.91    1.6155934 0.0027018308    61.509839    61.295136    61.637851    9213.6604 
 2830000   -204782.94    1.6202218 -0.0078218698     61.64453    61.544501    61.622701    9231.5325 
 2835000   -205187.34    1.6146295 -0.0012586942    61.445724    61.271924    61.565252    9249.4666 
 2840000    -204813.9    1.6169228 0.0068547254    61.450594    61.546501    61.494184    9267.3341 
 2845000   -205006.75    1.5962656 -0.0037170725    61.525282    61.412382    61.532416    9285.3201 
 2850000   -204925.62    1.5584095 0.0025376785    61.507325    61.580578     61.44923    9303.2856 
 2855000   -205028.93    1.5842144 0.00045056326    61.525439    61.375333    61.544235     9321.174 
 2860000   -205309.88    1.5825915 -0.0024754847    61.334506    61.371613    61.461444    9339.1241 
 2865000   -205103.66     1.581618 0.0029540672    61.390109     61.28093    61.522417    9357.0428 
 2870000   -204928.67    1.6362422 0.0037553271    61.381324    61.442818    61.532494    9374.9881 
 2875000    -204984.3    1.5864641 0.0027565151    61.370244    61.506114    61.389171    9392.8935 
 2880000   -205033.52    1.6320581 0.00028959716    61.469265    61.532207    61.341512    9410.8897 
 2885000   -205007.84    1.5917198 0.00098364025    61.385815    61.363754    61.583238    9428.7892 
 2890000   -205091.18    1.6108547 -0.0024804301    61.436602    61.339498    61.595216    9446.7167 
 2895000   -205015.58    1.5833447 0.00041600732    61.314846    61.451238     61.72192    9464.6377 
 2900000   -204933.25    1.5715959 -0.0012110287    61.505578    61.677272    61.449172     9482.473 
 2905000   -205116.87    1.5992843 -0.0039776136    61.664722    61.346597    61.477764    9500.4088 
 2910000   -205279.47    1.5511926  0.003485399    61.283845    61.421749    61.360625    9518.2831 
 2915000   -205196.15    1.5993637 -0.0020737648    61.293264    61.398494    61.619824    9536.1627 
 2920000   -205122.11    1.5986023 -0.0016068329    61.514715    61.317507    61.484303    9554.0169 
 2925000    -205077.6    1.5724246 -0.00094025754    61.670961    61.301555    61.432278    9571.9309 
 2930000   -204967.88     1.588249 -0.0060447498    61.475114    61.685739    61.686715    9589.7952 
 2935000   -204978.84    1.6275309  0.010461729    61.098826     61.77506    61.352804     9607.673 
 2940000   -204861.47    1.6038403 0.00094904674    61.626524    61.574193    61.387486    9625.5814 
 2945000   -204752.68    1.6320287 0.0016754179    61.456663    61.472839    61.643815    9643.4887 
 2950000   -204941.71    1.5681667 -0.0046677018    61.474861    61.505138    61.727851    9661.4028 
 2955000   -204855.29    1.5602989 0.0063748563    61.252479    61.656584    61.433266    9679.3151 
 2960000   -204945.45    1.6023208 -0.0057155913    61.340059     61.70891    61.714487    9697.2405 
 2965000   -204774.66    1.5741923 -0.0056264426    61.712697    61.430728    61.530971    9715.0776 
 2970000   -205025.33    1.5909933  0.003842825    61.389384    61.442777    61.503261    9732.9255 
 2975000   -205062.38    1.5545648 -0.00080746533    61.377308    61.399093    61.570569    9750.7646 
 2980000   -205034.01    1.6120708 -0.0055468482    61.606586    61.584118    61.361467    9768.6432 
 2985000   -205020.63    1.6038307 -0.0033467621     61.46654    61.551183    61.624461    9786.5306 
 2990000   -205065.39    1.5658646 -0.0025224422    61.354292    61.552728    61.517559    9804.4847 
 2995000   -205058.91     1.664615 0.0011135704     61.47506    61.401344    61.474685    9822.4116 
 3000000      -205003    1.6201158 -0.000286239    61.531859    61.661792    61.336811    9840.2654 
 3005000    -204857.6    1.5890043 -0.0060432642    61.581467    61.647546     61.46324    9858.1371 
 3010000   -205036.47    1.5950414 -0.0027842618    61.373721    61.454556    61.553003    9876.0618 
 3015000   -204921.04     1.598283 3.0588149e-05    61.508912    61.465325    61.474724    9893.9278 
 3020000   -204959.98    1.6070029 -1.5751478e-05    61.614247    61.442186    61.320386    9911.8783 
 3025000   -205028.26     1.586446 0.0035591373    61.471608    61.346671    61.419684    9929.7794 
 3030000   -204996.06    1.6298756 0.0018152015    61.475791    61.364199    61.520398    9947.7159 
 3035000   -204965.89    1.6067963 -0.0044353921    61.598812    61.511594    61.598568    9965.6842 
 3040000   -204968.72    1.5849838 -0.00034263987    61.450301    61.645775    61.531165    9983.5847 
 3045000    -204953.9    1.6163881  0.001642789    61.456119    61.437921     61.55501    10001.438 
 3050000    -204805.1     1.618971 -0.0064527717     61.59871    61.691901    61.581462    10019.282 
 3055000   -204829.88    1.6069671 -0.0046527384    61.652937    61.481751     61.75408    10037.225 
 3060000   -204901.31    1.6285678 0.0018644663     61.31354    61.696806    61.566657    10055.167 
 3065000    -205004.4    1.5756053 -0.00019455454    61.541391    61.422394    61.535878    10073.021 
 3070000   -204871.89     1.567764 0.0025905149    61.662441    61.348199    61.570886    10090.902 
 3075000   -204983.65    1.5971574 -0.00037746545    61.297933    61.623765    61.561642    10108.771 
 3080000   -205118.47    1.5909835 -3.4399693e-05     61.46855     61.46837    61.362643    10126.709 
 3085000   -204913.55    1.5918706 0.0029299716    61.669678    61.485773    61.193063    10144.616 
 3090000   -205299.19    1.6157289 0.0018386299    61.517246    61.255901    61.414957    10162.472 
 3095000   -205002.88    1.6172103 0.0032921908    61.294942    61.550942    61.448025    10180.347 
 3100000   -205053.79    1.5873583 0.0043335874     61.50793    61.487583    61.181027    10198.246 
 3105000    -205007.6    1.5931396 0.0046180781    61.217103    61.462017    61.550863    10216.153 
 3110000   -204988.82    1.5957462 -0.0014529679    61.327571    61.632279    61.529227     10234.08 
 3115000   -205026.36    1.5599727 -0.0047026409    61.523616    61.477203    61.655996    10252.039 
 3120000   -204963.32    1.5755354 0.0016848271    61.417491    61.395749    61.501372    10270.016 
 3125000   -204834.25    1.5865789 -0.0079220787    61.618851    61.364636    61.673814    10287.937 
 3130000   -205006.28    1.5963373 0.0033789564    61.571651    61.562699    61.199076    10305.893 
 3135000   -204984.01    1.6079093 -0.00064574633    61.266996    61.738576    61.358747    10323.816 
 3140000   -204929.32    1.6193321 0.00058297895    61.423301    61.486227    61.485082    10341.786 
 3145000   -204877.31    1.6766351 0.00045836114    61.521901    61.509863    61.554554    10359.646 
 3150000   -204876.24    1.5832912 0.0050645934    61.461509    61.476688    61.394561    10377.534 
 3155000   -204849.94    1.5905636 -0.00084936341    61.370802    61.588994    61.680876     10395.43 
 3160000   -205011.88    1.5796173 -0.003856739    61.321125    61.641456    61.603911    10413.286 
 3165000   -205099.07    1.6069312 0.00070808214    61.605964    61.599032     61.10294    10431.203 
 3170000   -204894.26    1.6138961 0.00041057776     61.47593    61.620913    61.381226    10449.099 
 3175000   -205102.83    1.6369321 0.0042653017     61.61404    61.187476    61.433124    10467.049 
 3180000      -205086    1.5781025 0.00012656957    61.372168    61.237876    61.692572    10485.033 
 3185000   -205000.69    1.5957984 -0.0011387525    61.677546    61.330486    61.477374    10502.927 
 3190000   -204945.07    1.6218327 -0.0020506238     61.60637    61.427267    61.473413    10520.861 
 3195000   -205040.99    1.6124339 0.0047861697    61.293829     61.21536    61.529182     10538.77 
 3200000   -205077.41     1.600956 0.0014596293    61.321831    61.602378    61.289341    10556.693 
 3205000   -205174.99    1.5713877 0.0014800481    61.480533    61.513197    61.326747    10574.614 
 3210000   -205047.37    1.6320968 -0.0095515278    61.632013     61.70497     61.45571    10592.523 
 3215000   -205151.17    1.6338192 0.0020811904    61.301732    61.565579    61.456437    10610.427 
 3220000   -204992.71    1.5913162 -0.0068620128    61.887689    61.446301    61.385845    10628.302 
 3225000      -204827    1.6195164 0.0036033177     61.40644    61.562829    61.520907     10646.18 
 3230000   -205049.85    1.6307975 -0.0052463285     61.42487     61.76919    61.513473    10664.108 
 3235000   -204934.99    1.5825478 -0.003123815    61.536078    61.402436    61.590084    10682.051 
 3240000   -204970.65    1.5897619 -0.0019491379    61.543626    61.381148    61.568783    10699.978 
 3245000   -204971.62      1.58567 -0.0010374083    61.420513    61.408892     61.68571    10717.822 
 3250000   -205012.57     1.628359 -0.0020817641     61.55525    61.360386    61.543677    10735.761 
 3255000   -205081.11    1.5950549 0.0024718156    61.264456    61.484733    61.623813    10753.647 
 3260000    -204898.7    1.5922361 -0.0024298241    61.603426    61.519673    61.589969    10771.514 
 3265000   -204955.33    1.5734019 0.0089353942    61.400427    61.523515    61.459238    10789.382 
 3270000   -204774.93    1.5963863 0.0027034542    61.737974    61.650197     61.23717    10807.313 
 3275000   -204786.54    1.5799353 -0.0025746087    61.640337    61.580009    61.392833    10825.201 
 3280000    -204785.9    1.5724294 -0.00098565735    61.362971    61.571743     61.55071    10843.161 
 3285000   -204810.21    1.6028424 -0.0013806866    61.386182    61.407293    61.748956    10861.112 
 3290000   -204848.54    1.5839136 0.0039407108    61.706764    61.322541     61.35483    10879.084 
 3295000   -204847.57    1.6037095 -0.0040424116    61.556595    61.648843    61.513823    10896.959 
 3300000   -204907.08    1.6303115 0.0022349494     61.26553    61.632338    61.620181     10914.91 
 3305000   -204856.99    1.5624226 -0.0066854922    61.433486    61.672544    61.765163    10932.803 
 3310000   -204902.08    1.6408723 0.0065815901    61.574643    61.176083    61.514504    10950.697 
 3315000   -204998.53    1.5588311 -0.0009019692    61.677004    61.331951    61.387033      10968.6 
 3320000   -204883.59    1.6101895 -0.0019083066    61.588231    61.374353    61.677802    10986.607 
 3325000   -204834.69    1.5791741 -0.0062498658    61.694006    61.472172    61.667558    11004.503 
 3330000   -204782.07     1.602371 0.0010766858    61.675947    61.459723    61.476719    11022.493 
 3335000   -205005.21    1.5795459 0.00022590243     61.32765    61.615222    61.617175    11040.459 
 3340000   -204772.64    1.5760313 0.0033031597      61.3333    61.636002    61.652753    11058.357 
 3345000   -204783.09    1.6196218 5.7292164e-05    61.529601     61.56631    61.696179    11076.243 
 3350000   -204818.43    1.5644337 -0.0018925464    61.597386    61.551926    61.574303    11094.138 
 3355000   -205045.82    1.6055267 0.0050881322    61.558401    61.453458    61.451505    11112.044 
 3360000   -204973.52    1.5925514 -0.0008959084    61.502998    61.244932    61.727637    11129.993 
 3365000    -205026.7    1.5545508 6.2392502e-05    61.619257    61.326575    61.364297    11147.907 
 3370000   -205013.55    1.6037735 -0.00032957961    61.540881    61.386493     61.52633    11165.874 
 3375000   -204907.61    1.5332262 -0.011093921    61.308439    61.691911     61.88146     11183.78 
 3380000   -204988.53    1.5714076 -0.00047113996    61.415798    61.418017    61.562567    11201.729 
 3385000   -204799.75    1.5900093 0.0030550259    61.479155    61.537989    61.233183    11219.607 
 3390000   -204772.17    1.6050119 0.0024442708    61.523684    61.622702     61.31643    11237.531 
 3395000   -205122.97    1.5444481 2.168251e-05    61.448295    61.365514    61.418064    11255.455 
 3400000   -205047.19     1.553838 0.0013930701     61.47466    61.332609    61.566322    11273.375 
 3405000   -204558.71     1.555275 -0.0062335438    61.644227    61.709497    61.560618    11291.301 
 3410000   -204796.12    1.5845286 0.0058085337    61.509255    61.647921    61.258186    11309.305 
 3415000   -204597.43    1.5981076 0.0047780452    61.183379    61.531367    62.023262     11327.23 
 3420000   -204855.85     1.632967 -0.011936047    61.771475    61.278353     61.88393    11345.131 
 3425000   -204880.33    1.6319546 0.00088824105    61.642587    61.615907    61.262745    11363.007 
 3430000   -204803.51    1.6178613 -0.0030207731    61.519042    61.502772    61.659865    11380.933 
 3435000   -204983.88    1.5799592 -0.004671265    61.702913    61.438739    61.367038    11398.837 
 3440000      -204960    1.5627514 0.00022734743    61.698828    61.509778    61.254204    11416.779 
 3445000   -204952.63    1.5878269 -0.0029986449    61.566668     61.51963    61.549871     11434.75 
 3450000   -204923.84    1.5851436 0.0048683426     61.49091    61.475365    61.475979    11452.756 
 3455000    -205035.5    1.6022442 -0.0055919664    61.538394    61.691069    61.460909    11470.578 
 3460000   -204822.94    1.5949631 -0.0011205853    61.394359    61.796719    61.534526    11488.449 
 3465000   -204856.57    1.6108558 -0.0020290739     61.50946    61.682957    61.583569    11506.261 
 3470000   -204897.06    1.5607232 0.0014820795    61.571519    61.331583     61.45924    11524.213 
 3475000   -204674.44    1.5706185 0.0013263698     61.44167    61.613406    61.579608    11542.152 
 3480000   -204910.66    1.6347857 -0.0036029379    61.394337    61.659342    61.626844    11560.148 
 3485000   -205005.78    1.5856822 -0.0067285914    61.573969    61.475701    61.693796    11578.086 
 3490000   -205057.18    1.5966588 0.0054826646    61.517053    61.493561      61.2799    11596.017 
 3495000   -204977.66    1.5980042 0.00073370271    61.631419    61.627643     61.26067    11613.878 
 3500000   -205204.48    1.6155142 0.0016001227     61.25481    61.345043    61.540248    11631.798 
 3505000   -205084.41    1.6079176 -0.0023909489    61.243946    61.618962    61.549287    11649.751 
 3510000   -205082.95    1.5971113 0.0047209784    61.327278    61.475753    61.422517    11667.719 
 3515000   -204925.64    1.6422091 0.0024090768    61.461174    61.361717    61.559762     11685.66 
 3520000   -205132.14    1.6430898 5.2406486e-05    61.491952    61.609388    61.207639    11703.619 
 3525000   -205114.92    1.5888218 -0.0047850799    61.542797    61.700318    61.300712    11721.479 
 3530000   -205386.07    1.6229903 0.0062907336    61.196482    61.238364    61.449038    11739.362 
 3535000   -205176.64    1.5971225 0.0032846067    61.106564    61.575991    61.327603    11757.273 
 3540000   -205195.58    1.6125322 0.0055947418    61.450986    61.201799    61.389715    11775.141 
 3545000   -205060.41    1.5705992 -0.0002228906    61.332326    61.463765    61.621245    11792.985 
 3550000   -205067.22    1.5907532 -0.0017721121    61.393904    61.545641    61.602514     11810.92 
 3555000   -205098.48    1.6061238 -0.0031464341    61.543606    61.439548    61.506624    11828.806 
 3560000   -205022.11     1.624398 0.0058287467    61.341089    61.514647    61.307847    11846.735 
 3565000   -204966.26    1.5459579 -0.002289721     61.33966    61.548983    61.537199    11864.638 
 3570000   -204873.92    1.5620967 0.0052143177    61.464054    61.465279    61.353564    11882.495 
 3575000   -204908.85    1.6118431 -0.0030144348    61.647873     61.48304    61.356666    11900.382 
 3580000    -204856.8    1.5810584  0.004123263    61.413011    61.519703     61.34608    11918.341 
 3585000   -204911.73    1.6237236 -0.0025207964    61.439418    61.566006    61.495671    11936.232 
 3590000   -205208.12    1.5734748 0.0011748693    61.758437    61.222495    61.174555     11954.15 
 3595000   -204948.67    1.5879484 -0.00086914977    61.411839    61.617884    61.373092     11971.98 
 3600000   -204992.92    1.5979348 0.0041628257    61.542294    61.276867    61.376085    11989.899 
 3605000   -204864.99    1.5983281 -0.004302251    61.501365    61.561463    61.612453    12007.832 
 3610000   -204920.49    1.6136932 0.0061749388    61.284209    61.521148     61.42691    12025.753 
 3615000    -204899.8    1.6099856 0.0027650465    61.213708    61.685302    61.560374    12043.629 
 3620000   -204952.88    1.6062424 -0.0005865037    61.500719    61.529192    61.487149    12061.568 
 3625000   -205007.92    1.6100984 0.0022932717    61.232219    61.530248    61.586161    12079.465 
 3630000   -204782.76    1.5691319 -0.0078878685    61.313504    61.785535     61.71505    12097.398 
 3635000   -204699.34     1.593132 0.00064516351    61.614933    61.504186    61.520159    12115.279 
 3640000   -204857.51    1.6040453 -0.0027638573    61.190428    61.642949     61.70866    12133.227 
 3645000    -204646.2    1.5597618 -0.0044716081    61.636742     61.44919    61.690869    12151.095 
 3650000   -204597.82    1.5826391 0.00079764961    61.556054     61.80582    61.491514    12168.971 
 3655000   -204666.75    1.5833283 -0.0027057818    61.693357    61.707322    61.427367    12186.809 
 3660000    -204746.4    1.5288993 0.0011558106    61.595251    61.477642    61.505362    12204.726 
 3665000   -204740.71    1.5955643 0.0043478433    61.769706    61.350619     61.41575      12222.6 
 3670000   -204763.66    1.5782297 0.00018959785    61.383263    61.618368    61.688511    12240.548 
 3675000   -204786.98    1.5828851 0.00064133256    61.565414    61.548801    61.472295    12258.509 
 3680000   -204551.67    1.6005895 0.0028423389    61.688003    61.532072    61.494877     12276.52 
 3685000    -204614.1    1.6717643 -0.0052840043    61.603513    61.749553    61.646505     12294.43 
 3690000   -204608.69    1.5727808 0.0051559399    61.688177    61.449389    61.476736     12312.35 
 3695000   -204736.96    1.6151749 -0.0025949419    61.665886    61.469317    61.659557    12330.265 
 3700000   -205111.06    1.6110724 0.0012287235    61.579304    61.292015    61.496649    12348.235 
 3705000   -204777.63    1.5899169 0.0037251276    61.279488    61.780847    61.401324    12366.084 
 3710000   -204958.06    1.5904595 0.0032085769    61.222234    61.453799    61.613404    12383.938 
 3715000   -204949.43    1.6074492 -0.0044700809    61.143799    61.838013    61.665122    12401.787 
 3720000    -204840.2    1.5904426 -0.0024051494    61.405968    61.679219    61.521921    12419.625 
 3725000   -205010.26     1.620279 -4.0694576e-05    61.459673    61.510362    61.495185    12437.509 
 3730000   -204841.61    1.6187829 0.0046364744    61.461386    61.490226     61.43778     12455.41 
 3735000   -204931.63    1.6208638 -0.00039488193    61.300066    61.639579    61.531708    12473.371 
 3740000   -205036.96    1.5685361 0.00047930889    61.293697    61.562085    61.414475    12491.325 
 3745000   -204864.92    1.6000252 -0.0055548203     61.57316     61.53836    61.498797    12509.188 
 3750000   -204977.74    1.6141295 -0.0020415376    61.652511    61.457939    61.448631    12527.075 
 3755000   -204922.99    1.5626213 0.0033132641    61.320394    61.494532    61.715568    12544.964 
 3760000      -204778    1.5968311 0.0032577871    61.558648    61.682767    61.453817    12562.901 
 3765000   -204852.53     1.599962 -0.0018434205    61.475325    61.632471    61.664672    12580.801 
 3770000   -204844.73    1.6074717 0.0027909448    61.507586    61.651029    61.416098    12598.773 
 3775000   -204547.74    1.5817648 -0.0012862847    61.804583    61.465761    61.559512     12616.73 
 3780000   -204937.74    1.6084036 0.0019966255    61.569001    61.384156    61.605036    12634.673 
 3785000   -204965.15    1.6041259 -0.0017444081    61.358185    61.864214    61.346021    12652.624 
 3790000   -204906.69    1.6011005 0.0035674096    61.535255    61.374093    61.569323    12670.535 
 3795000   -204741.51    1.5705735 -0.00032585962    61.580852    61.478643    61.663792    12688.423 
 3800000   -204962.12    1.6040885 -0.0049497603    61.715857    61.357334    61.661628    12706.401 
 3805000   -205040.48    1.5799709 -0.0057325682    61.666538     61.46426    61.525944    12724.312 
 3810000   -205020.95     1.622137  0.003983224    61.525523    61.367538    61.466282    12742.193 
 3815000   -205098.33     1.654493 -0.00024737367    61.536298    61.224671    61.645988    12760.118 
 3820000   -205250.03    1.6398159 0.0054234747    61.319048    61.656175    61.177428    12778.058 
 3825000   -205051.19    1.5521331 0.00035481343    61.303446    61.432868    61.620194    12795.951 
 3830000   -205141.57    1.5952513  0.002285139    61.442569    61.529513    61.279852    12813.847 
 3835000   -205011.06    1.5856291 0.0015672154    61.456681     61.42068    61.489358     12831.78 
 3840000   -205032.71    1.6101439 -0.001385189    61.393603    61.406997    61.554614    12849.672 
 3845000   -204907.71    1.6013053 0.0016601445     61.34974    61.710634    61.368291    12867.573 
 3850000   -205000.76    1.5727024 -0.0016093203    61.399592    61.446917    61.548745    12885.494 
 3855000   -204979.96    1.5840888 0.0036125609    61.384875    61.247785    61.622919    12903.379 
 3860000   -204955.75    1.5654957 -0.00097058109    61.286671    61.488589    61.648356     12921.21 
 3865000   -205077.41    1.6352846 -0.0014984212    61.519252    61.403793    61.463866    12939.119 
 3870000   -205076.25    1.5863655 -0.00022834478    61.598579    61.478124    61.420995    12957.007 
 3875000   -205002.42    1.5801522 0.0035294069    61.244699    61.552511     61.57904    12974.892 
 3880000   -204918.56    1.6142343 -0.0010545454    61.302541    61.560965    61.690435    12992.855 
 3885000   -204773.08    1.5839811 -0.0007315085    61.335199    61.625019    61.691412    13010.656 
 3890000   -204837.76    1.6383906 0.0028552708    61.540034    61.558443    61.443361    13028.545 
 3895000   -205070.05    1.6010894  -0.00168478    61.511036    61.580148    61.468127     13046.45 
 3900000   -205022.37    1.6088423 -4.0067556e-05    61.538573    61.429794    61.419237    13064.377 
 3905000   -204851.33    1.6020504 0.0014754768    61.330513    61.523672    61.493498    13082.382 
 3910000   -204901.44    1.5931854 -0.0076645515    61.615666    61.599831    61.486668    13100.291 
 3915000   -205082.13    1.5911051 0.0052583947    61.184228    61.399715    61.490027    13118.133 
 3920000   -205025.52    1.6210226 0.0070713732    61.411146    61.553357    61.324953    13136.056 
 3925000   -204916.14    1.6195547 0.0034871863    61.655739    61.422344    61.465996    13153.832 
 3930000   -204618.65    1.5841589 -0.0013904546    61.491889     61.66475    61.701975    13171.746 
 3935000   -204708.25    1.6250178 0.0025754719    61.372016    61.654674     61.61275    13189.587 
 3940000   -204608.16    1.6008937 -0.0018025574     61.67246    61.673854    61.428872    13207.462 
 3945000    -204685.1    1.6093462 -0.0062061421    61.815918    61.512105    61.495563    13225.334 
 3950000   -204694.49    1.5801987 0.0020799251    61.510753    61.471775    61.696347    13243.144 
 3955000   -204725.29    1.5819598 -0.0032578345    61.494554    61.666772    61.672469     13261.04 
 3960000   -204798.16    1.5915601 -0.00076023852    61.539405    61.654869    61.518574     13278.96 
 3965000   -204703.87    1.5708225 -0.0012942647    61.481813    61.540512    61.784321    13296.848 
 3970000   -204553.33    1.6545048  0.001979815    61.411982    61.696892     61.72999    13314.684 
 3975000   -204779.89    1.5180161 -0.0019669924    61.286648    61.754211    61.704984    13332.546 
 3980000   -204995.26    1.5941199 0.0025110822    61.565907    61.384736    61.289907    13350.433 
 3985000   -204802.16    1.5648573 -0.0055131204    61.874495     61.49108    61.385811    13368.286 
 3990000   -204804.25    1.6443918 0.0025853548    61.501877    61.487537    61.454659    13386.172 
 3995000   -204724.01    1.5976056 0.0077205675    61.396436    61.570542    61.515455    13404.049 
 4000000   -205077.19    1.6415982 0.0005048157    61.466126    61.441845    61.421125    13421.987 
 4005000   -204810.78    1.6243145 -0.0013227117    61.478156    61.498436    61.764087    13439.904 
 4010000   -204884.64    1.5979661  0.006234941    61.503038    61.342435    61.430156    13457.778 
 4015000   -204848.27    1.6339085 0.0015218572    61.589849    61.584945    61.564956    13475.672 
 4020000   -204871.55    1.5902524 -0.0077025904    61.704876    61.404544    61.721949    13493.613 
 4025000    -204893.5    1.6101372 -0.0048306018    61.527493    61.479833    61.665065    13511.509 
 4030000   -204883.63    1.5508351 -0.0034259491    61.661763    61.586218     61.44959    13529.397 
 4035000   -204657.29    1.5488611 -0.001518828    61.444081    61.773314     61.44337    13547.317 
 4040000   -204801.59    1.6242714 0.0013599506    61.534305    61.420392    61.513734    13565.238 
 4045000   -204972.53    1.6148111 -8.7402458e-05     61.29478    61.545969    61.393992    13583.106 
 4050000   -204768.69    1.5841008 -0.0019047808    61.446092      61.3889     61.81799    13601.029 
 4055000   -204867.66    1.5990298 0.0023457808    61.532716    61.528995    61.317739    13618.863 
 4060000   -204778.88    1.5774162 -0.0033886549    61.551997    61.543643    61.585475    13636.803 
 4065000   -205041.24    1.5972898 -0.0019681863    61.440631    61.424668    61.663627    13654.705 
 4070000   -205061.72    1.6120068 -0.0029360625    61.615282    61.416648    61.388771    13672.642 
 4075000   -205063.52    1.5475788 0.0016569957    61.260578    61.489164    61.443944    13690.502 
 4080000   -204985.92    1.6081758  0.003656555    61.541536    61.534216    61.337246    13708.466 
 4085000   -204966.43    1.5913378 0.0005167808    61.526162    61.718134    61.273779    13726.334 
 4090000   -204807.52    1.6063481 0.00019384961    61.315091    61.789443    61.490588    13744.183 
 4095000   -204809.07      1.58603 -0.0048096355    61.584123    61.688407    61.403491     13762.04 
 4100000   -205071.59    1.6230216 0.0057761723    61.400855    61.510675    61.247634    13779.996 
 4105000   -204898.52    1.6395129 -0.0052322322    61.410975    61.855481    61.573225    13797.875 
 4110000   -204898.59    1.5897406 0.0013628925    61.514628    61.678599    61.331478    13815.729 
 4115000   -204727.51    1.6237597 -0.0029317375    61.737801    61.450824    61.496942    13833.512 
 4120000    -204748.4     1.644968 0.0039476189    61.626248    61.382059    61.517926    13851.448 
 4125000   -205078.65    1.5971165 -0.00026129241    61.197913    61.488882    61.694218    13869.297 
 4130000   -204835.83    1.5745451 0.0019454838    61.497508    61.483211    61.416131    13887.141 
 4135000   -204898.36    1.6002136 0.0020838964    61.554903    61.481152    61.545546    13905.012 
 4140000   -204666.84    1.5716208 -0.00067014446    61.537444    61.710792    61.578823    13922.882 
 4145000   -204694.65    1.6399352  0.003472239    61.501554    61.575084    61.628228    13940.762 
 4150000   -204709.28    1.5818799 -0.0061320972    61.707143    61.676302    61.645418    13958.617 
 4155000   -204840.37    1.5842205 0.0028444535    61.682026    61.111122    61.675558    13976.429 
 4160000   -204901.85    1.5822302 0.0026974416    61.583746    61.366931    61.594015    13994.292 
 4165000   -204820.17     1.586627 0.0016937574    61.372052    61.681098    61.603225    14012.232 
 4170000   -204716.87     1.573056 -0.0065956809    61.809536    61.830992     61.50703    14030.143 
 4175000   -204710.33    1.5610936 -0.0025381962    61.804543    61.608738    61.538789    14047.965 
 4180000    -204856.9    1.6186201 0.0061998233    61.591318    61.382917    61.481333    14065.885 
 4185000   -204772.43    1.5863268 -0.0020299404    61.511505    61.521315    61.737535    14083.791 
 4190000   -204836.26     1.575871 -0.0027507193    61.436192    61.544328    61.838487      14101.7 
 4195000   -204905.29     1.577264 0.0012765858    61.391599    61.718912    61.470766    14119.597 
 4200000   -204876.88    1.5533637 -0.0007621869    61.478646    61.764246    61.216662    14137.489 
 4205000    -204841.5    1.5800724 0.0015968057    61.506895    61.553213    61.494457    14155.366 
 4210000   -204818.72    1.5897126 -0.0016598226    61.452491    61.729481    61.495373    14173.363 
 4215000   -204702.96    1.6145228 -0.0050284134    61.398428    61.780832    61.738245    14191.244 
 4220000   -204953.07    1.5765534 0.0015317656     61.35702    61.458232    61.578674    14209.268 
 4225000   -204771.82    1.6231257 -0.0011881291    61.587078    61.479455    61.671741    14227.192 
 4230000   -204661.76    1.5753717 -0.0010983903    61.527541    61.562476    61.651666    14245.107 
 4235000   -204837.83    1.6129808 -0.00041685717    61.552075    61.561164    61.459447    14263.076 
 4240000   -204818.36    1.5627271 0.00056300274    61.529482    61.471568    61.595773    14280.998 
 4245000   -205101.57    1.6277191 -0.0030369547    61.481535    61.454756    61.466992    14298.975 
 4250000   -205072.02    1.6111153 0.0050114729    61.366695    61.607604     61.31671    14316.876 
 4255000   -204725.51    1.6093289 -0.0090492769    61.739998    61.802974    61.447833     14334.71 
 4260000    -204754.6     1.643853 0.0008058144    61.435298    61.746776    61.590589    14352.608 
 4265000   -204967.19    1.5990779  0.003147932    61.517656     61.48111    61.479608    14370.472 
 4270000   -204944.98    1.5844272 -0.0032005927     61.58632    61.578383    61.577356    14388.315 
 4275000   -204947.57    1.6000823 0.0013947403    61.335236    61.541312     61.59193    14406.213 
 4280000   -204912.56    1.6017196 -0.0023982884    61.435412    61.904644     61.26685     14424.13 
 4285000   -205009.44    1.6192722 0.0010112047    61.361817    61.606195    61.425011    14441.985 
 4290000   -204764.04    1.6270422 -0.0051365214    61.435255    61.706506    61.689107     14459.87 
 4295000    -204608.3    1.5872332 0.00074452281    61.483563    61.636484    61.629629    14477.792 
 4300000   -204813.78    1.5760863 0.0052198078    61.609117    61.487886    61.402453    14495.616 
 4305000   -204866.36    1.5521344 -0.0038571623    61.513272    61.774207    61.453088    14513.539 
 4310000   -204770.11    1.5922286 0.0018673705    61.528596     61.55574    61.557652    14531.454 
 4315000   -204773.08    1.6710391 -0.0025488676    61.780313    61.334031     61.59698    14549.389 
 4320000   -204716.93     1.606335 8.1106928e-05    61.572496    61.461833    61.665108    14567.278 
 4325000    -204723.6    1.5995688 0.0031736817    61.511903    61.577105    61.531233    14585.222 
 4330000   -204653.49      1.58455 -0.0010044906    61.492035    61.711746    61.553322    14603.219 
 4335000   -204968.99    1.5634836  0.002490472    61.637245    61.479363    61.361198     14621.03 
 4340000   -204715.24    1.6134051 -5.0273063e-05    61.224744    61.790843    61.530963    14638.959 
 4345000   -204847.65    1.5647671 -0.0037038057    61.606062    61.495114    61.538549    14656.796 
 4350000   -204839.93    1.5761922 0.0056101991    61.493631     61.52902    61.473715    14674.743 
 4355000    -204916.3    1.5799392 -0.0010076781    61.626825    61.476537    61.531342    14692.673 
 4360000   -204925.39     1.603097 -0.00020121775    61.444613    61.789274    61.345274      14710.6 
 4365000   -204894.09     1.607383 -0.0015525987    61.533153    61.585034    61.525277    14728.477 
 4370000   -204793.74    1.5824333 -0.0014635234    61.500007    61.600428    61.569346    14746.382 
 4375000    -204898.6    1.5925419 0.00017453663    61.300316    61.636788    61.543156    14764.273 
 4380000   -205062.21    1.5866731 -0.0037649026    61.428837    61.656569    61.504954    14782.181 
 4385000   -204917.81    1.5807263 0.0010752687    61.188623    61.597276    61.589245    14800.068 
 4390000   -204956.15    1.6303158 -0.0017611393    61.660431    61.464577    61.572457    14817.984 
 4395000   -205056.01    1.6197703 -0.00089077956    61.504053    61.582574    61.378224    14835.942 
 4400000   -204953.75    1.5821921 0.0047307778    61.677103    61.410899    61.316507    14853.818 
 4405000   -204876.81    1.6260807 -0.0013571708    61.436977    61.728256    61.305544    14871.726 
 4410000   -204663.16    1.5554861 0.0018797304    61.642029    61.519255    61.425366    14889.702 
 4415000   -205018.99    1.6431918 -0.0017577916    61.643172    61.331001    61.396935    14907.637 
 4420000    -205194.7     1.590201 -0.00019390431    61.269395    61.591544    61.318746    14925.633 
 4425000   -204982.21    1.5960477 0.0040834255    61.517612    61.210644    61.581823    14943.571 
 4430000   -205078.11    1.6213755 0.0032264524    61.457097    61.291772     61.61371     14961.47 
 4435000   -204929.97    1.6220384 0.0061129216    61.578482    61.303726    61.400987    14979.304 
 4440000   -204901.03    1.6109424 -0.0035717381    61.453225    61.618322    61.485683    14997.211 
 4445000   -204901.47    1.6014386 0.0027398712    61.607343    61.393347    61.496029    15015.039 
 4450000   -204777.31    1.5973224 -0.0057931546    61.557229    61.718811    61.577411    15032.944 
 4455000   -204862.02    1.5703807 -0.0017345777    61.595792    61.495011    61.675387    15050.798 
 4460000   -204861.16    1.5928937 -0.0017990321     61.39546    61.658957    61.541512    15068.776 
 4465000   -204855.94    1.5931285 -0.0004053702    61.623382    61.230175    61.787948    15086.688 
 4470000   -204975.54    1.5657082 -0.00040029289    61.451419     61.34869    61.554218    15104.538 
 4475000   -205050.63    1.6021767 -0.0028548351     61.24689    61.498303    61.585744    15122.487 
 4480000   -205033.25    1.6013197 -0.0012071231    61.311986    61.548956    61.551413    15140.386 
 4485000   -205088.24     1.635255 0.0031935919    61.444757    61.356656    61.424148    15158.284 
 4490000   -205217.94    1.5757592 -0.0079627861    61.233887    61.623952    61.598109    15176.193 
 4495000   -205251.11    1.6541228 0.0024268309    61.416263    61.295241    61.322812    15194.088 
 4500000   -205154.21    1.5961052 0.00061875123    61.200053    61.524077    61.551177    15211.934 
 4505000   -205023.53     1.605258 -0.0019307443    61.802418    61.397677    61.431356    15229.822 
 4510000   -204843.17    1.6214283 -0.0037493181    61.424218     61.54828    61.652959    15247.772 
 4515000   -204892.08    1.6367288 -0.0018915459     61.43861    61.583543     61.40926    15265.709 
 4520000   -204926.05    1.5994982 -0.0079641361    61.380171    61.568756    61.705519     15283.67 
 4525000   -205056.23    1.6345387 -0.0027017328    61.421772    61.752244    61.414487    15301.578 
 4530000   -205030.05    1.6125037 -0.00042741981    61.420545    61.403575    61.611649     15319.56 
 4535000   -204864.45    1.5905661 -8.0912205e-05    61.608434    61.345813    61.593511    15337.474 
 4540000   -204840.26    1.5690755  0.002697075    61.270173     61.41464    61.711714    15355.398 
 4545000   -204886.03    1.5835833 -0.0014118097    61.400903    61.660699    61.675923      15373.3 
 4550000   -204888.23    1.6119024 0.0048686212    61.393083    61.595563    61.397516    15391.196 
 4555000   -205062.09    1.6104186  0.001377414    61.403657    61.475602    61.453148    15409.107 
 4560000   -205037.34    1.6200481 0.0053439689    61.460567    61.438382    61.402801    15427.106 
 4565000   -205017.25    1.6144045 -0.0072751393    61.572341    61.784933    61.432336    15445.024 
 4570000   -205076.48    1.5900907 -0.0041427589    61.512233    61.381972    61.565613    15462.942 
 4575000   -205105.01    1.5774882 0.0015086593    61.265294    61.213451    61.627975    15480.804 
 4580000   -205000.63    1.5623084 -0.0037316368    61.752038    61.516416    61.230253    15498.703 
 4585000   -204952.62    1.6042192 0.0013131774    61.360586    61.607232    61.634275    15516.627 
 4590000   -204975.83     1.673061 1.1127278e-06    61.422836     61.69329    61.546137    15534.577 
 4595000   -205045.64    1.6590595 0.00053262828    61.468527    61.539925    61.383328     15552.39 
 4600000   -204784.72    1.5868392 -0.0027554157    61.710325    61.546949    61.540722    15570.277 
 4605000   -204709.38    1.5485508 -0.0035918705    61.617262    61.790255    61.373751    15588.182 
 4610000    -205000.3    1.6109276 0.0029232073    61.439211    61.310402    61.521735    15606.135 
 4615000   -204975.83     1.610076 -4.0599707e-05    61.496399    61.537685    61.500612    15623.992 
 4620000   -205091.57    1.6296678 -0.0020150319    61.443793    61.385991    61.569918     15641.94 
 4625000   -204878.16    1.6176264 0.0018472811    61.337942    61.445565    61.665346    15659.789 
 4630000   -204982.82    1.5624942 0.0061437292    61.556294    61.458503    61.314169    15677.765 
 4635000   -204807.41    1.5979821 -0.0088798353    61.745086    61.560446     61.47343    15695.616 
 4640000   -204913.08    1.6143759 0.0041873431    61.352882    61.633112    61.463202    15713.588 
 4645000   -204791.18    1.6220915 -0.0045285982    61.383777    61.617644     61.82285    15731.464 
 4650000   -204910.02     1.573657 0.0020506831    61.516948    61.569386    61.331739    15749.353 
 4655000   -204772.32    1.5875548 -0.0053605013    61.361649    61.838079    61.490484    15767.244 
 4660000   -204821.95    1.6088949 -0.0030357635    61.550129    61.490121    61.600239    15785.144 
 4665000   -204931.71    1.6045068 -0.0034033227    61.695686    61.652514    61.311999    15803.133 
 4670000   -205020.89    1.5921539 0.0050003289    61.404721    61.432824    61.356816    15821.037 
 4675000   -205226.08     1.620978 0.0038240099    61.479969    61.370593    61.310517    15838.894 
 4680000   -205084.98    1.5883653 -0.0082229553    61.639651    61.436537    61.622735      15856.8 
 4685000   -204910.88    1.6284882 0.00069503261    61.564877    61.447949    61.486178    15874.772 
 4690000   -205024.25    1.6389956 -0.00088391705     61.52812    61.531289    61.299046    15892.711 
 4695000   -204894.92    1.6238769 -0.0015562746    61.602598    61.462345    61.481516    15910.641 
 4700000   -205067.03    1.5312112 -0.0083560533    61.628062    61.687155    61.377243    15928.571 
 4705000   -204897.57    1.6443889 0.0029083298    61.366742    61.487585    61.479855    15946.487 
 4710000   -204841.95    1.6064566 0.0047563535    61.503749    61.476625    61.490709    15964.406 
 4715000   -204858.93    1.6366335 -0.0020651967    61.410563    61.598575    61.710407    15982.284 
 4720000   -204924.04    1.5926797 0.0066573617    61.345042    61.553364    61.259505    16000.185 
 4725000   -205105.79    1.5665441 -0.0055652677    61.474133    61.456603    61.628351    16018.121 
 4730000   -204930.81    1.6190648 0.00097284399    61.492473    61.451077    61.691609    16036.056 
 4735000    -204820.9    1.5882557 0.0057350742    61.286307    61.667309    61.661768    16053.893 
 4740000   -205002.47     1.570606 -0.0067785288    61.767143    61.589528    61.629853    16071.795 
 4745000   -204934.36    1.5930163 0.0044047665    61.427492    61.536458     61.41483    16089.653 
 4750000   -204814.23    1.6272306 -0.0030508361    61.682736    61.492442     61.56745    16107.571 
 4755000   -205088.47    1.6162809 0.0020666715    61.535274    61.479982    61.297059    16125.465 
 4760000   -205109.94    1.5622206 0.0046871137    61.479344    61.130673    61.421623    16143.484 
 4765000   -205059.81    1.6209737 0.0029142938    61.439219    61.354225     61.37454    16161.385 
 4770000   -204910.19     1.625219 -0.00076515802    61.561477    61.676001    61.279481    16179.386 
 4775000   -204831.47    1.5512481 -0.0048153489    61.409723    61.623211    61.743104    16197.292 
 4780000   -204791.69    1.6021111 0.0011128944    61.425391    61.636659    61.576169    16215.243 
 4785000   -205084.12     1.586992 0.0071553797     61.23844    61.624699    61.403511    16233.077 
 4790000   -205053.82    1.5790585 0.0021984076    61.307632    61.734695    61.313413    16250.999 
 4795000   -205117.41    1.6158507 0.0035675296     61.41139    61.506149    61.279277    16268.892 
 4800000   -205002.88    1.6093385 -0.00055208297    61.529015    61.659046    61.264561     16286.78 
 4805000    -205164.7    1.5577571 -0.0064060596    61.370487    61.575856    61.475214    16304.737 
 4810000   -204936.68    1.6109097 -0.0041424516    61.415791    61.587202    61.606463    16322.689 
 4815000   -205157.94    1.5690691 0.0040659027    61.661655    61.320125    61.183513    16340.644 
 4820000   -204929.74    1.5761703  0.002603711    61.332304    61.574853    61.497788    16358.604 
 4825000   -204961.61    1.6042844 -0.0043196373    61.244407    61.531485    61.819026    16376.558 
 4830000   -205074.37    1.5880009 0.0038882691    61.352181    61.582499    61.309112    16394.477 
 4835000   -204940.89    1.5950358 -0.0048122179    61.391033    61.556313    61.688001     16412.37 
 4840000   -205050.16    1.5926438 -0.00065658263    61.359433    61.557878    61.533887    16430.409 
 4845000   -204934.25    1.5585752 -0.00072167905    61.598699    61.482382    61.348171     16448.43 
 4850000   -205037.38    1.6087906 -0.00097985652    61.412431    61.606347    61.399642     16466.36 
 4855000   -205228.31    1.5623723 -0.004776219    61.653919    61.330806     61.39636    16484.215 
 4860000   -204930.77     1.625659 0.0029937206    61.510231    61.276736    61.621487    16502.151 
 4865000   -205081.67      1.53053 -0.0028437946    61.470654    61.647896    61.354817    16520.084 
 4870000   -205130.09    1.5830983 -0.0038389245    61.439778    61.522497    61.493027     16537.99 
 4875000    -205268.1    1.6103201 0.0014772123    61.576214    61.103586    61.399925     16555.92 
 4880000   -205341.64      1.60686 -0.0069144274     61.46725    61.464963    61.611462    16573.806 
 4885000   -205122.35    1.6305695 0.0069238461     61.48337     61.16056    61.380107    16591.589 
 4890000   -205117.95    1.6769643 0.0018849586    61.394923    61.544897    61.411702     16609.66 
 4895000   -205169.96    1.6073102 0.0058004945    61.269643    61.429862    61.327944    16627.529 
 4900000   -205080.13    1.5975125 0.00036992821    61.045259    61.534152     61.75733    16645.422 
 4905000    -204955.9    1.5854012 0.0041283389    61.412264    61.226661     61.68125    16663.328 
 4910000   -205078.46    1.6423329 -0.0052258288    61.444552    61.775617    61.397483    16681.265 
 4915000   -205025.77    1.6234725  0.006626993    61.175715    61.487558    61.514115     16699.15 
 4920000   -204877.31    1.6070451 0.0029383871    61.330045    61.517348    61.619711    16717.017 
 4925000   -204931.38    1.5929595 4.3517065e-05    61.410889    61.782252    61.372559    16734.891 
 4930000   -205010.57    1.5580262 0.0017103373    61.479174    61.485408    61.491383    16752.888 
 4935000   -204979.93    1.6113789 0.0079409999    61.548416    61.427651    61.317572     16770.72 
 4940000   -204988.88    1.5900097 -0.0042567137    61.662269    61.532165    61.437837    16788.611 
 4945000   -204982.38    1.5991576 -0.0013133709    61.515616     61.46716    61.551228    16806.494 
 4950000    -204920.5    1.6365476 0.0010393782    61.598121    61.438757    61.415143    16824.409 
 4955000   -204920.35    1.6090824 -0.0029259175    61.589245    61.371861    61.674528    16842.266 
 4960000   -205032.41    1.5996838 -0.0027614082    61.469941    61.529519    61.493113    16860.177 
 4965000    -205048.9    1.6432453 0.0025076311    61.282581    61.277987    61.826236    16878.109 
 4970000   -205007.62    1.5791451 -0.0024211539    61.467341    61.487551    61.529703    16895.997 
 4975000   -205013.84    1.5926057 0.0037749569    61.431333    61.432178    61.487006     16913.97 
 4980000   -205197.61    1.5669358 -8.817414e-05    61.414427    61.315542    61.547439    16931.941 
 4985000   -205063.64    1.5956278 0.0046781951    61.355561    61.474019    61.410898    16949.871 
 4990000   -205059.26    1.6070608 -0.0076075204    61.559569    61.446628     61.65266    16967.854 
 4995000   -204894.95     1.610453  0.011360075     61.36539    61.196623    61.554694    16985.698 
 5000000   -205094.83    1.6070695 4.3734679e-05    61.724026    61.217395    61.384541    17003.615 
 5005000   -204833.24    1.5833294 -0.0021959831    61.587728    61.613855    61.446505    17021.488 
 5010000   -205053.28     1.605744 0.0012925902    61.411798    61.608331    61.454618    17039.462 
 5015000   -204883.91    1.6042305 -8.4830047e-05    61.577459    61.559231    61.426904    17057.332 
 5020000   -204909.36     1.606802 -0.00081420339    61.625996    61.488902    61.590104    17075.195 
 5025000   -204956.46    1.6285902 0.0024047959    61.464273    61.531013    61.584292    17093.076 
 5030000    -204805.5    1.6336964 -0.0042430658    61.557032    61.706915    61.580885    17110.937 
 5035000    -205037.9    1.6198525 0.0044487286    61.449274    61.453559     61.33956     17128.81 
 5040000   -205113.85    1.5767859 -0.00070790565    61.357897    61.788965    61.289942    17146.743 
 5045000   -205019.44    1.5950868 -0.00029816547    61.674741    61.602562    61.288571    17164.617 
 5050000   -204907.97    1.6384785 -0.0021137483    61.462579    61.588834    61.573615    17182.543 
 5055000   -205084.77    1.6027693 0.0043872302    61.315176    61.323139    61.562112    17200.415 
 5060000   -205155.08    1.5982905 0.00035881148     61.36111    61.470249    61.475834    17218.344 
 5065000   -204980.83    1.6272666 -0.0009125744    61.657222    61.370682    61.441772    17236.266 
 5070000   -205002.34    1.5747242 -0.0047892833     61.67084     61.46411     61.33984     17254.22 
 5075000   -205229.29    1.5744412 -0.0045019192    61.474686    61.589957    61.276346     17272.09 
 5080000   -205157.38    1.5619371  0.004414247    61.449049    61.488401    61.297982     17290.01 
 5085000   -204693.13    1.5796362 0.0037872698    61.839622    61.327136    61.300099    17307.938 
 5090000   -204738.27    1.5674644 -0.0030549654    61.717525    61.607268    61.348159    17325.926 
 5095000   -204992.69    1.5523883 0.00027330169    61.486595    61.572029     61.47807    17343.789 
 5100000   -204987.69    1.5847491 0.0061463552    61.367578     61.35277    61.543688    17361.724 
 5105000   -205017.79    1.6110437 0.0020474991    61.563495    61.279812    61.417413    17379.702 
 5110000   -205228.58    1.6134433 0.0028155016    61.430092    61.392548    61.283955     17397.59 
 5115000   -205042.24    1.5836428 -0.0034536918    61.616136     61.30946    61.476963     17415.52 
 5120000   -205222.14    1.5885398 -0.0053768654    61.396114    61.610423    61.270246    17433.505 
 5125000   -204903.77    1.5821562 -0.00066228379     61.45889    61.563266    61.486313     17451.53 
 5130000   -205034.65    1.5677243 -0.0039751328    61.464798    61.569291    61.566155     17469.46 
 5135000   -205052.77    1.5879031 -0.0049341733    61.460721    61.685775    61.441864     17487.27 
 5140000   -205044.66    1.6102348 -0.0010704466    61.434021    61.728294    61.279426     17505.17 
 5145000    -204913.7    1.6022072 -0.00069897545    61.538802    61.578197    61.427435    17523.108 
 5150000   -204972.82    1.5917479 0.0017726188    61.525685    61.461693    61.347855     17541.06 
 5155000    -205084.4    1.5995944 0.0056348958    61.286661    61.370584    61.436049    17558.893 
 5160000   -204914.63    1.6084669 -0.0020760576    61.368613    61.481394    61.704842    17576.827 
 5165000   -205019.27    1.6266663 -0.00026705401    61.417165    61.386118    61.541548    17594.839 
 5170000   -204916.32    1.5924791  -0.00193121     61.37813    61.480144     61.48466    17612.775 
 5175000   -204946.14    1.6408232 -0.0020040288    61.686169    61.510324    61.311614    17630.638 
 5180000   -204843.62    1.6257068 0.0015895576    61.398334    61.626381    61.530601     17648.56 
 5185000   -204935.54    1.6194828 -0.00078522632    61.451838    61.541772    61.449938    17666.508 
 5190000   -204945.41    1.5838458 0.0052470189    61.450441    61.353892     61.51151    17684.482 
 5195000   -204993.84    1.6121927 -0.0014058506     61.57206    61.415432    61.653421    17702.404 
 5200000   -205055.12    1.6038071 -0.0011278345    61.677349    61.429688    61.379035    17720.315 
 5205000   -204846.45    1.5455498 0.00074216359    61.691448    61.508107    61.556684    17738.193 
 5210000   -204897.28    1.6068583 -0.0024776781    61.676996    61.575317    61.486167    17756.082 
 5215000   -204847.17    1.5783374 -0.0057131258    61.698545    61.411576    61.754819    17773.914 
 5220000   -204983.44    1.6051089 -0.00062787868    61.490159    61.327858    61.536788    17791.799 
 5225000   -205139.39    1.6148912  0.004853029     61.36358    61.390079    61.303704    17809.719 
 5230000   -205035.53    1.5800019 0.0010549865    61.572309     61.39514    61.515334    17827.629 
 5235000    -205088.7    1.6308008 0.0038864221    61.428543    61.438347    61.337318    17845.504 
 5240000   -204993.31    1.5671397 -0.0015224398    61.350535    61.719725    61.478247    17863.377 
 5245000      -205067    1.6118068 0.0024387988    61.422352    61.419524    61.511925    17881.257 
 5250000   -204937.12    1.5855132 -0.0055112364    61.608715      61.2909    61.594245    17899.201 
Loop time of 17899.2 on 8 procs for 5000000 steps with 2304 atoms

Performance: 24135.151 tau/day, 279.342 timesteps/s
91.5% CPU use with 8 MPI tasks x 1 OpenMP threads

MPI task timing breakdown:
Section |  min time  |  avg time  |  max time  |%varavg| %total
---------------------------------------------------------------
Pair    | 8021.4     | 8171.7     | 8330.5     | 115.8 | 45.65
Bond    | 0.32685    | 0.42656    | 0.54451    |  10.4 |  0.00
Kspace  | 4177.6     | 4186.4     | 4194.8     |   8.5 | 23.39
Neigh   | 569.88     | 570.47     | 571.44     |   2.0 |  3.19
Comm    | 450.47     | 455.89     | 461        |  16.4 |  2.55
Output  | 10.856     | 11.556     | 16.454     |  54.5 |  0.06
Modify  | 3738.3     | 4213.8     | 4513.1     | 428.1 | 23.54
Other   |            | 289        |            |       |  1.61

Nlocal:        288.000 ave         296 max         281 min
Histogram: 1 2 0 0 1 1 0 2 0 1
Nghost:        7214.00 ave        7228 max        7198 min
Histogram: 1 0 0 1 3 0 0 2 0 1
Neighs:         0.00000 ave           0 max           0 min
Histogram: 8 0 0 0 0 0 0 0 0 0
FullNghs:      308100.0 ave      317154 max      300024 min
Histogram: 1 2 0 0 0 2 1 1 0 1

Total # of neighbors = 2464802
Ave neighs/atom = 1069.7925
Ave special neighs/atom = 0.0000000
Neighbor list builds = 72630
Dangerous builds = 0

    timestep 0.0005
    variable fbig equal $b*-80
    variable fbig equal .1*-80
    variable fsmall equal $b*10
    variable fsmall equal .1*10
    unfix zeromom
    fix field1 big addforce v_fbig 0 0
    fix field2 small addforce v_fsmall 0 0
    run 30000000
PPPM initialization ...
  using 12-bit tables for long-range coulomb (src/kspace.cpp:340)
  G vector (1/distance) = 0.11907353
  grid = 30 30 30
  stencil order = 5
  estimated absolute RMS force accuracy = 0.00049604677
  estimated relative force accuracy = 0.00049604677
  using double precision KISS FFT
  3d grid and FFT values/proc = 8000 3600
  generated 0 of 1 mixed pair_coeff terms from geometric mixing rule
Per MPI rank memory allocation (min/avg/max) = 11.01 | 11.04 | 11.05 Mbytes
Step PotEng Temp c_press Lx Ly Lz CPU 
 5250000   -204937.11    1.5855132 -0.0055111088    61.608715      61.2909    61.594245            0 
 5255000   -205065.38    1.5489596 0.0057225444    61.240755    61.447138    61.497265    17.494063 
 5260000    -204848.7    1.5538785 -0.0060200456    61.554719    61.656623    61.584628    34.981982 
 5265000   -204725.98    1.6214583 -0.00010012257    61.759154    61.244488    61.799264    52.442804 
 5270000   -204652.96    1.5807942 0.0043008148    61.581163    61.589254    61.578361    69.896261 
 5275000    -204524.7    1.6278389 0.0023350862    61.522147    61.429105    61.919834    87.309242 
 5280000   -204610.88    1.6084541 0.0013700747    61.778699    61.773322    61.412329    104.77901 
 5285000   -204454.14    1.6235312 -0.00070661938    61.925994    61.836899    61.408745    122.25719 
 5290000    -204375.2    1.5889415 -0.0027985674    61.839746    61.724832    61.648992    139.72234 
 5295000   -204218.43    1.6365889 0.0032437836    61.834704    61.821191    61.527037    157.21931 
 5300000   -204065.27     1.606234 -0.0022064405    62.087583    61.810414    61.527174    174.72129 
 5305000   -204142.54    1.6014367 -0.0062600307    62.009314    61.687504     61.76964    192.17409 
 5310000   -204310.46    1.6108538 2.3797369e-05    61.692088    61.856305    61.566069    209.69511 
 5315000   -204177.83    1.6014426 0.00083930091    61.781891    61.813774    61.557196    227.18362 
 5320000   -204186.17    1.5716213 -0.0030545615    61.958801    61.826733    61.601193    244.64477 
 5325000   -204180.02    1.6252919 -0.00076620028    62.063756    61.941032    61.287553    262.07659 
 5330000   -204051.45    1.5687712 -0.0020107845    61.766324    62.006194    61.635358     279.5259 
 5335000   -203927.04    1.5682174 -0.002594963    61.831294    61.839675    61.760794    296.97231 
 5340000   -203917.41    1.5967255 -0.00033641157    61.958847    61.812655    61.860979    314.47657 
 5345000   -203822.19    1.6490702 0.0038063805    61.922225    61.772936    61.818672    331.90275 
 5350000   -203929.42    1.6039631 -0.00015084345    62.045388    62.016676     61.62352    349.39144 
 5355000   -203805.64    1.5824992 -0.0048563655    62.100113    61.829468    61.899552    366.82865 
 5360000   -203786.88    1.5478811 -0.0044650616     62.26623     61.64908    61.950936    384.30092 
 5365000   -203643.77    1.6488008 -0.002981869    62.408921    61.724783    61.833326    401.74043 
 5370000   -203665.32    1.5995171 -0.0073652258    62.045288    61.915788    62.188587    419.18421 
 5375000   -203484.81    1.5853219 0.0017796235    62.167368    61.777279    62.144365    436.56825 
 5380000   -203514.77    1.5663184  0.003800347    62.069668    61.753112    62.057326    454.06638 
 5385000   -203483.66    1.6175244 -0.0024932916    62.035141    62.054864    62.216287    471.49213 
 5390000   -203667.07    1.6005423 -0.00082721105    62.268328    61.903905    61.920361    488.93946 
 5395000   -203700.94    1.6145128 0.0010984223    61.859876    61.910992    62.205175    506.41083 
 5400000   -203475.78    1.6184543 -0.0011724711     62.15701    62.221934    62.041756     523.8392 
 5405000   -203379.32     1.616271 -0.00079664397    62.106668    62.413034    62.131912    541.24394 
 5410000   -203271.23    1.5927215 0.0040924355    62.386139    62.164594    61.920194    558.67397 
 5415000   -203117.02    1.6186367   0.00743005    62.326193    62.417678    61.785262    576.09289 
 5420000    -203084.4    1.5765414 -0.0028117366    62.541259    62.421307    62.031886    593.52037 
 5425000   -202808.33     1.607307 -0.0046175004    62.304601    62.661685    62.550279    610.85883 
 5430000   -202803.05    1.5962934 -0.0004047162     62.45934    62.561877    62.590167    628.24756 
 5435000   -202633.39    1.6178151 0.0020899049     62.91724    62.604862    62.152583     645.6448 
 5440000   -202539.12    1.6226869 0.00099762391    63.060519    62.675523    62.164298    663.04032 
 5445000   -202762.55    1.6030588 -0.0012615518    62.839551    62.728438    62.272804     680.3951 
 5450000    -202683.7    1.5765042 -0.0014392766    63.005552    62.617045     62.30386    697.74743 
 5455000   -202618.16    1.6140988 0.0054070268    62.832738    62.530393    62.562282     715.1032 
 5460000    -202297.3    1.6414003 0.0047669172    63.236493    62.701904     62.46297    732.43146 
 5465000   -202257.72    1.6118373 0.0044183803    63.563693    62.502619    62.567561    749.73333 
 5470000   -202272.73    1.6250097 -0.0018109125    63.362923    62.729811    62.689835    767.02991 
 5475000   -202055.06    1.6213053 -0.0014074491    63.309666      62.8476    62.906938    784.31327 
 5480000   -202015.61    1.6025012 0.0006216898    63.532356    62.501818    63.089024    801.67007 
 5485000   -201924.66    1.5952393 0.00067176065    63.603984    62.898014    62.952318    818.93657 
 5490000   -201762.85    1.5599093 -0.00053449061    63.610302    63.049632    62.896471     836.1943 
 5495000   -201843.73    1.6050034 -0.0020772344    63.582583    62.689047    63.195553    853.45639 
 5500000   -201717.83    1.5330259 -0.00027775528    63.528605     63.03311    63.055958    870.72828 
 5505000   -201684.75    1.6110113 -0.00029326554    63.822798    62.879201      62.9077    887.97494 
 5510000   -201804.12    1.6203398 0.00026978563    63.971214    62.881733    62.867462    905.26878 
 5515000   -201808.92    1.5946081 -0.0016224043    63.821172    63.173332    62.908564    922.50276 
 5520000   -201556.63     1.579631 -0.0010293837    63.944719    62.953739    63.225046    939.77675 
 5525000   -201697.98    1.6407335 0.0017844294     63.93186    63.075058    63.254786    957.00207 
 5530000   -201598.94    1.6165507 0.0041069354    64.302338     63.02422    63.491825    974.22614 
 5535000   -201476.42    1.5792158 0.00098158737     64.24635    63.245118    63.605335    991.44914 
 5540000   -201406.55    1.5960538 -0.0025334641    64.228395    63.487049    63.712108    1008.6922 
 5545000   -201461.52    1.6067995 0.0023673058    63.921707    63.458053    63.648925    1025.9318 
 5550000   -201480.56    1.5747761 0.0057218239     64.09668    63.368946    63.430758    1043.1405 
 5555000   -201277.68    1.5904734 0.00023285327    64.589102    63.509906    63.450874    1060.3281 
 5560000   -201167.32    1.5434214 0.0050437766    64.510908    63.225812    63.700192    1077.5166 
 5565000   -201305.73    1.6121204 0.0019277783    64.221076    63.850385    63.588763    1094.7214 
 5570000   -201416.78    1.6129513 0.0022889775    64.293441    63.496939    63.669458     1111.917 
 5575000   -201337.14    1.6160667 0.00013450225    64.395045    63.873625    63.547918    1129.1015 
 5580000   -201185.42    1.5929021 -0.0024031776    64.684309    63.996767    63.622791    1146.3251 
 5585000   -201051.58    1.5689711 0.00084191977     64.32015    64.241022    63.522687    1163.5175 
 5590000   -200875.59    1.5594308 -0.0019069793    64.729265    64.171187    63.569554    1180.6753 
 5595000   -201003.12    1.5825182 -0.0061956527    64.597837    64.145147    64.001385    1197.8198 
 5600000   -200993.64    1.6026214 -0.0051733971    64.666985    64.020845    63.972587    1214.9503 
 5605000   -200993.19    1.5697811 -0.0054898139    65.072497     64.07937     63.89188    1232.0587 
 5610000   -201027.18    1.6128612 0.0039190003    64.745838    64.135797    63.677156    1249.2482 
 5615000   -201092.78    1.6564638 0.0006890834    64.569012    64.212878    64.002313    1266.3456 
 5620000   -200984.54    1.6157188 -0.00052499745     64.62865    64.463315    63.899241    1283.4904 
 5625000   -200929.78    1.5926645 -0.0016554283    64.791814    64.358277    64.047235    1300.6939 
 5630000   -200902.58    1.5655607 -0.004463638    65.075724    64.229211    64.225111     1317.865 
 5635000   -200998.29    1.6663177 -0.0034598869    65.141709    64.348833    63.920048    1335.0104 
 5640000   -200954.37    1.6196681 0.0017054282    64.799617    64.169971    64.173378    1352.0885 
 5645000   -200785.12    1.6027458 0.00012156495    64.629233    64.454132    64.235587    1369.1966 
 5650000   -200849.73    1.5876608 -0.0028326084    64.821262    64.431563     64.02289    1386.3185 
 5655000   -200885.34    1.6424913 -0.0034748857    65.010367    64.467357    64.030074    1403.4453 
 5660000   -200868.48    1.6347335 -0.0049532115    65.113345    64.428237    64.254953    1420.5543 
 5665000   -200817.83    1.5930891 -0.0011924282    65.033813    64.224787    64.480727    1437.6606 
 5670000   -201006.02    1.6009594 0.0026452659    64.944567    64.218637     64.41334    1454.8276 
 5675000   -200950.63    1.5828025 0.00080034713    64.858082    64.558689    64.448848    1471.9984 
 5680000   -201019.42     1.625706 0.0035641215     65.35591    64.177665    64.280397    1489.0937 
 5685000      -201060     1.589478 0.00012348639    64.920408    64.505772     64.29923    1506.2051 
 5690000   -200882.27    1.6231657 0.00031200271    65.286008    64.615072    64.181916    1523.3433 
 5695000   -200798.34    1.5932521 0.0049542337    65.496683    64.044692    64.199118    1540.4181 
 5700000   -200892.47    1.5322732 -4.9172414e-05    65.099681    64.394394    64.365792    1557.5603 
 5705000   -200923.95    1.6313642 0.00059538861     65.42775    64.375182    64.194352    1574.7077 
 5710000   -200809.75     1.568648 0.0019647145     65.24138    64.328542    64.474368    1591.8087 
 5715000   -200820.92    1.5818475 -0.0029011136    65.440959    64.609477    64.250635     1608.922 
 5720000   -200848.12    1.6190819 0.0020727335    65.268126    64.406308    64.494981    1626.0604 
 5725000   -201035.11    1.6440345   0.00234353    65.018615     64.72296    64.331951    1643.1618 
 5730000   -201098.31     1.610585 -0.0025022708    65.101847    64.795332    64.352601    1660.3332 
 5735000   -200938.41    1.5514138 -0.0028373193    65.308076    64.575059    64.518372    1677.4294 
 5740000    -200905.5    1.6211801 -0.00081651625    65.349669    64.651776    64.484407    1694.5326 
 5745000   -200938.87    1.5963954 -0.00043998728     65.18341    64.837139    64.414033    1711.5976 
 5750000   -200889.83    1.6077109  0.006129686    65.005014    64.705938    64.581327    1728.7224 
 5755000   -200730.45    1.6043063 0.0010754552    65.195423    64.795156    64.769158    1745.7949 
 5760000   -200804.37    1.5485943 -0.0012520226    65.247643    64.830724    64.455007    1762.8458 
 5765000   -200897.73    1.6007015 6.228302e-05    65.191587    64.802953    64.521312    1779.9369 
 5770000    -201010.2    1.6232012 -0.0024973002    64.807714    65.108118    64.698047    1797.0034 
 5775000   -200866.38    1.5989553 -0.00082012901    65.038592    64.758758    64.950395    1814.0661 
 5780000    -200939.2    1.6382867 -0.0016560218      65.0748     64.64958    64.783798    1831.1694 
 5785000   -200882.04    1.5839479 -0.0050377603     65.20945    64.531189    64.971728    1848.2797 
 5790000   -200864.45    1.6123929 -0.0044497952     65.10236    64.742183     64.69184    1865.4169 
 5795000   -200838.32    1.5932666 -0.0022155992    65.111971     64.65898    64.737394    1882.5625 
 5800000   -200807.96    1.6038495 -0.0022580981    65.028846    64.588774    64.817726    1899.7203 
 5805000   -200999.93      1.62077 -0.0016823958    65.117308    64.547394    64.853022    1916.8559 
 5810000   -200961.57    1.6173611 0.00090867026    64.835425    64.570992    64.939439     1933.962 
 5815000      -200836    1.5668303 0.00055722185    64.744613    64.748965    65.095219    1951.1218 
 5820000   -200933.51     1.576744 -0.00033813481    64.736646     64.48044     65.22411    1968.3378 
 5825000   -201032.83    1.5657663 0.00017993174      64.5578      64.7517    64.774918    1985.4804 
 5830000   -200932.22    1.6365057 3.5656474e-05    65.035988    64.635627    64.735037    2002.7127 
 5835000   -200917.36    1.5933034 -5.0948287e-05    65.086895    64.392516    64.888827    2019.8231 
 5840000   -201007.75    1.6007642 -0.0040074331    65.042363    64.473433    65.064689    2036.9696 
 5845000    -200918.1    1.6078112 -0.0025358467     65.18122    64.604128    64.995688    2054.0644 
 5850000   -201002.16    1.5933654 -0.0039142437    64.937373    64.829332    64.859695    2071.2037 
 5855000   -201027.25    1.5948531 0.0043243042    64.879742    64.637364    64.722314    2088.3145 
 5860000    -201028.7    1.5904751 0.0044594439    65.084624    64.374512    64.827349    2105.4106 
 5865000   -200942.97    1.6715494 0.0012645692    64.967519    64.644854    64.829871    2122.5063 
 5870000   -200905.22    1.5872624 -0.00017839242      64.9756    64.695623    64.928738    2139.6256 
 5875000   -200812.61    1.6180007 0.0039327524    64.998338     64.98871    64.952184    2156.7347 
 5880000   -200872.77    1.6315162 0.0021625147     64.95025    65.052066    65.002215    2173.8169 
 5885000   -200758.13    1.5679441 0.0021065432    65.257827    64.852505    64.872498    2190.9053 
 5890000   -200809.72    1.6684671 0.00082616064    65.095052    64.904865    64.837681    2208.0581 
 5895000   -200712.41    1.5948855 -0.001939657    65.286459    64.976814     64.63737    2225.1774 
 5900000    -200711.3     1.596773 -0.0022175969    65.020688    64.993815    64.744303    2242.2913 
 5905000   -200631.72     1.627374 -0.00060001577    65.053157    65.367549    64.568264    2259.3851 
 5910000   -200921.81    1.5564526 -0.0050704144    64.995453    65.198631    64.678861    2276.4888 
 5915000   -200951.53    1.6210443 0.0010827695    64.809076    65.034624    64.810228    2293.6384 
 5920000   -200827.21    1.6292491 -0.0014804646    64.826661    65.375715    64.714029    2310.7543 
 5925000   -200862.55    1.5980321 -0.0025174818    65.141094    64.927167    64.943491    2327.8087 
 5930000   -200846.26    1.5760931 -0.0023276173     65.42039     64.69214    64.847293    2344.9359 
 5935000    -200982.5     1.596108 0.00013764145    65.333833    64.722972    64.812713    2362.0217 
 5940000   -200758.67    1.5935282 -0.0026114612    65.391588    64.880562    65.027839    2379.1024 
 5945000   -200963.96    1.5804539 -0.0015712924     65.33869    64.954643    64.770686    2396.1479 
 5950000   -200882.15    1.5955947 -0.00014482173    65.380508    64.950499    64.773609    2413.2734 
 5955000   -200992.93    1.6235414  0.002398394    65.389684    64.619106    64.773951    2430.3762 
 5960000   -200823.17    1.6504942 -0.0010201283    65.102958    65.016842    64.911375    2447.5227 
 5965000   -200812.53    1.6324766 0.0019097196     65.24882    65.056711    65.022682    2464.6524 
 5970000   -200772.76    1.5930116 -0.00036125189     65.40224    64.947135    64.792651    2481.7897 
 5975000   -200839.49    1.6096242 0.00085798766    65.379486    65.214903     64.41079    2498.8599 
 5980000   -200962.43    1.5846712 0.0062207033    65.196399    65.044139    64.472629    2516.0069 
 5985000   -200881.63    1.5913699 -0.00024441131    65.299648    65.124737     64.37555    2533.1613 
 5990000   -200983.53    1.5992137 0.0095462648    64.940741     64.74213    64.759578    2550.3462 
 5995000   -200998.24    1.5971878 0.0027407404    65.382451    64.649251    64.586332    2567.4222 
 6000000   -201014.55    1.5948556 -0.0017300556    65.442782    64.946287    64.624885     2584.513 
 6005000   -201097.65    1.6482513 -0.0013232226    65.619203    64.416685    64.657953    2601.5727 
 6010000    -201178.7    1.6123589 -0.0024131895    64.983654    64.845006    64.819091    2618.6625 
 6015000   -200972.49    1.5577499 -0.0039096611    65.032271    65.012536    64.886879     2635.734 
 6020000   -201062.29    1.5587617 -0.0029338755    65.015508     64.95772    64.740991     2652.843 
 6025000   -200917.56    1.6194754 0.0015082901     64.86987    64.743866    64.910151    2669.8944 
 6030000   -200937.93    1.5940817 -0.0016559201    65.365947    64.526254    64.826495    2686.9767 
 6035000   -200846.12    1.6257614 -0.0013855001    65.231254    64.730962    64.667459    2704.0478 
 6040000   -200892.31    1.6508956 -0.0051673077    65.326211    64.792738    64.731123    2721.1583 
 6045000      -200966    1.5814858 0.00022600614    64.957094    64.608885    64.957896    2738.2552 
 6050000   -200951.69    1.5955014 0.0028597103    64.845449    64.818625    64.745151    2755.3815 
 6055000   -200866.34    1.5916299 0.0012716193    64.944301    64.989759    64.693956    2772.4677 
 6060000   -200927.27    1.5751823 -0.0012203574    65.114854    64.828728    64.858414    2789.5816 
 6065000   -200853.01    1.6254285 -0.0016918342    64.763001    64.691658    65.370233    2806.6245 
 6070000   -200817.93    1.5847971 -0.0025616433    64.845567    65.133692    64.648468    2823.7287 
 6075000   -200670.13    1.6483184 -0.0020193311    64.840108    64.855311    64.972579    2840.7811 
 6080000   -200836.97    1.6204919 -2.2940381e-06    64.783627    64.742649    64.984166    2857.8902 
 6085000   -200933.17    1.6228505 0.0013549458      64.7419    64.728847    65.046998    2874.9777 
 6090000   -200799.58    1.5467202 0.0025910599     64.63302    64.768261    65.120477    2892.0596 
 6095000   -200770.77    1.6046112 0.00025447639    65.041683    64.785541    64.702857    2909.1303 
 6100000   -201043.16    1.5687891 -0.001295183    64.659401    64.972787    64.787683    2926.2822 
 6105000   -200801.01    1.5821049 -0.0023891527    65.184396    64.805898    64.787184    2943.3756 
 6110000   -200898.39    1.5860971 -0.00043388765      64.6801    64.710896    65.167784    2960.5033 
 6115000   -200845.71    1.6339739 0.00030531541    64.872647    64.691831    65.160268    2977.5829 
 6120000    -201028.2    1.6157273 -0.0055309492    64.996663    64.969679    64.858815    2994.6794 
 6125000   -201020.54    1.5851721 -0.00058011403    65.264882    64.326239    65.147567    3011.7092 
 6130000   -200959.57    1.6144461 0.00088315963    64.771139    64.656005    65.132617      3028.82 
 6135000   -200882.45    1.6025853 -0.00068160321    64.756586    65.000845    64.965312    3045.9461 
 6140000   -200901.42    1.5838786 0.0012584641     65.05061    64.831887      64.6374    3063.0862 
 6145000   -201035.52    1.5462716 0.00079845478    64.759468    64.658548    64.983634    3080.2032 
 6150000   -201047.01    1.5658145 -0.0017363526    65.074947    64.913307    64.653942    3097.3334 
 6155000   -200899.32    1.6120874 -0.0026213561    65.048926    64.941135    64.803513    3114.4299 
 6160000   -200780.98    1.6250226 -0.00098182765     64.88698    64.945547    64.946751    3131.5899 
 6165000   -200898.25    1.6185165 -0.00044405298    64.920306    64.840119    64.971588    3148.7452 
 6170000   -200844.36    1.6138511 0.0048152231     64.84346    64.724375    64.922204    3166.0026 
 6175000   -200725.52    1.6278946 0.0090035732    64.987708    64.682449    64.858996    3183.1548 
 6180000   -200815.87    1.6098905 0.0076592264    64.633114    64.989251    64.996797    3200.2882 
 6185000   -200779.28    1.6142613 0.0012271248    64.713615    65.236266    64.984907    3217.3738 
 6190000    -200739.1    1.5925967 0.0048906971    64.609628    65.162873    64.916327    3234.4526 
 6195000   -200814.07    1.5940712 0.0037520518    64.550854    65.154057    64.982225    3251.5214 
 6200000   -200965.33     1.592275 0.00086309547    64.926577    65.038911    64.694573    3268.7145 
 6205000   -201054.94    1.6092509 -0.00086699919    64.641595    65.402749    65.122257    3285.8149 
 6210000   -201010.23    1.5420907 -0.0070302642     65.11074    65.325477    64.990605    3302.8929 
 6215000   -201119.86    1.6098068 -0.0052148198    64.943486    65.379154    64.905326    3319.9678 
 6220000   -200959.85    1.6207889 0.0045381945       64.802    65.147054    65.115638    3337.0693 
 6225000   -201005.85    1.6507965 -0.0014877091    64.882872    65.317294    65.144306    3354.1447 
 6230000   -201130.93    1.6149022 -0.002588312    64.845099    65.275243    64.928872    3371.2707 
 6235000   -201057.63    1.6136122 0.0010304592    64.739816    64.813883    65.283224    3388.3676 
 6240000   -200900.65    1.6025918 0.0020906649    64.837584    64.904564    65.125057     3405.459 
 6245000   -200828.05     1.616982 -0.0024012925    64.966687    64.977366    65.074134    3422.5576 
 6250000    -200824.9    1.5878022 -0.0012312492    64.721388    65.068852    65.088727    3439.7037 
 6255000   -200888.36    1.6098854 0.0028592865    64.589414    64.918664    65.135317    3456.8023 
 6260000   -200845.59    1.5774991 0.0075622734    64.704303    64.638169    65.052356    3473.9274 
 6265000   -200955.81    1.6183131 0.0018869031    64.787247    64.869131    64.849236    3491.0283 
 6270000   -200853.75    1.6123818 0.00091151173    64.916906    64.811096    64.800249    3508.1598 
 6275000   -200841.13    1.6053905 0.0019779541    64.428804    65.089734    64.799223    3525.2325 
 6280000   -200825.52    1.6453052 0.0007087855    64.730403    64.765627    64.765051    3542.4081 
 6285000   -200952.08    1.6507196 0.00054306115    64.920176    64.881109    64.537559    3559.5582 
 6290000   -200930.87    1.5627442 -0.0011377127    64.899164    64.677546     65.17656    3576.7206 
 6295000   -200841.77     1.649711 0.0023812023    64.522885    65.028684    64.760377     3593.864 
 6300000   -200912.69    1.5746974 0.0012646229    64.839593    64.808787    64.763274     3611.039 
 6305000    -200891.7    1.5793658 -0.0013223054    64.946161    64.630789    64.901528    3628.0674 
 6310000   -200888.63    1.6206292 0.00048188617    64.771209    64.896201    64.841414    3645.2215 
 6315000      -200922    1.5127397 0.0039122009    64.937718    64.629797    64.703752    3662.3324 
 6320000   -200905.18    1.5586969 0.0018972617    64.943274    64.896841    64.515586    3679.5029 
 6325000   -200705.82    1.6217444 0.00014369129    65.060501    64.764883    64.740135     3696.631 
 6330000   -200764.77    1.6020777 0.0017971363    64.904858    64.698247    64.655919    3713.7824 
 6335000   -200668.82      1.64713 0.0027390133    65.225486     64.55967    64.574624    3730.9207 
 6340000   -200774.55    1.6156789 0.0013008233    65.213392    64.583697    64.595943    3748.0881 
 6345000   -200730.17    1.5994259 -0.0065296943    65.313951    64.623502    65.013328    3765.1892 
 6350000   -200702.83    1.6156826 -0.006575589     65.30424    64.597544    65.014312    3782.2845 
 6355000   -200783.81    1.6154388 -0.0034539894    65.079243    64.643895    64.851541     3799.386 
 6360000    -200588.8    1.6240742 0.00037592249    65.117497    64.603653    64.898424    3816.6332 
 6365000   -200740.08    1.6234995 0.0084929746    64.969987    64.239332    65.064628    3833.7353 
 6370000   -200658.95    1.6171083 0.0013068035    65.170736    64.307523    65.060236    3850.8907 
 6375000    -200646.7    1.6411324 -0.0022074227     65.05526    64.456644    65.356444    3867.9967 
 6380000   -200675.51    1.5905739 0.0081794192    65.155425     64.14943    65.161035    3885.1473 
 6385000   -200701.96    1.6385975 0.0040077223    65.104456    64.526838    65.032868    3902.2491 
 6390000   -201051.78    1.6066371 0.0021983949    65.086747    64.734443    64.729255    3919.3746 
 6395000   -200905.76    1.5992455 -0.00088591231    65.317766    64.688943    64.975671     3936.506 
 6400000   -200824.75    1.6538395 0.00050550752    65.719821    64.434387    64.901581    3953.6578 
 6405000   -200813.06    1.5920972 0.0018508987    65.102768    65.025092    64.624624    3970.7364 
 6410000   -200924.16     1.619066 0.0043366941    64.709746    64.696362    65.009331    3987.9274 
 6415000   -200885.49    1.6048759 0.0016129479    65.287977    64.765739    64.721572    4005.1137 
 6420000   -201021.82    1.5895011 -0.0032992725    65.398417    64.631183    64.767276    4022.2743 
 6425000   -200962.11    1.6234498 -0.0052657586    65.578162    64.571445    64.899522    4039.4372 
 6430000   -200789.52    1.6424107 -0.0031231215     65.19053    64.772933    65.473532    4056.5974 
 6435000   -200896.35    1.5959501 -0.00040149677    65.288085    64.798709    64.905799    4073.7316 
 6440000   -200981.17    1.6287388 0.0008561055    65.406929    64.617622    64.875845    4090.9221 
 6445000   -201069.68    1.6180069  0.001012656    65.197898    64.709209    65.005847    4108.0618 
 6450000   -200821.52    1.5849592 -0.0037718602    65.156108    64.880527    65.371401    4125.2613 
 6455000   -200981.78    1.6014383 -0.0023185444    65.172548    64.893564    65.119984    4142.3628 
 6460000   -200984.18    1.5702585 -0.0033861975     65.39275    64.583237    65.047273    4159.5114 
 6465000   -200844.16    1.6221791 0.0016865257    65.172875    64.705695    65.163203    4176.6305 
 6470000   -200922.98    1.5265968 -0.00033777169     65.19284    64.880024    64.795785    4193.7963 
 6475000   -200965.37     1.497364 -0.00089293698    65.119369    64.829019    64.898194    4210.8888 
 6480000   -201113.39    1.5897922 0.0028368124    64.881276    64.898685    64.924355    4227.9839 
 6485000   -200916.32    1.6059515 -0.0019111616    64.998216    65.138515    64.984372    4245.0752 
 6490000   -200881.75     1.559966 -0.0028474543    65.546602    64.574819    65.030874      4262.19 
 6495000   -200927.29    1.5761866  0.001805405    64.991562     64.48584    65.190259    4279.2659 
 6500000    -200888.4    1.5717264 0.0046129713     65.07023    64.919686    64.791288    4296.4118 
 6505000   -200776.74    1.5679885 0.0062419254    64.763231    65.058098    64.856309    4313.5065 
 6510000   -200956.09    1.5997846 0.0039045518    64.994042    65.110695    64.708899     4330.673 
 6515000   -200924.11    1.6307267 0.0017422942    64.908676    65.428652    64.390298    4347.7571 
 6520000   -200980.35    1.6239394 0.0024779353     65.01657     65.13434     64.73645     4364.942 
 6525000    -200872.2    1.5552139 0.00079583985    64.883349    64.921909    64.888757    4382.0452 
 6530000   -200983.16    1.6205848 0.00014519708    64.691211    64.884897    64.984017    4399.1982 
 6535000   -200971.29    1.5562768   0.00227244    64.718487    64.854288    64.799621      4416.32 
 6540000   -200840.13    1.5896436 0.0022660949    64.606569    65.076386    64.833529    4433.4982 
 6545000   -200871.88    1.5704045 -9.3076561e-05    64.980772    64.819478    64.847234     4450.601 
 6550000   -200829.41    1.5681087 0.00012778748    64.984798    64.874267    64.734998    4467.7289 
 6555000   -201026.36    1.6069918 -0.00053552004    65.144634    64.737417    64.542148    4484.8326 
 6560000   -200778.17    1.5786809 0.0024077626    65.062626    64.739697    64.633068    4501.9797 
 6565000   -200863.01    1.6394933 3.2656285e-05    65.121639    64.991588    64.654636    4519.1341 
 6570000   -200857.83    1.5911859 -0.00073745919    65.395399    64.646375    64.684877    4536.3032 
 6575000   -200667.66      1.54692 -0.003772086    65.251427    65.004672    64.702566      4553.42 
 6580000   -200655.84     1.596758 -9.5487009e-05    65.025186    64.756511     64.79526    4570.5429 
 6585000   -200847.42    1.6216868 0.00067896676    64.880044    65.104392    64.419271    4587.6617 
 6590000   -200922.45    1.6073324 0.0017530663    65.111131    64.517436    64.473052     4604.801 
 6595000   -200918.36    1.6229196 0.0057129691    64.767439    64.699065    64.514141    4621.9325 
 6600000    -200885.4    1.6058602 0.0051955225     64.76512    64.458136    64.851147     4639.074 
 6605000   -200932.06      1.59623 0.0011525161    64.980101    64.409635    64.722464    4656.1976 
 6610000    -200861.4    1.6043251 -0.0022911147    65.063844    64.600217    64.974262    4673.3224 
 6615000   -200841.48    1.6114168 -0.0015071175    65.202823    64.676202    64.927373    4690.3844 
 6620000   -200808.81    1.6171891 -0.00081101451    64.940629    64.719706    65.193283    4707.5502 
 6625000   -200816.43    1.5499806 -0.0044992274    65.108691    64.755247    65.126738    4724.6284 
 6630000   -200900.83     1.631003 0.0033131227    64.727561    64.977255    64.858968    4741.7443 
 6635000   -201046.08    1.6330799 0.0031995469    64.752999     64.94159    64.510204    4758.8444 
 6640000   -200829.06    1.5691636 0.0021534315    64.715034    64.712881     64.89331    4775.9702 
 6645000   -200823.05    1.6389626 0.0021074358    64.763026    64.877378    64.819305    4793.0549 
 6650000   -200930.81       1.6338 -0.0014581434    64.858615    64.990623    64.623736    4810.1545 
 6655000   -200737.01    1.5907724 -0.0025823145    65.121581    64.944009     64.62585    4827.2724 
 6660000   -200903.92     1.589216 -0.00026024993    65.219755    64.711179     64.46933    4844.3981 
 6665000   -200747.71    1.6164705 0.00020539335    65.107725    64.888553    64.558037    4861.5134 
 6670000   -200757.64    1.5754345 0.00021914571    65.052884    64.793884    64.861138    4878.6545 
 6675000   -200740.39    1.6203413 -0.0043153768    65.009636    65.029145    65.186493    4895.7229 
 6680000   -200811.74    1.5959003 -0.00037627183    65.036465      64.9806    64.909951     4912.853 
 6685000   -200743.68    1.5930006 -0.0033279902    65.408325     64.97364    64.507568    4929.9638 
 6690000   -200740.57    1.6025346 -0.0012081033    65.128988     65.04627    64.783893    4947.1249 
 6695000   -200748.66    1.6167485 -0.0030849046    65.631881    64.669477    64.822985    4964.2703 
 6700000   -200899.36    1.6253483 0.0010835948    65.326749    64.613751    64.905431    4981.3527 
 6705000   -200793.02    1.6006429 0.0026392782    65.256515    64.895261     64.86198    4998.4463 
 6710000   -200806.07    1.6167719 0.0023485736    65.241959    64.767574    64.691545     5015.526 
 6715000   -200946.88    1.6176965  0.002214896    65.304208     64.70729    64.593868    5032.5925 
 6720000   -200825.11    1.6234646 -0.0015191477    65.472242    64.632697    64.672977    5049.7248 
 6725000   -200944.48    1.6323089 -0.0016812295    65.263315    64.716431    64.769072    5066.8373 
 6730000   -201071.18    1.6137948 0.00051214131    65.156731    64.569075    64.872832    5083.9876 
 6735000   -200925.91    1.5931106 -0.0010018392    65.243056     64.83083    64.780532    5101.0771 
 6740000    -200986.5    1.6071346 -0.00034908341    65.219672    64.673068    64.767179    5118.2284 
 6745000   -200882.28    1.5857405 -0.00049554461    65.043735    64.856214    64.915307    5135.3523 
 6750000   -201009.42    1.6220104 0.0010419939    64.972555    64.693962    64.913674     5152.525 
 6755000   -201010.61    1.5770394 0.0015031495    65.334313    64.476143    64.796475    5169.6234 
 6760000   -201010.52    1.5949306 -0.0045345718     65.11426    65.024407    64.796015    5186.7985 
 6765000   -201098.03    1.6148083 -0.0046592931      65.2584    64.516999    65.123433    5203.9597 
 6770000    -200954.2    1.6116525 0.0020165224    65.044938    64.719208    64.860402    5221.1088 
 6775000   -201038.15    1.6057889 0.0018514536    65.087172    64.656942    64.770986    5238.1847 
 6780000   -201112.82    1.6083805 0.0026608362     65.38306    64.321104     65.01455    5255.2908 
 6785000   -200856.59    1.5650855 -0.0057962345    65.262648    65.008885    64.924249    5272.3791 
 6790000   -201144.26    1.6281814 -0.00092586757    65.212901    64.853914    64.889689    5289.5156 
 6795000   -201007.37     1.608665 0.00055722957     64.81014    64.917686    65.150936    5306.6087 
 6800000   -201029.11    1.6187863 0.0058493048    65.029268     64.75866    64.976823    5323.7669 
 6805000   -201043.87    1.6173255 -0.00051762564    65.189505    64.837545    64.838787    5340.8698 
 6810000   -200853.23    1.6256696  0.001164033    65.062835    65.015426    64.861752    5358.0249 
 6815000   -200908.99    1.5950503 -0.0058259877    64.960186    64.871525    65.167736    5375.1073 
 6820000   -200928.75    1.6243025 -0.0032706219    65.075738    65.153923     64.86417    5392.2174 
 6825000   -200950.61    1.5870986 -0.0003731415    65.211379    65.046987    64.769813    5409.3297 
 6830000    -200913.8    1.6100681 0.00021647455    64.761253    65.151693    64.805418    5426.4808 
 6835000   -200982.34    1.5980329 0.00082026884    65.078941    65.014514    64.550128    5443.6639 
 6840000    -200822.7    1.6386032 -0.001740387    65.043817    64.918446    65.001903    5460.8279 
 6845000   -200924.23     1.575212 -0.0047424655    65.028978    65.138347    64.915891    5477.9075 
 6850000   -200773.42    1.6239263 -0.0032543866    65.087774     64.96465    64.921012    5494.9962 
 6855000   -200841.79    1.5552772 0.00049757913    64.903367    64.916227    64.988895    5512.0938 
 6860000   -200859.92    1.5835342 -8.5511599e-05    65.273623    64.739291    64.838388    5529.2061 
 6865000   -200704.52    1.6027963 -0.0031917314    64.953802    65.057284    65.162129     5546.342 
 6870000   -200916.82    1.6340165 -0.00017212965    64.908009     65.00217    65.146612    5563.4643 
 6875000    -201003.3    1.6062277 -0.0009227433    65.080915    64.916434    65.092268     5580.556 
 6880000   -200746.72    1.6610674 -0.0030746665      65.3094    64.926379    64.997851    5597.6764 
 6885000   -200743.56    1.5737023 -0.0024441739    65.397106     64.66554    65.150369    5614.7943 
 6890000   -200876.49    1.5894285 -0.0041074601    65.377217    64.647695    65.247208    5631.9859 
 6895000   -201071.86    1.6299813 6.0698993e-05    65.443444    64.342865    65.131151    5649.0931 
 6900000    -200854.9    1.6181646 0.0011303661    65.149545     64.45209    65.233102    5666.2394 
 6905000   -200932.42    1.5807244 -0.00099940692    65.197844    64.601902    64.980453     5683.282 
 6910000   -201019.08    1.5782108 0.0008471782    65.071533    64.684615    65.056708    5700.4303 
 6915000   -200971.23    1.5930331 0.0076831785    65.072907    64.747132    64.702134    5717.5146 
 6920000    -200873.5    1.6483454 0.0012985034    65.137874    64.824684    65.063229     5734.558 
 6925000   -201048.89    1.5970108 0.0029059867    65.404075    64.646738    64.897395    5751.5975 
 6930000   -200909.28    1.6136464 -0.0035447829    65.282468    64.988218    65.187457    5768.7063 
 6935000   -200758.53    1.6164512 -0.0021115438    65.332053    64.832005     65.18623    5785.7309 
 6940000   -200892.48    1.6062318 -0.0025740059       65.424    65.044736    64.933247    5802.8262 
 6945000      -200807    1.5305347 -0.00060006021    65.384951    65.090179      65.0257    5819.8963 
 6950000   -200775.49    1.5961063 -0.0024921854    65.425111    64.864853    65.206435    5836.9894 
 6955000   -200801.61    1.6239831 -0.00076529806     65.63977    64.659947    65.356095    5854.0517 
 6960000   -200720.23    1.6387901 0.0057247471    65.392802    64.818662    64.843494    5871.1239 
 6965000   -200803.33    1.5584739 -0.0014738541    65.204623    65.006774    65.005607    5888.1551 
 6970000   -200759.05    1.5658618 -0.0052563845    65.172722    65.001144    65.343352    5905.2373 
 6975000   -200842.97    1.6131875 -0.00084090688    65.335296    65.064451    64.861083    5922.2882 
 6980000   -200801.79    1.6119967 0.0030606223    65.347835    65.136664    64.814527    5939.3889 
 6985000   -200624.02    1.5968569 -0.0023799379    65.448314    65.133971    65.199752    5956.4372 
 6990000   -200773.11    1.6065941 -0.0014717921    65.410775    65.092181    65.007743    5973.5304 
 6995000   -200915.26    1.5946821 0.0032011835    65.190609     65.00637    64.860244    5990.6102 
 7000000   -200686.83    1.5913183 -0.00095997462    65.486472    65.356083    64.669646    6007.6725 
 7005000   -200835.61    1.6035555 -0.0010022146    65.284471    65.144471    64.983606      6024.72 
 7010000   -200963.57    1.6321437 0.0010658084    64.988815    64.952848    64.982194    6041.8058 
 7015000    -200901.3    1.6102651 -0.0021335077    64.718628    65.352455    65.097471    6058.8875 
 7020000   -200915.38    1.5673057 -0.00070688527    65.126202    65.176264    64.706803    6075.9708 
 7025000   -200949.16    1.6732135 0.0013627956    64.910203    65.526628    64.447777    6093.0027 
 7030000   -200794.45    1.6270716 0.0082730754    64.527048    65.240701    64.823162    6110.0937 
 7035000    -200855.1     1.566419 0.00078026589    64.825988    65.303467    64.919375    6127.1855 
 7040000   -200910.12     1.627062 -0.0022691821    64.912011    65.332703    64.918028    6144.2687 
 7045000   -200913.48    1.6166138 0.00083748069    64.836346    65.353427    64.847104    6161.3471 
 7050000   -200912.02    1.6158271 0.00083317032    64.986744    65.274317    64.879605    6178.4184 
 7055000   -200837.45    1.5614054 -0.0012689844    65.079696     65.11336    65.205103    6195.4918 
 7060000   -200835.64     1.614278 -0.0048528037    65.180343    65.223433    65.311036    6212.5802 
 7065000   -200966.94     1.606174 -0.0017845731    64.994045    64.962556     65.56106    6229.6022 
 7070000   -201023.68    1.5753524 -0.0021614565      64.9883    65.300288    65.224684    6246.6576 
 7075000   -200944.78    1.6324546 0.00053300731    64.889415    65.399469    64.957741    6263.6535 
 7080000   -200788.13    1.6424155 0.00014717451    65.275842    65.285935    64.833204    6280.7244 
 7085000   -200988.27    1.5834238 0.0012358946    65.342103    65.225236      64.6685    6297.7781 
 7090000   -201040.01    1.5837043 -5.7884773e-06    65.440069    65.071464     64.94909    6314.8817 
 7095000   -201126.83     1.622796 0.00065685679    65.513913    65.030848    64.844954    6331.8982 
 7100000   -200893.04    1.6034212 -0.0015825892    65.016473    65.365572    64.998957    6348.9587 
 7105000   -201084.03    1.6161211 5.8831732e-05    64.866434    65.409135    64.815558    6365.9902 
 7110000   -200959.93    1.6400333 -0.00056971625    65.171117    65.405878    64.740969    6383.0657 
 7115000   -200996.98    1.6040613 0.0067551794    65.019726    65.065946    64.678536     6400.087 
 7120000   -201098.71     1.620936 0.0042788674    64.805133    65.230143    64.975935    6417.1514 
 7125000   -201087.49    1.5883239 0.0036976405    64.642136    64.899437    65.169515    6434.2087 
 7130000   -200955.91    1.6068534 0.0058515293    64.655321    64.744039    65.045291    6451.3261 
 7135000   -200768.48    1.6301208 0.00020121763    64.584808    65.039578    64.940668    6468.3998 
 7140000   -200621.82    1.5932786 -0.0055453666    64.909588    65.229845     65.19704     6485.515 
 7145000   -200718.69     1.612706 0.0040283307    64.912469    65.003539    65.173569    6502.5764 
 7150000   -200780.98    1.6299381 2.1563552e-05    64.867184    64.917566    65.341286    6519.6694 
 7155000   -200828.32    1.5914176 -0.0015980977     65.02046    65.072398    65.102471    6536.6947 
 7160000   -200733.63    1.6200908 4.6500165e-05    64.874607    65.057728    65.179047    6553.7575 
 7165000    -200885.7    1.5670682 -0.002560262    64.933105    65.066347    65.199168    6570.8048 
 7170000      -200765    1.6096466 0.00099497587    64.854429    65.008841    65.268951    6587.9263 
 7175000   -200766.09    1.6410833 -0.00083387022    64.703801    65.357971    65.111665     6604.981 
 7180000   -200788.34    1.6100935 0.00063538692    64.454251      65.3288    65.414233    6622.0183 
 7185000   -200834.77     1.575371 -0.0031877636     65.14207    64.867701    65.132975    6639.0708 
 7190000   -200966.13    1.5721039 -0.0016952101    64.587889    64.759286    65.494088     6656.117 
 7195000   -200988.46    1.6298914 -0.00058207508    64.811574    64.868373    65.140169    6673.1579 
 7200000   -200866.96     1.603817 -0.0036530564    64.713983    64.904295    65.273275    6690.2352 
 7205000    -200634.8    1.6168136 -0.0023955148    64.659205    65.095888      65.2831    6707.2938 
 7210000   -200834.07    1.6126303 0.0045013022     64.64878    64.783997    65.365104    6724.3559 
 7215000    -200979.5    1.6222255 0.00050737148    64.706147    64.846809    65.414156    6741.3919 
 7220000    -200903.6    1.6435204 0.00026543182    64.977565    65.147567    64.815393    6758.4992 
 7225000   -200861.92    1.6241822 -0.0035128048    65.250374    65.021116    64.721242    6775.5501 
 7230000    -200719.2    1.6115622 -0.0019302779    65.268355    64.551309    65.262114     6792.673 
 7235000   -200855.79    1.5913052 0.0018637754    64.840362    64.727556     64.99714    6809.7541 
 7240000   -200965.94    1.5433165 0.00088730576    64.960246     64.68447     64.98792    6826.8439 
 7245000   -200901.31    1.6516801 0.0026788955    65.300581    64.285592    65.018745    6843.9049 
 7250000   -201084.14    1.6635541 0.0074764673    64.990722    64.397095    64.770181    6861.0232 
 7255000   -200913.11    1.6067272 -0.0010115355    65.050757    64.752965    64.944041    6878.1298 
 7260000   -200934.38    1.6032288 0.0046164825    65.070711     64.50247    64.669197    6895.2547 
 7265000   -200820.71    1.6125104 0.0034073452     64.84912    64.867239    64.838919    6912.3995 
 7270000   -200873.69    1.6226576 0.0049861105    64.567644    64.949109    64.754682    6929.5128 
 7275000   -200898.34    1.6111054 -0.00049459742    65.011139    65.037238    64.582284    6946.5876 
 7280000   -201054.01    1.5986011 0.00012302639    65.090204     64.56828    64.942649    6963.7615 
 7285000   -200924.95    1.5503406 0.0020289255    65.174619    64.849027    64.515189    6980.8592 
 7290000   -201034.29    1.6129235 -0.0024523171    65.341438    64.787287    64.784617    6997.9075 
 7295000   -201000.84    1.6217871 0.0008109825    65.043533    64.869521    64.856489    7014.9805 
 7300000   -201004.17      1.56911 0.0041967874    65.114596    64.818047    64.689774     7032.075 
 7305000    -200994.2    1.5736526 -0.00041710438    65.311754    65.006988    64.574854     7049.122 
 7310000   -200943.97    1.5836737 -0.00096579891    64.881759    65.198945    64.737059    7066.2219 
 7315000   -200790.57    1.5970067 -0.0031378185    65.283022    64.850855    64.915765    7083.3161 
 7320000    -200984.3    1.5888064 -0.00031803128      64.8746    64.802178    65.115854    7100.4126 
 7325000   -201067.93    1.5561642 -0.0026395875     65.23985      64.5387    64.945327    7117.4789 
 7330000   -200950.68    1.5539012 -0.0026402563     65.08751    64.735281    65.168851     7134.598 
 7335000   -200904.93    1.5941046 -0.00078784718    65.064332    64.788044    64.887208    7151.6691 
 7340000   -201077.07    1.5903183 0.00052395196    65.498538    64.775636    64.291542    7168.8227 
 7345000   -200901.23    1.6013385 0.0049940144    65.247523    64.702866    64.733562    7185.9073 
 7350000   -200854.06    1.5968385 -0.0013254695    65.312945    64.962106    64.394949    7202.9966 
 7355000    -200785.8    1.6120442 -0.001764973    65.235982    64.809457    64.685754    7220.1352 
 7360000   -200803.14    1.6116043 0.0027287587    65.320467    64.681466    64.678308    7237.3337 
 7365000   -200823.02    1.5829219 0.00046613098    64.974775    65.002797    64.767096    7254.4606 
 7370000   -200924.49    1.6237726 -0.0022886419    65.418001    64.782775    64.859199    7271.5921 
 7375000   -200927.07    1.5580942 0.0015152354    65.446785    65.015829    64.492825    7288.7253 
 7380000   -200835.43     1.553318 -0.00068111759    65.400001    64.549473     64.69717    7305.9217 
 7385000    -200934.1    1.5895467 -0.0019435685    65.369181    65.029344    64.434079    7323.0517 
 7390000   -201005.47    1.6211775 -0.0022597509    65.312605    64.940149     64.30257     7340.198 
 7395000    -200850.7    1.6207599 -0.0012138573    65.171246    64.946171    64.356791    7357.3698 
 7400000   -200775.63    1.6000733 -0.0013552892    65.294958    64.998205    64.555413    7374.5276 
 7405000   -200895.89    1.5698919 0.0015718519     65.24802     64.67706    64.731709    7391.5821 
 7410000   -200876.71     1.595392 -0.0018301118    64.853509    64.767112    65.017875    7408.6811 
 7415000   -200931.86    1.5887499 0.0013935975    65.152457    64.591196    64.760662    7425.7889 
 7420000   -201054.43    1.5631468 -0.0011969037    65.582828    64.571632    64.718449    7442.9077 
 7425000   -201087.98    1.6414437 0.00021883701    65.593142    64.631662    64.566427    7459.9851 
 7430000   -201076.48    1.5448637 0.0018255877     65.66492    64.749701    64.337057    7477.1049 
 7435000   -201122.89    1.6240791 0.00086820093    65.706376    64.714537    64.473516    7494.1729 
 7440000   -200930.68    1.6496152 -0.00020062154    66.041944    64.787951    64.364672    7511.2851 
 7445000   -201020.31    1.5998048 0.0019691437    65.377057    64.708083    64.941398    7528.3554 
 7450000    -201006.1     1.655559 0.0011705849    65.680113    64.647716    64.757856    7545.5035 
 7455000   -200939.62    1.6282223 -0.00065682221    65.629154     64.75646    64.809433    7562.5699 
 7460000   -201042.03    1.5866006 -0.002420801    65.962481     64.79366    64.550109    7579.6261 
 7465000   -200995.74    1.6302109 -0.00093098733    65.464925    65.057978    64.624408    7596.7239 
 7470000   -200824.21    1.5592597 -0.0050374645    65.811092    64.803141    64.860837    7613.8248 
 7475000   -200886.04    1.6105903 -0.00077326474    65.782287    64.881987    64.462758     7630.912 
 7480000   -200958.29    1.6266937 0.0015303142    65.610275    64.918947    64.468693    7647.9984 
 7485000   -200792.63    1.5935113 0.0033630324    65.507513    64.826323    64.701689    7665.0782 
 7490000   -200843.48     1.588399 0.0026276555     65.78843    64.557154    64.652952    7682.1829 
 7495000   -200819.66    1.5821252 -0.00014260743    65.629332    64.679014    64.897617    7699.2979 
 7500000   -200821.62    1.5917428 0.0048509376    65.594351    64.632602    64.591172     7716.469 
 7505000   -200871.46    1.5703915 -0.0003084193    65.588574    64.533657    64.967917    7733.5168 
 7510000   -200858.06    1.6409052 -0.0015874622    65.464625    64.886899    64.774596    7750.6622 
 7515000   -201013.06     1.652647 0.0027654039    65.310023    64.829106     64.48998    7767.7261 
 7520000   -200776.96    1.6022862 0.00016729258    64.973148    64.967419    64.745699    7784.8208 
 7525000   -200902.12    1.6321985 -0.0019454567    65.209212    64.764531    64.645376    7801.9107 
 7530000   -200829.41    1.6291713 -0.0006045403    65.145802    64.946394    64.888599    7818.9938 
 7535000   -200898.38    1.6254513 0.00090756367    65.084921    64.874273    64.570518    7836.0537 
 7540000   -200803.43    1.6341826 0.0044186725    64.839958    64.685957    64.874902    7853.1597 
 7545000    -200769.6    1.5836275 0.0085141062    65.003792    64.471565    64.982053    7870.1998 
 7550000    -200910.8    1.5862098 0.00092412905     64.80699    64.846149    65.022103    7887.2834 
 7555000   -200806.96    1.5280967 -0.0017871956    65.123938    64.702711    64.934117    7904.3595 
 7560000   -200896.27     1.603233 0.0010501563    65.162159    64.753096    64.767653    7921.4904 
 7565000   -200719.85    1.5816641 -0.0041042136     65.07261    64.766023    65.351929    7938.5714 
 7570000   -200789.65     1.604927 0.0020783354    64.637629     64.88702     65.40771    7955.6494 
 7575000   -200789.57    1.6050621 0.00075971427    65.084111     64.82378    64.895673    7972.7043 
 7580000   -200821.41    1.5909642 -0.0034491391    65.057069    64.896395    65.076932    7989.8004 
 7585000   -200772.26     1.578978 -0.0031880184     64.60359     65.07583    65.296299    8006.8462 
 7590000   -200860.74    1.5729833 0.0010037544    64.616442    64.977235    65.082769    8023.9422 
 7595000   -200873.85    1.6366103 -0.0021728263    64.729999    65.069419    65.164093     8041.021 
 7600000    -200953.9    1.6336626 -0.0038980538    64.775867    65.108235    65.056326    8058.0909 
 7605000   -200827.77    1.5925702 0.0017177419    64.753757    65.310795    64.852969    8075.1924 
 7610000   -200746.91    1.6071493 0.0010568528    65.001672    64.702161      64.9737    8092.3245 
 7615000   -200908.93    1.6204536 -0.003114897    64.810526    65.208706     64.92256    8109.3998 
 7620000   -200898.04    1.5835391 -0.0012029788    65.015197    65.149096    65.059151    8126.4671 
 7625000   -200826.48    1.5885536 -0.00075419016    65.050775    65.318119    64.587143    8143.5074 
 7630000   -200812.17    1.5993006 0.0027908383    64.839114    65.096437    64.921532    8160.5494 
 7635000   -201011.31    1.6419635 0.0044965049    64.757502    65.116115    64.772486    8177.6072 
 7640000    -200853.7    1.6169669 0.00020678926    65.200782    65.096665     64.86459    8194.7142 
 7645000   -200793.72    1.6021913 0.0021399185    65.176788    65.071011    64.873468    8211.7724 
 7650000   -200800.91    1.6118874 0.0022667074    65.334297     65.08608    64.688161     8228.877 
 7655000   -200794.04    1.6150975 0.0018153832    65.194457    64.988872    65.081016    8245.9987 
 7660000   -200672.05    1.5646153   0.00272805     65.22421    65.003965    64.914721    8263.0744 
 7665000   -200650.24    1.5820165 0.0041362079    65.085955    65.110185     65.00036    8280.1249 
 7670000   -200656.14    1.5845199 -0.0018386501    65.227412    65.339976     64.83687    8297.2555 
 7675000   -200699.27    1.5873564 6.4764741e-05    65.110112    65.101835    64.924481    8314.3043 
 7680000   -200653.88    1.6008142 0.00015731421    64.866478    65.268032    65.105189    8331.3797 
 7685000   -200737.16    1.5881326 0.0012318952    64.861569    65.057521    65.313474    8348.3972 
 7690000   -200866.78    1.6007139 0.00072986857    65.245558    64.939111    65.302996     8365.429 
 7695000   -200841.85    1.5990373 -0.0031117613    65.148664    65.058844    65.355321    8382.4647 
 7700000    -200812.8    1.6221071 -0.0016924215    65.004779    65.296271    65.072953    8399.5692 
 7705000   -200825.31    1.5928147 -0.0051141675    65.118966    65.165381    65.256205    8416.6448 
 7710000   -200789.16    1.5898528 -0.0011294948     65.39888    65.049459    65.145787    8433.6997 
 7715000   -200887.14    1.6093629 0.0027838945    65.089863     65.32206     64.89873    8450.7336 
 7720000   -200914.58    1.6279324 0.00063849715    65.277285    65.028879    65.080913    8467.8318 
 7725000   -200970.45    1.6337001 0.00029664424    64.914031    65.187462    64.953431    8484.8457 
 7730000    -200768.6    1.6437297 0.0014551382    64.754877    65.493454     64.86454    8501.9375 
 7735000   -200938.64     1.655258 0.00040276292    65.060448    65.027596    65.109618    8518.9779 
 7740000   -200708.11    1.5815737 0.0018207733     64.92493    65.200195    65.043231    8536.0967 
 7745000    -201029.3    1.5843471  0.001513704    65.269021    65.059789    64.491751    8553.1287 
 7750000   -201085.23    1.5937871 0.0015646463    64.969005    64.961537    64.616386    8570.2439 
 7755000   -200884.32     1.626263 0.00093285879    65.141093    65.384573     64.56802     8587.317 
 7760000   -200878.41    1.5772134 0.0046163428    64.790109    65.288815    64.640529    8604.3769 
 7765000   -200663.05     1.602045 0.0023438317    65.301012     64.84949    65.059005    8621.4004 
 7770000   -200812.13    1.5733235 -0.0048386059    65.037783    65.120091    64.922463    8638.4307 
 7775000   -200911.06    1.6180038 -0.00068451559    65.247973    65.212321    64.420851    8655.5034 
 7780000   -200910.93    1.6091148 -0.00036885032    65.263517    65.023886     64.74412    8672.5599 
 7785000    -200779.9    1.5865855 -0.00042923315    65.021694    65.128598    64.957198    8689.6402 
 7790000   -200977.95    1.6461187  0.002048457    64.999831     64.97656    64.660259    8706.7165 
 7795000   -200884.97    1.5990837 0.0013086069    64.989384     64.91891    64.671092    8723.7528 
 7800000   -200739.49    1.6187739 -0.0031069972    65.050972    65.276703     64.70076     8740.894 
 7805000   -200809.07    1.6345827 0.0014111141    64.829346    65.349627    64.678182    8758.0145 
 7810000   -200963.38     1.585853 0.0032141013    64.756336    65.350518    64.581558     8775.108 
 7815000   -200671.77    1.5759128 -0.00017965875    65.258704    65.014824    64.841114    8792.2024 
 7820000   -201015.08    1.5977617 0.0017877509    64.946455     64.93419    64.924522    8809.3388 
 7825000   -200784.34    1.5779736 0.0027440308    65.187696    65.052207    64.541655    8826.4406 
 7830000   -200813.02    1.5592119 0.0020876685    64.909086    65.018645     64.83961    8843.4725 
 7835000   -200774.21    1.6185761 0.0099864574    64.921775    64.690343    64.796172    8860.5177 
 7840000   -201049.72    1.6343948 -0.0013169756    65.521874    64.864251    64.629055    8877.5863 
 7845000   -200968.28    1.5937757 0.00083209508    64.915946    64.927106    65.031221    8894.5944 
 7850000   -200842.91    1.6340136 0.0048452248    65.369637    64.711337    64.592716    8911.7021 
 7855000   -200901.63    1.5852259 0.00085935522    64.945379    64.944149    64.923689    8928.7644 
 7860000   -200820.41    1.5451558 0.0011442164    65.131122    64.679732    65.037703     8945.893 
 7865000   -200857.56    1.6000563 0.00099369365    64.795637    65.123177    64.920183    8962.9723 
 7870000   -200772.17     1.630477 9.4700625e-05    65.172194    64.658435    65.044153     8980.024 
 7875000    -200725.7    1.6416331 0.0022582329    64.882566    64.464023    65.350041    8997.1102 
 7880000   -200781.54    1.5191097 0.0033062027    65.264595    64.515651    64.845918    9014.1847 
 7885000   -200895.43    1.5813662 0.0025035805    65.085838    64.779829    64.762979    9031.2603 
 7890000   -200948.11    1.6358036 -0.0018968523    65.008895    65.009701     64.86376    9048.3422 
 7895000   -200739.69    1.6259294 -0.004898201    65.142498    65.004877    65.023772    9065.4141 
 7900000   -200826.47    1.5989301 0.00020118992    65.052687    64.728984    64.920425    9082.5324 
 7905000   -200739.62    1.6022352 -0.0028850079    65.088217    64.815695    65.212941    9099.5714 
 7910000   -200721.63    1.6351508 0.00043495148    65.063808    64.963422    65.170329    9116.5977 
 7915000   -200833.43    1.6179101 -0.0028755381    65.108048    65.354784    64.910221    9133.6731 
 7920000    -200850.2    1.5998928 -9.2623511e-05    65.448998    65.294241    64.787629    9150.7469 
 7925000   -200636.96    1.5903552 -0.002593903    65.392019    65.382457    64.881337    9167.7953 
 7930000   -200598.65    1.6069927 -0.0024327751     65.20503    65.158633    65.301877    9184.8624 
 7935000    -200795.6    1.5850289 0.0018375442    64.860425    65.568494    65.096074    9201.8541 
 7940000   -200785.86    1.5794492 -0.00056212796    64.836661     65.32728    65.567915     9219.022 
 7945000   -200729.75    1.6268315 -0.0017019377    65.132093     65.06009    65.574264    9236.1158 
 7950000   -200598.58    1.6347786 0.0031053619    64.923308    64.941577    65.702809     9253.238 
 7955000   -200692.53    1.6401511 0.0023505362    64.761518     65.04558    65.633477    9270.2685 
 7960000   -200789.73    1.6051598 0.0015445453    64.774351    65.143966    65.493984    9287.3374 
 7965000   -200924.13    1.5414197 -0.0017238438    64.792742    64.894526    65.463975    9304.3982 
 7970000   -200987.39    1.6400804 -0.00025937096    64.999639    64.627725    65.435353     9321.549 
 7975000   -200929.61    1.6249027 -0.00064129521    65.168207    65.001188    65.007846    9338.6195 
 7980000   -200858.82    1.6099852 -0.00090057696    65.148822    65.248249    64.914491    9355.7174 
 7985000   -200861.22    1.5813772 -0.00041666499    65.331484    65.064072    64.801195     9372.788 
 7990000   -200905.01     1.533719 0.00089949131    65.224406    64.782255    64.980666    9389.8489 
 7995000   -200897.24    1.6033551 0.0037899407    65.235035     64.80905    65.016579    9406.9639 
 8000000   -200856.93     1.546187 0.0017522877    65.204638    64.788363    64.942494    9424.0383 
 8005000   -200864.43    1.5876623 -0.0045291768    65.082506    65.167703    65.042748    9441.1107 
 8010000   -200916.29    1.6036872 -0.0060939646    65.426918    65.097524    64.869247    9458.1728 
 8015000   -200908.25    1.5878535 0.0065216972    65.274018    65.002828    64.570412    9475.2132 
 8020000   -201032.23    1.6290899  0.002148977    64.939191    65.166614    65.008289    9492.3017 
 8025000   -200899.39    1.6322004 -0.0021833764    65.387352    64.975004    64.875352    9509.3657 
 8030000   -200828.77    1.6350103 -0.0047981571    65.184916    64.996398    65.196337    9526.4267 
 8035000   -200957.33    1.6259124 -0.0022484854    64.973355    65.330235    64.801092    9543.4933 
 8040000   -200834.49    1.5927204 -0.00069954622    64.695196    65.379413    64.960189    9560.5683 
 8045000   -200658.36    1.6193573 -0.0040104213    65.164675    65.169658    65.047696    9577.5889 
 8050000    -200799.4    1.5571641 -0.0030065704    64.870799    65.179963     65.13799    9594.6673 
 8055000   -200974.65    1.5828664 0.0045032725    64.790865    65.105996    64.960868    9611.7641 
 8060000   -200921.98    1.5615906 0.00010936728    64.751875    65.123915    65.172601    9628.8903 
 8065000   -200858.83    1.6023611 0.0035104346    64.615065    65.377143    64.984279    9645.9393 
 8070000   -200815.92    1.6445684 0.0028718708     64.96648    65.018456    65.145961     9663.023 
 8075000   -200929.54    1.6172375 -0.00016922386    64.958411    65.030713    65.078163    9680.0731 
 8080000   -201070.21    1.6158804 -0.0029758436     65.11051    64.846748    65.225405     9697.159 
 8085000    -201067.8     1.585642 -0.006634355    65.068762    65.113697    65.114862    9714.2221 
 8090000   -201113.14    1.6070372 -0.0044008439    65.330964    64.893178     64.88768    9731.2975 
 8095000   -201034.85    1.6406726 0.0021471007    65.272614    64.903431    64.607996    9748.3555 
 8100000   -200945.46    1.6414471 0.0013817655     64.79349    65.164956    64.855951     9765.455 
 8105000   -200762.93    1.6035993 -0.0010423535    65.095805    65.124746    64.772928    9782.5288 
 8110000   -200917.33    1.6227747 -0.0043825717    65.235593    65.287671    64.652876    9799.6155 
 8115000   -201032.29    1.5982254 -0.003818902    64.668675    65.160715    65.221522    9816.6667 
 8120000   -200877.76    1.6076814 0.00051800881     64.90302    65.170401    64.703753    9833.7531 
 8125000   -200975.93    1.5984218 -0.0018119246    65.120352    65.019434    64.794033    9850.8485 
 8130000   -200866.88     1.634914 -0.0038437303    65.067213    65.007524    65.312385    9867.9102 
 8135000   -200776.37    1.5877716 -0.0036139958    65.073506    64.839469    65.272414    9884.9299 
 8140000   -200998.37    1.6192298 0.0039105169    65.160155       64.731    64.808536     9901.974 
 8145000   -200999.46    1.6182031 0.0018584547    65.338842     64.49843    64.853867    9919.0519 
 8150000   -200722.07    1.5740348 -0.0028134378    65.502815    64.723626    64.987347    9936.1358 
 8155000   -200866.22    1.5892572 -0.0036155585    65.191863    64.866448    65.228606    9953.1884 
 8160000   -200916.18    1.5611724 -0.002275345    65.413751    64.898594     64.93683    9970.2858 
 8165000   -200983.96     1.655276 0.0018828429    64.903734     65.08985    65.017412    9987.3647 
 8170000   -200848.27    1.6105567 -0.0020866156    65.026572     64.89997     65.13626    10004.477 
 8175000    -200769.8    1.5775517 0.0019348357    65.481991    64.565288    64.998659    10021.547 
 8180000   -200883.48    1.5844672 0.0034960921    65.028987    64.455726    65.328438    10038.652 
 8185000    -200686.3    1.6170745 -0.00021491025    65.166934    64.930909    65.136839    10055.717 
 8190000    -200657.5    1.5894936 -0.00058066757     65.07674    65.003831    65.376059    10072.816 
 8195000    -200685.7    1.5902563 -0.00081140614    65.379103    64.539872     65.55885    10089.862 
 8200000    -200872.2    1.6017743 0.0046214232    65.029135    64.656504    65.309927    10106.918 
 8205000   -200861.41    1.6023731 0.0039131231    65.214932    64.602563    65.349671    10123.961 
 8210000   -200891.25    1.6267415 0.0034133132    64.997482    64.893914    65.242833    10141.033 
 8215000   -200943.87    1.6554014 0.00016035292    65.472705    64.830137    64.958188    10158.129 
 8220000   -200907.96    1.6295637 -0.0026052867    65.753674    64.644446    64.901528    10175.257 
 8225000   -200829.24    1.6061762 -0.00050705102    65.461182    64.714235    65.009345    10192.334 
 8230000   -200822.19    1.6093778 0.0012232842    65.270937    64.874811    64.664051    10209.367 
 8235000   -200844.13    1.6053035 0.0046673032    64.739729    64.990511    64.875729    10226.491 
 8240000   -200965.74    1.6033406 -0.0023060621    64.915718    64.883143    65.285574    10243.566 
 8245000   -201024.98    1.5614473 -0.00062298415    65.052192    64.844912    65.192907    10260.645 
 8250000   -200810.23    1.6182064 0.00056878869    65.248968    65.227463    64.761648    10277.734 
 8255000   -200803.94     1.617029 -0.0020856606     65.31195    65.064874    64.759538    10294.822 
 8260000   -200918.41    1.5560943 0.00031020242    65.358004    64.760648    64.627826     10311.91 
 8265000    -200894.7    1.6442348 -0.001270318    65.426423    64.673978    64.809176    10329.001 
 8270000   -200970.85    1.5990106 0.0031674367    64.794724    64.812897    65.043197    10346.106 
 8275000   -200754.13    1.5713894 0.00085219194    64.708181    65.388698    65.013771    10363.166 
 8280000   -200678.58    1.5967433 -0.0010721955    64.996825    65.140691     65.21134     10380.27 
 8285000   -200828.29    1.6282135 -0.0031862419    64.851304    64.958692    65.138484    10397.391 
 8290000   -200912.45      1.57447  0.006760771    65.123678    64.711862    64.506069    10414.471 
 8295000    -200913.5    1.6461483 0.0029131569    64.956824    64.789017       64.884    10431.542 
 8300000   -200936.88    1.6274471 -7.9342516e-05    64.977904    64.838745    65.067242    10448.638 
 8305000   -200875.58    1.5918003 -0.00087372832    65.110501    64.865506     64.86405    10465.798 
 8310000   -201022.42    1.6137769 0.00082122331     64.88324    65.054211    64.857772    10482.964 
 8315000    -200977.1    1.5846245 -0.0041958775    65.115577    65.068769    64.980689    10500.062 
 8320000   -200936.42    1.6157645 0.00049407466    65.145132    64.699901    65.010737    10517.163 
 8325000    -200884.3    1.5640482 0.00098382118    64.903036    65.099774    64.937529    10534.217 
 8330000   -200962.75    1.6076456 -0.00030077286    65.167282    64.632984    64.908746    10551.304 
 8335000   -200918.99    1.5761817 0.0022525709    65.488284    64.598804    64.660953     10568.36 
 8340000   -200977.35    1.5667828 -0.001379077    65.064624    65.058387    64.955222    10585.452 
 8345000   -201031.61    1.6063167 0.0041211387    65.177653    64.826364    64.800763    10602.559 
 8350000   -200987.29    1.6106484 0.0036330982    64.941174    64.797159    65.125319    10619.687 
 8355000   -200791.75    1.5889787 -0.0027994029    65.027018    64.999088    65.102001    10636.774 
 8360000   -200919.56    1.5869547 0.0026484386    64.760946     65.01111    65.071963     10653.87 
 8365000   -200970.15    1.6163953 0.0035871916    64.975891    64.545895    65.237203     10670.94 
 8370000   -200871.02    1.6293226 -0.0033607508    65.095993    65.025753    65.012557    10688.033 
 8375000   -200860.89    1.6154415 -0.0022220425    64.606257    65.218356    65.358027    10705.084 
 8380000   -200885.09    1.5986353 -0.0010774057    64.908186    65.189408     65.11821    10722.158 
 8385000   -200878.33    1.5498005 -0.0012265057    65.128639    65.002621    65.184735    10739.193 
 8390000   -200934.34     1.618074 0.00057199086    65.022544    65.012182    65.165976    10756.302 
 8395000   -200983.22    1.6156651 0.0025760862    64.823458    64.871438    65.345347    10773.385 
 8400000   -200867.28    1.5773144 0.0025015538    65.045365    64.735996    65.290987    10790.468 
 8405000   -200896.61     1.602005 0.0035578066    65.161045    64.728646    65.086518    10807.556 
 8410000   -200855.29    1.5884838 0.00080063631    64.946567    64.894411    65.242919    10824.641 
 8415000   -200924.83    1.5992588 -0.00076334531    65.195395    64.935685    65.059257    10841.724 
 8420000   -200946.14    1.5872532 -0.0034465489    65.051172    65.268643    65.169657    10858.849 
 8425000   -200812.18    1.6004502 -0.0018133484    65.221209    65.220163    64.931264     10875.94 
 8430000   -200802.63    1.6124012 0.00089833734    65.202214    64.998575    65.056105    10893.071 
 8435000   -200814.16    1.6082362 0.00050209784    64.799289    65.055599    65.183862    10910.189 
 8440000   -200962.85    1.6156755 -0.004281597    65.102164    64.960649    65.288208    10927.302 
 8445000   -201046.51    1.6166757 -0.0027484733    65.480388     64.97132    64.768386    10944.367 
 8450000   -201047.95    1.6336464 -0.00034049486     65.18015     64.90232    64.951308    10961.438 
 8455000   -200903.08    1.6217575 -0.0023203894    64.999227    64.994997    64.959257    10978.505 
 8460000   -200925.28    1.5930624 -0.0017065987    65.254963     64.85971    64.828924    10995.576 
 8465000   -200747.31    1.5759503 -0.0013191648    64.769692    64.992424     65.19245    11012.635 
 8470000   -200868.92    1.5911506 0.0014113533    64.676748     65.00534    65.121939    11029.709 
 8475000   -200944.94    1.5732971 -0.0076265749    65.095001    64.883352    65.142313    11046.766 
 8480000   -200934.94      1.64132 -0.0013747573    64.844304    64.853868    65.229315    11063.835 
 8485000   -200920.75    1.5796465 0.0027510488    64.975014    64.781111     64.90328    11080.913 
 8490000   -200893.65    1.6323512  0.001659884    65.057948    64.644921    65.183693    11098.008 
 8495000   -200940.85    1.5918416 -0.00039917759    65.144713    64.784979    65.095819    11115.048 
 8500000   -200895.34    1.6048407 -0.0032555619    64.719262    64.845461    65.408657    11132.157 
 8505000   -201027.84    1.5994559 0.00049523148    65.059267    64.418784    65.054535    11149.223 
 8510000   -201071.12    1.6215937 -0.0019611633    65.279078    64.353047    64.884627    11166.355 
 8515000   -201022.32     1.585378 0.00036610586    64.756115    64.713945    65.154478    11183.402 
 8520000   -200762.71    1.5795719 0.00030607545    65.143547    64.246754    65.311805    11200.486 
 8525000   -200941.45    1.6014165 -0.0018683438    65.087466    64.614305    65.271932    11217.562 
 8530000   -200930.21     1.613805 -0.0022756548    64.558327    64.786738    65.644496    11234.653 
 8535000   -201089.51    1.5958451 -0.0032475205    64.960442    64.653458    65.148803    11251.768 
 8540000   -200999.04    1.5993143 -0.00080756325     64.91615    64.457107    65.366717    11268.938 
 8545000   -201191.59    1.5789984 -0.0011660706    64.871233    64.721478     64.98654    11286.031 
 8550000      -200966     1.620799 0.0065142443    64.772422    64.485801    65.052317    11303.114 
 8555000   -200969.65    1.6300248 -0.00061531212    64.857923     64.71073    65.154822     11320.18 
 8560000   -201025.86    1.5737002 0.0021640639    64.905283    64.445413    65.177594    11337.304 
 8565000   -200925.62     1.606345 0.0015544521     64.61587    64.718066    65.331654     11354.41 
 8570000   -200910.28    1.6260291 -0.00019366993     65.12489    64.633115    65.066959    11371.495 
 8575000   -200726.47    1.6280744 0.00018078644    65.139085    64.626522    64.975452    11388.628 
 8580000   -200787.15     1.574537 0.0012621388    65.010187    64.681637     65.05793    11405.693 
 8585000   -200815.51    1.5824675 -0.0040317545     65.14286      64.5106    65.185139    11422.777 
 8590000   -200814.11    1.6029988 0.0034644771    65.306647    64.662859    64.623515    11439.853 
 8595000   -200855.61    1.5551815 0.0048771302    65.446365    64.488687    64.760893     11456.92 
 8600000   -200944.77    1.5594333 0.0001949762    65.169219    64.626887    65.002611    11473.982 
 8605000   -200800.76    1.5718495 0.0044120856    64.959375    64.682408    65.183419    11491.018 
 8610000   -200890.24    1.6271583 0.0038910891    64.815411    64.738301    65.094442    11508.056 
 8615000   -200749.61    1.6197234 0.0020373755     65.14474    64.612364    65.138292    11525.105 
 8620000   -200854.02    1.5886686 -0.0033050078    65.332309    64.827992    65.020631     11542.19 
 8625000    -200907.5    1.6073448 -0.0036184386    65.012567    64.845273    65.146658    11559.228 
 8630000    -200872.9    1.6024082 -0.0039629554    65.033257    64.687183    65.268017    11576.298 
 8635000   -200881.56    1.6105248 -0.00094829938    64.765342     64.93555    65.264733    11593.351 
 8640000   -200763.84    1.5837622 0.00082836828    64.827954    64.909737    65.183163    11610.481 
 8645000   -200870.52    1.6224764 -0.001828104    64.606329    65.092651    65.233903    11627.523 
 8650000   -200767.84    1.6266685 -0.00010488572    65.181047    64.657813      64.8521    11644.579 
 8655000    -200850.4    1.5858056 0.0061045924    64.716225    64.680459    64.938377    11661.666 
 8660000   -200971.29    1.6041701 -0.00048018722    65.133952    64.633407    64.888325    11678.795 
 8665000   -201010.66    1.6157507 0.0036027083    65.196338    64.659461     64.45791    11695.904 
 8670000    -201026.2    1.6125518 0.0059309695    64.778005     64.56901    64.817507     11712.97 
 8675000   -201125.47    1.6185464 -0.00014543446    64.696045    64.840178    64.951147    11730.019 
 8680000   -201029.24    1.6164537 -0.0014774571    64.936448    64.640771    65.143499    11747.093 
 8685000   -200923.69    1.6037511 0.0036030562    64.801286    64.593193     65.17134    11764.101 
 8690000    -200924.9     1.587102  0.005532431    65.002897    64.669971    64.982457    11781.224 
 8695000   -200905.72    1.6511433 0.00053280985    64.887209    64.718978    65.062878    11798.313 
 8700000   -200907.46    1.5605894 0.00060535841    64.962342    64.977171    64.770769    11815.417 
 8705000   -201030.57     1.585099 -0.0061684847    65.233164    65.093548    64.784014    11832.454 
 8710000   -200939.76    1.5907189 -0.0031106944    65.490396     65.00192    64.643363    11849.541 
 8715000   -201152.67    1.5945079 -0.0048002988    65.246922    65.048582    64.801332    11866.559 
 8720000   -201023.77    1.5520483 -0.0011226028    65.193159    64.822393    64.964318    11883.605 
 8725000   -200994.73    1.5800773 0.0026686178    65.099724    64.636052     64.95257    11900.643 
 8730000   -201069.34    1.6077214 9.9514299e-05    65.090842    64.593384    64.959082    11917.754 
 8735000   -201047.78    1.6127012 -0.0024860002    64.827691    64.885085     64.96176    11934.807 
 8740000   -200973.53    1.5807828 0.0037390658    64.929417    64.741468    64.613694    11951.944 
 8745000   -200852.39    1.5796473 -0.0027207143    64.990347    64.886213    64.791623    11969.048 
 8750000   -200900.83    1.5812965 0.0016847223    64.983199    64.721453    64.577115    11986.185 
 8755000   -200765.87    1.5928989 -8.5424182e-06    64.758039    64.819045    65.114285    12003.251 
 8760000   -200759.32    1.6665144 -0.0028426085    64.680971    64.696133    65.300102     12020.31 
 8765000   -200837.91     1.593583 -0.0030754096    64.959915    64.865252    64.853466    12037.361 
 8770000   -200996.71    1.5805747 0.0022927543    64.882958      64.7372    64.702666    12054.418 
 8775000   -201068.63    1.6429963 0.0026212029    64.863774     64.48423     65.11892    12071.477 
 8780000   -200889.18    1.6019373 0.0034175764    64.712768     64.99333    64.907478    12088.527 
 8785000   -200812.07    1.6142221 2.7468948e-05    64.816619    64.678758     65.13526     12105.56 
 8790000   -200967.58    1.6053764 -0.001633457    65.021293    64.696589    65.016528     12122.61 
 8795000   -200900.27    1.5835246 -0.0039570232    65.187526    64.737689    65.007454    12139.685 
 8800000   -200741.61    1.6103619 0.00025178254    64.987564    64.766026      65.1056    12156.784 
 8805000   -200732.92    1.5743933 -0.0024960327     64.87804    65.033397    65.050379    12173.869 
 8810000   -200809.47    1.5656245 0.00010724431    65.263986    64.845458    64.949296    12190.958 
 8815000   -200880.25    1.5978001 2.4631812e-05    64.646633    65.195409    65.097822    12208.029 
 8820000   -200967.08    1.5959436 0.00026405903    65.033269    64.707719    65.086198    12225.105 
 8825000   -200911.09    1.5552124 0.0017103343    64.698016    64.708097    65.261247    12242.165 
 8830000   -200951.59    1.5971313 0.0011433833    64.954222    64.757594    64.913992    12259.246 
 8835000   -201030.03    1.5948497 -0.0023766026    65.243186    64.599574    64.999724    12276.312 
 8840000   -200969.88    1.5530148 -0.0020645257    64.736124    64.865525    65.024418    12293.391 
 8845000   -200857.26    1.6375512 0.0013348783    65.069858    64.889553    64.790714    12310.411 
 8850000   -200852.26    1.6059293 -0.0028164257    65.272888    65.086087    64.730915    12327.449 
 8855000   -201026.93    1.6045655 0.0011150509    64.863043    65.094963    64.845365    12344.485 
 8860000   -200881.86    1.5740911 0.0038065768    65.057598    65.042015    64.602227    12361.556 
 8865000   -200932.02    1.5951721 0.0076122836    65.244885    64.885719    64.571543    12378.586 
 8870000   -200889.93    1.5786297  0.007337062    65.061323    64.939551     64.76235    12395.613 
 8875000   -200998.24    1.5916643 -0.00073297105    65.492876    64.731509    64.939225     12412.63 
 8880000   -201026.98    1.6029063 0.0015587614    65.450469    64.593584    65.072511    12429.722 
 8885000   -201146.79    1.5494518 -0.004564479    65.590122    64.690529    64.836713    12446.804 
 8890000   -201092.41    1.6074421 0.0041108484    65.036042    64.642399    64.964515    12463.877 
 8895000   -201077.95    1.6097925 0.0028527466    64.979234    64.926035    64.893961    12480.902 
 8900000   -200973.21    1.5877394 -0.00017112448    65.091843     65.18145    64.730793    12498.001 
 8905000    -200718.8    1.6051737  0.002273813    64.927465    65.411054    64.798769    12515.046 
 8910000   -200826.46    1.5941571 0.0014499707      65.0603    65.297841    64.535197    12532.174 
 8915000   -200887.82    1.6069377 -0.00026943094    65.213425    65.416996     64.42978    12549.191 
 8920000    -200943.5    1.6191745 -0.0042322087    65.241804     65.33375    64.652302    12566.241 
 8925000   -200784.48    1.5750621 -0.0025906341    65.508943    65.204761    64.547777    12583.288 
 8930000   -200923.09    1.6237088 -0.00088750722    65.241609    64.925545    64.843016    12600.381 
 8935000   -201087.98    1.6769639  0.002960522    65.170091    64.997557    64.657362    12617.416 
 8940000   -201133.81     1.610839 0.00072419201    64.954218    65.162136    64.699925    12634.505 
 8945000   -200997.98    1.6137974 0.0043302608    65.158743    65.277665    64.328595    12651.554 
 8950000   -200925.58    1.6161575 0.0026871288    64.904665    65.415334    64.492602    12668.639 
 8955000   -200943.71    1.6252294  0.001298933    64.507475    65.154556     65.02618    12685.749 
 8960000   -200845.22    1.6107769 0.0025471881    64.871081    65.137404    64.669773    12702.855 
 8965000   -201005.07    1.6169986 0.0027693366    64.734882    64.972282    64.985129    12719.892 
 8970000   -201013.64    1.6255822 -0.001074349    64.845586    64.871534    65.041098    12736.988 
 8975000   -200837.04    1.5709834 0.00045395308    64.779064    65.089621    64.818468    12754.058 
 8980000   -200795.31    1.6581417 -0.00061528392    65.161103    65.056798     64.64355    12771.158 
 8985000    -200822.2    1.5910119 -0.006235123    64.902823    65.202394    65.167892    12788.254 
 8990000    -200592.9    1.6088262 0.0015744252    65.290647     65.04514    64.864877    12805.287 
 8995000   -200775.61    1.6261137 -0.0015723141     65.18333    65.089544    64.712426    12822.322 
 9000000   -200743.69    1.6111168 0.00035226291    64.885606    65.218631    64.632103    12839.454 
 9005000   -200572.26    1.6186939 0.0014757699    65.046581    65.159685    64.574941    12856.531 
 9010000   -200630.44    1.6229753 -0.0020246016    65.049676    65.196532    64.886946    12873.588 
 9015000   -200854.47    1.6023471 8.6373081e-05    65.158186     65.16215    64.643894    12890.687 
 9020000   -200661.15    1.5857903 0.0040600685    65.142005    64.973291    64.539804    12907.755 
 9025000   -200631.99     1.595028 0.0085277244    64.993184    64.990478    64.602261    12924.774 
 9030000   -200613.74    1.6219809 0.0036126634     65.05316    65.207577     64.68117    12941.864 
 9035000   -200592.25    1.6377175 0.0027498056    64.773106     65.27013    64.736515    12958.873 
 9040000   -200735.68    1.6054956 0.0023064322    64.626195    65.242649    64.799192    12975.973 
 9045000    -200588.4    1.5833499 -0.0004387073    64.994572    65.042536    64.934327    12993.005 
 9050000   -200651.11    1.6297205 -0.00020833947    64.988816      65.0067    64.941341    13010.065 
 9055000   -200847.94    1.6142042 -2.1955126e-06    64.976694    65.316902    64.850508    13027.118 
 9060000   -200860.78    1.6137668 0.0034034371    65.075106    65.053727    64.649311    13044.259 
 9065000   -200740.73    1.6629365 -0.0031371052    65.303401    64.958697    64.955617    13061.279 
 9070000   -200699.14    1.5766171 -0.001133799    65.132075    64.773307    65.036186     13078.31 
 9075000   -200770.14    1.5312024 0.00011035969    64.950701    64.895705     64.90972    13095.392 
 9080000   -200841.61    1.5988583 -0.0026976847    65.064669    64.838694    64.885624    13112.481 
 9085000   -200850.84    1.6439601 0.0004741776    65.040682    64.770738    65.009674    13129.583 
 9090000   -200765.32    1.6071474 -0.00044469033    65.294978    64.686352    64.991222    13146.623 
 9095000   -200868.68     1.585331 0.0036000145     65.21179    64.604446    64.817298    13163.643 
 9100000   -200977.11    1.6106216 0.0021454073    65.187169    64.937507    64.810133    13180.696 
 9105000    -200865.5    1.5975377 0.0010951812    65.115204    64.842043    64.940101    13197.766 
 9110000   -200830.91    1.5896152 -0.0014182985     65.11959     65.04599      64.7784     13214.87 
 9115000   -200800.28    1.5719843 -0.0040341147    65.207643    65.204966    64.666177    13231.953 
 9120000   -200794.63    1.6560185 -0.0031013309    65.242894    64.980568    64.864244    13249.076 
 9125000   -200700.23    1.6027737 -0.0016162336    65.073251    65.240107    64.786748    13266.108 
 9130000   -200824.23    1.6241596 0.0024444199    65.057064    64.965773    64.893358    13283.213 
 9135000   -200889.53    1.6123316 -0.0026496864    65.085881    64.980496    65.054898    13300.289 
 9140000   -200836.41    1.5737648 -0.00080441095    65.309805    64.780995    64.875398    13317.375 
 9145000   -200884.23    1.6051058 -0.0010643723    65.266693    65.034949    64.759278    13334.411 
 9150000   -200781.79     1.612479 -0.0029488178    65.223115    65.028808    64.869591    13351.481 
 9155000   -200869.19     1.601203 -0.0019588322    65.308953    64.893404    64.907649    13368.569 
 9160000   -200833.48    1.6231149 0.0024740238    64.968741    64.747905    65.151849    13385.689 
 9165000   -200818.09    1.5843643   0.00368792    64.980454    64.917325    65.136312    13402.783 
 9170000   -200926.75    1.6400406 -0.0017245469    65.519798    64.766046    64.760194    13419.821 
 9175000   -201050.02    1.5865494 -0.0044457892    65.385346    64.876216    64.699429    13436.901 
 9180000   -201027.77    1.6077237 -0.0075438312    65.403314    65.075256    64.622954    13454.006 
 9185000   -201072.39    1.5825512 -0.0025672187    65.288608    64.802357    64.811367    13471.123 
 9190000    -200859.9    1.5859059 -0.00025490785    65.140465    64.807423    64.769768     13488.23 
 9195000   -200787.47    1.6530384 0.0011787779    65.315922    64.827492    64.757129    13505.328 
 9200000   -201000.46    1.6449666 0.0028217161    64.985836    65.040515    64.945406    13522.471 
 9205000   -200790.64     1.633791 0.0020165793    64.967721    65.013966    64.854987    13539.561 
 9210000   -200803.13    1.5867797 -0.0047161056    65.320101    64.851144    65.019773    13556.689 
 9215000   -200849.51    1.5637363 -0.0010731983    65.401907    64.915332    65.019545    13573.722 
 9220000   -200741.54    1.6304631 0.0023918108    65.011771    64.960172    65.068606    13590.818 
 9225000   -200905.57    1.6026991 -0.0001145285    65.414457    64.729133    64.947909    13607.889 
 9230000    -200992.2    1.5780997 -0.0025050592    65.199009    64.860041     65.13533    13625.015 
 9235000   -200992.51    1.6298218 -0.0035425245    65.246883    65.037467    65.006797    13642.069 
 9240000   -200920.76    1.5829004 -0.001776677    65.695031    64.932167    64.941985     13659.17 
 9245000   -200884.04    1.6670717 2.9232078e-05    65.989141    64.385653     64.90664    13676.224 
 9250000   -200998.31    1.5987639 -9.6085433e-05    65.668784    64.737666    64.685948    13693.311 
 9255000   -200825.29    1.6343439 -0.0004319417    65.579544    65.027509    64.479115    13710.395 
 9260000   -200671.75    1.6399286 -0.0027440167    65.307576    64.837395     65.14878    13727.492 
 9265000   -200631.72    1.5759454 -0.00017753146    65.351215    64.823749    65.035853    13744.495 
 9270000   -200819.47    1.5674861 0.00018872446    65.009625    64.939455    64.923788    13761.608 
 9275000   -200803.16    1.5890033 -0.003017172    64.979468     64.98836    64.897314    13778.735 
 9280000   -200975.34    1.5929982 0.00089542723    65.216769    64.740592    64.697903    13795.848 
 9285000   -200863.91    1.6012206 0.0012103261    65.268604    64.788641    64.680588    13812.954 
 9290000   -200936.93    1.5769687 0.0014257145    65.133701    64.918697    64.515808    13830.024 
 9295000    -201048.7    1.6164029 -0.0026818293    64.856409     64.96066    64.649726    13847.083 
 9300000   -201065.71    1.6067074 -0.00096730519    65.200139    64.860895    64.479019    13864.131 
 9305000   -200821.03    1.5842151 -0.0063087816     65.14775    64.798605     64.88104    13881.159 
 9310000   -201079.68    1.5584307 -0.0046899614    64.938458    64.814086    64.833775    13898.238 
 9315000   -200876.65    1.5727052 -0.004318759    64.841735    64.687503     65.05453    13915.337 
 9320000   -200847.22    1.6452523 -0.00045262086    64.896029    64.774367    64.614815    13932.423 
 9325000   -200988.54    1.6077127 0.0016296811    64.818411    64.632791    64.749817    13949.484 
 9330000    -201117.4    1.5972863 0.0024876683    64.575802    64.899777    64.574806    13966.611 
 9335000   -201087.62    1.5778872 0.00088922391     64.65369    64.935819    64.278233     13983.77 
 9340000   -201153.44    1.6040864 -0.001132109    64.793602    64.880203    64.197727    14000.918 
 9345000   -200913.04    1.5399407 -0.00086052798    64.837248    64.867921    64.520785    14018.059 
 9350000   -201011.15    1.5824047 -0.0017135851    65.222082    64.819624    64.415698    14035.236 
 9355000   -201063.97    1.6386703 -0.0028076208    64.985267    64.978083     64.40117    14052.291 
 9360000   -201007.28     1.581462 0.00087221015    65.068187    64.569586    64.408884    14069.438 
 9365000   -200941.15    1.6277436 0.0010946677    65.023228    65.002548    64.312691    14086.597 
 9370000   -201038.32    1.6317673 -0.0012587101    65.374458    64.501493    64.365808    14103.755 
 9375000    -200927.6    1.5768412 0.00029920247    65.078552    64.675159    64.273512    14120.885 
 9380000   -201087.86    1.5880377 0.0022032396    64.779698    64.798519    64.457694    14138.017 
 9385000   -201033.64    1.5944358 -0.0044671832    64.958881    64.714924    64.707004     14155.15 
 9390000   -201157.54    1.6194869 0.0027782007    65.049124     64.31723     64.73674    14172.297 
 9395000   -201192.74    1.6115494 -0.0026202475     65.05701    64.745031    64.353215    14189.441 
 9400000   -200900.23    1.5793881 0.0020436879    65.052359    64.658502    64.615627    14206.628 
 9405000   -200971.82    1.5711612 -0.001364848    65.358121    64.627467    64.465941    14223.765 
 9410000   -201068.37     1.582177 -0.0018288498    65.234921    64.534264    64.501608    14240.887 
 9415000   -201040.95    1.6198216  0.002137776    65.159614    64.368848    64.636003    14257.992 
 9420000   -201010.05    1.6383506 0.0060792689    65.144927    64.375117    64.853614    14275.147 
 9425000   -201092.01    1.5737384 0.0027487131     65.31944    64.594221    64.601981    14292.214 
 9430000   -200879.84    1.6185083 0.00067161808    65.569857     64.71962    64.669294     14309.33 
 9435000   -201105.98    1.5986114 0.0064473017    65.008547    64.667078    64.718509    14326.418 
 9440000   -200947.47    1.5961539 0.0017144337    65.261441    64.917285    64.796879    14343.463 
 9445000   -200918.94    1.5847232 -0.0036733364    65.135486    65.137812    65.153589    14360.541 
 9450000   -200820.52    1.6599131 -0.0018537672    65.313884    64.894614      65.1256    14377.637 
 9455000   -200947.89    1.5613987 0.0022144754    65.233211    64.763142    65.082125    14394.716 
 9460000   -200857.56    1.5835554 0.0017153818    65.064959    65.046314    64.992604    14411.754 
 9465000   -200862.41    1.5834684 -0.0016751497    65.022341     64.81591    65.150213    14428.782 
 9470000   -200894.68    1.6126989 -0.0037676524    65.181111    64.980323    65.055691    14445.846 
 9475000   -200890.77    1.6420747 -0.0006153321    65.099166    64.975522    64.884176    14462.941 
 9480000   -200965.88    1.5973954 0.0031811837    64.977071    64.783312    64.983163    14479.994 
 9485000   -200950.13    1.6118145 0.0036054039    65.138717     64.64693     64.99352     14497.05 
 9490000    -200913.6    1.6074572 0.0039798863    65.348344    64.780547    64.619326    14514.151 
 9495000   -200923.58    1.6079182 0.0034023194    65.095028    65.028061    64.590091    14531.255 
 9500000    -200899.2    1.5322636 0.00015554596    65.300354     64.73764    64.680036    14548.385 
 9505000   -200756.85    1.5595064 0.0034101724    65.445608    64.293216    64.869123    14565.479 
 9510000   -200907.24    1.5976385 -0.0017893899    65.155992    64.861529    64.800947    14582.618 
 9515000    -200859.7    1.6383207 0.0009699738    65.169251    64.683674    64.940715    14599.685 
 9520000   -200825.27    1.6458925 0.0052814229    65.149683     64.68143    64.773637    14616.786 
 9525000   -200840.01    1.6482911 0.0015620244    64.882892    64.794771    64.967503      14633.9 
 9530000   -201096.07    1.5506106   0.00353477    65.093195    64.615532    64.661943    14651.011 
 9535000    -200930.9    1.5761286 0.0029055925    65.310501    64.616359    64.683233    14668.087 
 9540000   -200870.51    1.5908678 0.00014865832    65.222861    64.551683    65.018915    14685.147 
 9545000   -200886.64    1.6108608 -0.0006173169    65.012781    64.954489    64.992587    14702.234 
 9550000   -200935.58    1.5586715 0.0048268819    64.952082    64.950429    64.824319    14719.336 
 9555000   -200973.37    1.5836422 0.0051178658    64.978381    64.692772    64.985156    14736.383 
 9560000   -200847.65    1.6059359 -0.0018695281    65.354175    64.578232    64.982818     14753.46 
 9565000   -200953.89    1.6040744 0.0010563805    64.887293    64.910387    64.839814    14770.541 
 9570000   -200729.44    1.5834654 -0.0031682903    64.939604    64.756967    65.254215    14787.677 
 9575000   -200676.78    1.6069744 0.0033131429    64.928043    64.671923    65.091239    14804.736 
 9580000    -200727.8      1.62303 -0.00042392611    65.181832    65.106218    64.643968    14821.825 
 9585000   -200909.59    1.6101622 -0.0040615153    64.955441    65.235272      64.6732    14838.894 
 9590000   -200881.63    1.5890721 -0.00090491619    65.061002    64.895538    64.853634    14856.001 
 9595000   -200896.72    1.6272296 0.0044156742    64.993139    64.674639    64.870915    14873.061 
 9600000   -201067.67    1.5748806 0.0033062151    65.089426    64.637186    64.853751    14890.173 
 9605000   -200972.35    1.5382776 0.0058367149    64.876171    64.880747    64.829042    14907.286 
 9610000   -200788.68    1.5810961 0.0051591982    65.481607    64.713799    64.810821    14924.352 
 9615000   -200799.11    1.5657349 0.0032623496    65.040461    64.862661    65.043405    14941.366 
 9620000   -200745.42    1.6042161 -0.0025152961    65.315822    64.912038    65.015188     14958.48 
 9625000   -200781.16    1.5977841 0.00076312731    65.354953    64.856773    64.778944    14975.539 
 9630000   -200691.79    1.5734779 -0.0032297216    65.231481    64.734934    65.138495     14992.63 
 9635000   -200844.69    1.6094742 0.0039472193    65.248123     64.62148    65.041906    15009.684 
 9640000   -200812.99    1.5971953 0.0044533857    65.448745    64.666426    64.980162    15026.851 
 9645000   -200838.27    1.5723686 0.00037274731    65.038739    64.944078    64.982221    15043.927 
 9650000   -200774.26    1.5991972 0.0019858698    64.971228    64.658896    65.342305    15061.067 
 9655000   -200862.47    1.5738672 0.0028959693    65.109858     64.75466    64.792404    15078.094 
 9660000   -200962.69    1.5686228 -0.0013737085    65.149922    64.779407    64.835329      15095.2 
 9665000    -200831.8     1.574362 -0.0011968444    65.014403    64.857236    64.901935    15112.288 
 9670000   -200949.68    1.6043838 -0.0024846719    65.021269    64.855783    64.946974    15129.443 
 9675000   -200733.17    1.5838396 -0.0022524316    65.043159    64.664274    65.251318    15146.556 
 9680000   -200859.32    1.5857924 0.00047806768    64.968401    64.782256    65.084928    15163.702 
 9685000   -200884.78    1.5412674 -0.002830561     65.12847    64.717848    64.826526    15180.834 
 9690000   -200953.14    1.5873676 -0.0022271549    65.184339    64.705127    64.970203    15197.968 
 9695000   -200880.71    1.6130629 0.00054479283    65.021192    64.651207    65.083722    15215.021 
 9700000   -200851.78    1.6058765 0.00021398752    64.917868    64.878319     64.92667    15232.187 
 9705000   -200894.51    1.6197591 0.00075179944    64.955266    64.692423    64.965537    15249.253 
 9710000   -201013.73    1.6137494 0.00086472618    65.214224    64.630108    64.920852    15266.341 
 9715000   -200933.86     1.582016 0.0012933582    65.441322    64.501127    64.909702    15283.417 
 9720000   -201007.14    1.6151488 0.0018139423    65.190892    64.521055    65.102532    15300.525 
 9725000    -201055.8    1.6080598 -0.0006321936    65.000032    64.605162    65.365899    15317.568 
 9730000   -200823.58      1.59972 -0.00086159848    65.084011    64.737798    64.991777    15334.712 
 9735000   -200976.38    1.6146681 -0.00026492857     65.35412    64.710162    64.591271    15351.756 
 9740000   -200922.55    1.6193822 0.0023223109    65.113049    64.538351    64.883827    15368.895 
 9745000   -200784.14    1.5870067 -0.0045638742    64.906086    64.915429    65.007029    15386.026 
 9750000   -201103.44    1.6198457 -0.0024607601     64.69944    64.821972    65.111179    15403.177 
 9755000   -200837.52     1.619382 -0.0021274146     65.04878    64.669241     64.99945    15420.309 
 9760000   -200636.13    1.5808079 0.0019770957    64.922257    64.902514     64.78042    15437.443 
 9765000   -200811.83    1.5822395 0.0045709846    64.699179    64.772279    65.007986    15454.567 
 9770000   -200774.64    1.5708311 0.0021386801    64.696873    64.757838    65.209611    15471.668 
 9775000   -200898.03    1.5877119 0.0011089695    64.815119    64.647248     65.30242    15488.794 
 9780000   -200737.82    1.5704056 -8.7999795e-05    64.853493    64.634951    65.500753    15505.944 
 9785000   -200838.94      1.63064 0.0002165866    65.123613    64.707864    65.221977    15523.059 
 9790000   -200848.22    1.6134545 0.0017475895    65.067715    64.816842    64.888569    15540.167 
 9795000   -200987.42    1.5735229 -0.0040812187    65.056603    65.018115    65.196279    15557.243 
 9800000   -200702.64    1.5872464 -0.0026764132    65.258526     64.79316    65.239575     15574.35 
 9805000   -200829.29    1.6052853 -0.0048287242    65.611463    64.935078    64.861524    15591.425 
 9810000   -200848.37    1.6154397 0.0024736782    65.355687    64.534998    65.371752    15608.499 
 9815000   -200853.87    1.5857124 0.00010548388    65.332642    64.822018    65.309461    15625.574 
 9820000    -200906.5    1.6007726 0.0014913757    65.182456    64.744345    65.384825    15642.706 
 9825000   -200898.57    1.5844173 -0.0017283461    65.144552     64.97155    65.460923    15659.816 
 9830000   -200810.55    1.5930686 -0.0061301643    65.358728    64.850384    65.276291    15676.938 
 9835000   -200788.56    1.6237371 -0.0023895285    65.054072    64.646717    65.536368    15694.041 
 9840000   -201083.32    1.5923217 0.0040614625    64.723964    64.748426    65.403266    15711.154 
 9845000    -201017.4    1.5885994 0.0022197439    64.836734    64.952156    65.164279    15728.216 
 9850000    -200950.8    1.6034401 -0.0025397254    65.672307    64.722758     64.88467     15745.37 
 9855000   -200965.92    1.6091859 -0.003363844    65.570616    64.851521    64.770185    15762.475 
 9860000   -200984.22    1.5991278 -0.00055583927    65.569992    64.995498    64.634538    15779.609 
 9865000   -200918.41    1.5853515 -0.0039192881     65.35369    65.040133    64.944398    15796.733 
 9870000   -200986.34    1.6689798 0.00045887633    65.287927    65.134183    64.718811    15813.856 
 9875000   -200969.37    1.6362367 -0.0018796549    65.567216    64.849735    64.930141     15830.98 
 9880000   -201012.34    1.5973903  0.004535836    65.279383    64.770776    64.844006    15848.099 
 9885000      -200936    1.6265623 0.0017937272    64.821418    65.078789    65.009176    15865.157 
 9890000    -201072.6    1.6180841 -5.1676575e-07    65.026426    64.642753    65.146818    15882.281 
 9895000   -200967.96    1.5841669 -0.0028665394    65.243028    65.010898    64.700355    15899.395 
 9900000   -200919.94    1.6095511 -0.0017084329    65.068546    64.944742    64.731297    15916.575 
 9905000   -201047.54    1.6203369 -0.0039167387    64.684074    65.051752    65.066523    15933.667 
 9910000   -200887.51    1.5931111 -8.3417489e-05    64.990988    65.296885    64.702744    15950.807 
 9915000   -200786.42    1.5300687 0.0012057097    64.833523    65.178784    65.146735    15967.868 
 9920000   -200924.13    1.5957219 0.0017000455    64.628923    65.109605    65.302341    15984.957 
 9925000   -201101.02    1.5588611 -0.0023941634    64.818856    64.915787    65.061985    16002.049 
 9930000   -200994.83    1.5927053 -0.0028991897    65.134002    65.022444    64.878684    16019.189 
 9935000   -201071.28    1.5892401 -0.00025963718     64.99344    64.978283    64.859438    16036.277 
 9940000   -201188.99    1.5746668 0.0039558156    64.778612    64.748362    64.929873    16053.405 
 9945000   -201103.88    1.6163775  0.003996414     64.83107     64.77808     64.99735    16070.495 
 9950000   -201249.87    1.6162098 0.0032036677    64.464655    64.762992    65.325445    16087.561 
 9955000    -200963.7    1.6190874 0.0036950523    64.263765    64.958056    65.471465    16104.676 
 9960000   -200919.99    1.6063239 0.0025179192    64.774802    64.760988    65.232988    16121.805 
 9965000   -200936.36    1.5940043 0.0038160549    64.792664    64.924654    64.945943     16138.89 
 9970000   -200862.99    1.5928697 0.0023440164    64.722709    65.031619    65.093362    16155.981 
 9975000   -201010.31    1.5834679 0.00069350878    64.637927    64.846724    65.279576    16173.035 
 9980000   -200969.45    1.5495855 0.0019694962    64.823782    64.474172    65.464816    16190.083 
 9985000   -200863.49    1.5816122  0.001902299    64.887811    64.894324    65.156063    16207.184 
 9990000   -201038.75    1.5757005  -0.00138505    65.138642    64.767557    65.167765    16224.243 
 9995000    -200818.9    1.6306398 0.0029506491    65.194101    64.928301    64.803095    16241.315 
10000000   -200740.12    1.5836491 0.0020572228    65.311107    64.905791    64.884342    16258.371 
10005000   -200852.87    1.5920646 0.0045578688     65.21383    64.816177     64.84022    16275.436 
10010000   -200951.77    1.6092751 0.00029976117    65.164263    64.947324    65.025849    16292.563 
10015000   -200953.92     1.540521 -0.0033471437    65.195618    64.935163    65.258726    16309.644 
10020000   -200954.34    1.5772536 -0.0036774357    65.184992    64.709099      65.1928    16326.751 
10025000    -200915.1    1.5458915 -0.0034513323     65.12611    65.149545    64.943397    16343.793 
10030000   -200778.53    1.6166241 -0.0053055866    65.203703    64.968267    65.030262    16360.918 
10035000   -200841.71    1.6019778 0.0014807011    65.182227     65.00953    64.947689    16378.014 
10040000   -200878.28    1.5742996 -0.0050171155    65.119023    65.363647    64.943651    16395.076 
10045000   -200826.93    1.5824363 -0.0041590593    65.105205    65.413966    65.032916    16412.104 
10050000   -200919.44    1.6559465 0.0027499078    65.179125    65.280388    64.711844    16429.199 
10055000   -200814.31    1.6262003 0.0020738653    65.050694    65.566235    64.827148    16446.237 
10060000   -200672.59    1.6035982 0.0027580824     65.13716    65.078367    65.172607    16463.265 
10065000   -200790.99    1.6189748 0.0046966601    65.228456    64.872614    65.111041    16480.282 
10070000   -200765.08    1.5809458 0.00092576782    65.145635    64.829075    65.391557    16497.313 
10075000   -200898.63    1.5731614 -0.00084096828    65.174543    65.166856    65.186082    16514.351 
10080000   -201027.65    1.5985211 0.00079066797    65.378716    65.012979    64.886431    16531.436 
10085000   -200846.12    1.5435224 0.0032263783    64.970543    65.158318    64.852042    16548.438 
10090000   -200797.37     1.593605   0.00255196    65.010965    64.878821    64.994326    16565.495 
10095000   -200824.62    1.5878837 -0.00017277584    65.301687    64.707585    65.177891    16582.523 
10100000    -200844.5    1.5755477 -0.0015617287     65.42492    64.664957    64.756764    16599.657 
10105000   -200911.47    1.6533835 0.00035576488    65.031035    64.779656    64.978526    16616.735 
10110000   -200907.58    1.6139258 0.0049125176    65.232744    64.640737    64.994055    16633.832 
10115000   -200803.55    1.6261412 0.0016922109    65.281205    64.781896     65.04406    16650.877 
10120000   -200923.26    1.5942304 -0.0030137859    65.347734    64.807045    65.036266    16667.965 
10125000    -201058.3    1.6059703 0.0010922201    65.334363    64.694193     64.87534    16685.057 
10130000   -200716.85    1.5936231 0.0024851663    65.336382     64.83929    64.990501    16702.181 
10135000   -201133.55    1.5817608 0.0079666437    64.954759    64.780326    64.821249    16719.252 
10140000   -200972.33    1.5953419 -0.0010315576    65.442099    64.925946    64.811511    16736.347 
10145000   -200983.35    1.6263815 0.0005474265    65.663319    64.712602    64.587401    16753.448 
10150000   -200890.21    1.6195828 0.0012151788    65.117349    65.152172    64.657755    16770.497 
10155000   -200846.73    1.5945584 0.0016128223    65.130673    64.869321    64.656898    16787.551 
10160000   -200826.93     1.613898 -0.00039475233    64.827074    65.155152    64.807154    16804.622 
10165000   -200888.22    1.6280173 -0.00079648879    65.245754     64.99417    64.735253    16821.651 
10170000   -200696.84     1.599718 0.0038292224    64.809958    65.048403    64.962469    16838.777 
10175000   -200777.93    1.6135138 -0.0024651923    64.923292    65.252508    64.873284    16855.868 
10180000   -200749.89    1.5989977 -0.0014683421    64.939301    65.129244    65.017951    16872.936 
10185000   -200813.44    1.6243087 0.0037916114    64.782405     65.16448    64.851888    16889.976 
10190000   -200805.47    1.5842417 0.0024469984    64.745722    64.997556    64.964384    16907.069 
10195000   -200709.18    1.5756726 0.0042231657    64.708626     65.07444    64.979932    16924.114 
10200000    -200635.1    1.5749739 -0.0025465125    64.925566    65.482889    64.697779     16941.21 
10205000   -200785.58    1.5712812 -0.0018785046    64.768882    65.306302    64.866616    16958.281 
10210000   -200841.89    1.6547546 0.0041648469    64.899428    65.081404    64.777295    16975.377 
10215000   -200775.38    1.5848745 -0.001550538    64.825561    65.413165    64.776106    16992.471 
10220000   -200824.18    1.5585695 0.0015964399    64.734453    65.282665    64.531405    17009.552 
10225000   -200865.87    1.6252628 0.00080752168    64.926572    65.018434    64.620523     17026.64 
10230000   -200756.19    1.5666493 0.0017085344    64.813198    64.935174    64.873786    17043.743 
10235000   -200657.18    1.6053936 -0.00076799496    64.783137    65.255814    65.040276    17060.831 
10240000   -200679.93    1.5799565 -0.0068544481    64.909202    65.052588    65.023053    17077.902 
10245000    -200850.4    1.6054235 -0.0058324999    65.185215    65.140192    64.820747     17094.99 
10250000   -200917.67    1.6165754 -0.0022436155    65.015098    65.120441     64.88019    17112.069 
10255000   -201041.67    1.5375613 -0.0021075791    64.880518    65.014694    64.957014    17129.178 
10260000    -200947.3      1.58134 -0.0018977266    65.212011    65.102033    64.676865    17146.293 
10265000   -200959.34     1.557341  0.001395482     64.87618    65.234692    64.845684    17163.361 
10270000   -200980.96    1.6016068 -0.0013426216    64.884345    65.233466    65.019734    17180.433 
10275000   -200802.18    1.6570859 0.00027745136    64.981386    65.462957    65.004256      17197.5 
10280000   -200740.49    1.5984718 0.0016053696    64.539621     65.31356     65.11299    17214.542 
10285000   -200963.07    1.5869976 0.0042513452    64.996794    65.094253    64.790418    17231.622 
10290000   -200847.61    1.6085622 -0.0010469292    64.978578    65.390673    64.839422     17248.74 
10295000   -200806.35    1.5609055 -0.00032983403    64.948388    65.127884    65.076057    17265.867 
10300000   -200911.39    1.5441645 9.8831128e-05    64.826952    64.901981      65.2212    17282.964 
10305000   -200923.76    1.6225784 -0.0044834495    65.209905    65.149871    65.143973     17300.03 
10310000   -200991.53    1.6408848 -0.0026648482    65.071002    65.523895    64.885946    17317.122 
10315000   -200875.58    1.6450312 -0.0029758739    65.145419    65.320106    64.932864    17334.169 
10320000   -200658.92     1.615188 -0.00015675109    65.247227    65.091363    64.874389     17351.34 
10325000   -200736.28     1.585594 0.00073966292    65.350202      65.0863    64.689742    17368.409 
10330000   -200767.28    1.6151903 -0.001917669    65.188535    65.037106    64.781189    17385.496 
10335000   -200790.92    1.5762878 -0.00093732425     65.44672    64.944027    64.755735    17402.574 
10340000   -200712.71    1.6034091 -0.0014963402    65.068626    65.136988    64.921105    17419.679 
10345000   -200858.38    1.6291115 -0.0034905316    64.927239    65.019636    65.129957    17436.793 
10350000   -200801.87    1.5762079 -0.0031889889    65.222288    64.826036    64.921593    17453.934 
10355000   -200767.13    1.6345894 -0.0034703049     65.33433    64.897332    64.997266    17471.025 
10360000   -200675.99    1.5748689 -0.00085093485    64.821231    65.110295    65.028497    17488.084 
10365000   -200773.82    1.5997961 0.00077989669    64.796927    65.270057    64.833617    17505.136 
10370000   -200833.99    1.6486097 0.0024749342    64.936972     65.10573    64.780125    17522.226 
10375000   -200787.98    1.6090235 -0.0006915094    65.331111    65.052559    64.460922    17539.342 
10380000   -200757.52     1.632938 -0.0019516683    65.268922    65.055732    64.501852     17556.49 
10385000   -200750.89    1.5794397 -0.0051301567    65.195194    65.089929     64.68106    17573.555 
10390000   -200839.41    1.6463138  -0.00288568    65.362142     64.51994    64.954098    17590.706 
10395000   -200782.17     1.576874 -0.0011154529    65.088847    64.954552    64.617816     17607.81 
10400000   -200885.28    1.5955868 -0.00097803541    65.073701    64.925694    64.645516    17624.965 
10405000   -200904.25    1.5631524 -0.00087109431    64.775028    64.927681    64.825908    17642.065 
10410000   -200849.03    1.6183536 -0.0025046845    64.893473    65.250032    64.575317    17659.197 
10415000   -200884.72    1.5856479 -0.0066679473    65.382155    64.974229    64.461008    17676.237 
10420000   -200868.11    1.5773244 -0.0016354061     65.17487    65.023919    64.618295    17693.329 
10425000   -200891.33    1.5865497 0.0050325946    64.971236      65.0016    64.470359    17710.439 
10430000   -200989.58    1.5944503 0.0050800016    65.178234      64.9247     64.20744    17727.529 
10435000   -200889.97    1.5803292 -0.00036731275     65.21807    64.817394    64.630234    17744.607 
10440000   -200944.04    1.5631232 -0.0024693549    64.898262    64.970302    64.759276    17761.703 
10445000   -200975.26    1.5734714 -0.0009458089    65.097018    64.797118    64.869347    17778.831 
10450000    -200868.8    1.5370534 -0.0061747103     64.68934    65.242419    64.906173    17795.951 
10455000   -200875.54    1.5677964 -0.0047212709    64.823627    65.148335    65.009234    17813.035 
10460000   -200902.25    1.6312335 -0.00087741596    65.087467    64.964135    64.649857    17830.109 
10465000   -200938.92    1.5882673  0.002957032    65.053876    64.820309    64.770909    17847.169 
10470000   -200753.21    1.6109945 0.0026282239    65.043551    64.827345    64.815592    17864.271 
10475000   -200928.32    1.5748428 0.0023983483    65.279826    64.415537    64.763056    17881.338 
10480000   -200926.91    1.6312146 0.00057953121    65.100447    64.428573     65.02552    17898.473 
10485000   -201033.31    1.5947125 0.0053566464    64.729425     64.33818    64.964797    17915.585 
10490000   -200973.64    1.6196363  0.004891406    64.792613    64.354848    65.032934    17932.719 
10495000   -200909.52    1.6056579 0.0020658687    64.606966    64.567965    65.276759    17949.818 
10500000   -200965.21    1.6131153 0.0037744237    64.891365     64.24574    65.200391    17966.887 
10505000   -200942.37    1.5845627 0.0030770442     64.44132    64.769659    64.894722    17983.963 
10510000   -201062.32    1.6549247 -0.0024534533    65.003608    64.508328     64.85651    18001.101 
10515000    -200957.5    1.6427928 -0.0032231288    64.819574    64.498577    65.112926    18018.167 
10520000   -201006.09    1.5612361 -0.0025348923    64.630337    64.565612    65.204621    18035.349 
10525000    -200947.3    1.5949115 -0.0034151561    64.758447    64.546581    65.007111    18052.444 
10530000   -200859.06     1.576666 0.0023739228    65.015716    64.267555    65.152455     18069.51 
10535000   -201021.79    1.6116693 0.0049566655    64.999233    64.407499    64.926109    18086.588 
10540000   -200993.42    1.5886514 0.00053290052     64.99577    64.681553    65.020489    18103.698 
10545000   -200819.96     1.587016 -0.0025655424    64.654201    64.742345    65.205543    18120.775 
10550000   -200941.07    1.6330652 -0.0026195296    64.996852    64.518839    64.955497    18137.908 
10555000   -200642.41    1.6104066 -0.0060733843    65.146275    64.818802    64.798102     18154.92 
10560000   -200721.76    1.5975801 -0.0005026433    65.023462    64.691991    64.994249        18172 
10565000   -200862.86    1.6139655 0.0050274722    65.071252    64.443339     64.81142    18189.099 
10570000   -200861.07    1.5905906 0.0046106312    64.879285    64.747125    64.660503    18206.241 
10575000   -200919.24    1.6607487 0.0060802654    65.159147    64.572623     64.65059    18223.256 
10580000   -200972.37    1.5994664 0.0056948924    65.152041    64.533808    64.615675    18240.405 
10585000   -200831.38    1.6018943 0.0022608203    65.029927    64.591505    64.969437    18257.498 
10590000   -200912.94    1.5811981 0.00020832776    65.087818    64.491902    65.182659    18274.636 
10595000   -200758.56    1.5978441 0.00096925446    65.224052    64.397646    65.142517    18291.704 
10600000   -200721.54    1.6369749 0.0012093951    65.190072    64.364765    65.085032     18308.83 
10605000   -200972.83    1.6380105 -0.001500584     65.08025    64.677832    65.029148    18325.904 
10610000   -200977.75    1.5761657 -0.0019248203    65.220235     64.49913    65.164552    18343.034 
10615000   -200744.94    1.5872402 0.0023041257    65.064903    64.761368    64.956238    18360.159 
10620000   -200858.19    1.6329221 0.00071354216    64.882127    65.025665    64.732816    18377.269 
10625000   -201020.75    1.5785222 0.00057316373    65.174573    64.631401    64.935233    18394.368 
10630000   -200868.62    1.5682621 -0.00010187149    65.015219     64.56582    65.237954    18411.469 
10635000   -200882.42    1.6236471 -0.0027947129    65.201023    64.537217    64.796863     18428.52 
10640000   -200899.53    1.6534545 -0.0018159121    65.140139    64.600747    64.941646    18445.653 
10645000   -200865.23    1.6075179 -0.003416174    65.338962    64.633518    64.978722    18462.765 
10650000   -200786.88    1.5917315 0.0032438965    64.849386    64.698314     64.81258    18479.925 
10655000   -200915.53    1.5785848 0.00063380542    64.938766    64.484595     64.93435    18496.985 
10660000   -200827.54    1.5661849 -0.00043113451    64.963355     64.70797    64.737337    18514.134 
10665000   -200933.53     1.581545 0.00094556328    65.011119    64.850178    64.740783    18531.192 
10670000   -200865.72    1.5925231 0.00048523065    65.214278     64.91523    64.721314    18548.284 
10675000   -201046.01    1.5864584 0.00070814282     65.11539    64.867724    64.767495    18565.363 
10680000   -200882.33     1.593573 0.0010183699     65.22512    64.761092    64.945574    18582.484 
10685000   -200943.42    1.6122657 -0.002746902    65.107864    64.856081    64.912465    18599.601 
10690000   -200979.75    1.5827496 -0.00060619729    65.140545    64.693907    64.983944    18616.707 
10695000   -201006.41    1.5520659 -0.0015043681    65.103729    64.856519    64.881595    18633.747 
10700000   -200939.95    1.5925682 -0.0011798527     64.81693    65.109772    64.864017    18650.867 
10705000   -200738.06    1.6025357 -0.0023164322    65.228913    65.130546    64.893515    18667.934 
10710000   -200867.07    1.5678973 -0.00062142579    65.156442     65.04824    64.752712    18684.992 
10715000   -200941.63    1.5819594 0.0015008265    65.455542    64.473466    64.964404    18702.035 
10720000    -200971.9    1.6414561 0.0013313447     64.95217    64.831044    64.943639    18719.064 
10725000    -200941.5    1.6630505 0.00031980962    64.771802    65.013915     65.24288    18736.098 
10730000   -201005.87    1.5582074 0.0042832263    64.883571    64.897367    65.005995    18753.159 
10735000   -200943.79    1.5992446 0.0017795555    65.235257    64.736171    65.035059    18770.201 
10740000   -200696.95    1.6174911 -0.0024638654    65.167516    64.945977    65.292965    18787.335 
10745000   -200855.98    1.6345028 0.0017539711     65.02141    64.722482    65.221161     18804.44 
10750000      -200910    1.6244219 0.0012718101    65.125208     65.06594    64.813894    18821.518 
10755000   -200932.15    1.5751309 0.00079755909    64.976577    65.017183    64.943803     18838.61 
10760000   -200962.02    1.6044959 0.00090743749    64.758723    64.958639    65.278239    18855.654 
10765000    -200933.2    1.6056787 0.00046770961    64.680658    64.911431    65.161909    18872.756 
10770000   -200842.64     1.598431 6.1494988e-05    65.097807    64.872422    64.934304    18889.878 
10775000   -200819.92     1.635054 0.00013039806     64.97899    64.726193     65.24497    18906.966 
10780000   -200824.91    1.6353615 0.0030101939    65.328972    64.957419    64.757589    18924.093 
10785000   -200984.67    1.6292469   0.00457327    64.981724    64.779756    64.970008    18941.175 
10790000   -201039.07    1.5803524 -0.00072051803    65.173054    64.920719     64.96151    18958.262 
10795000   -201012.12    1.5485921 0.00058024896    65.082595    65.355484    64.556205    18975.343 
10800000    -200980.3    1.6180737 0.0026227508    64.709613    65.113185    65.078841    18992.398 
10805000   -200914.72    1.5708355 0.0030145447    65.050751    64.993198    64.700606      19009.5 
10810000   -200856.52    1.5643749 -0.0020497426    65.272305    64.723049    64.832355    19026.608 
10815000   -200893.67    1.5809319 0.0002552586    65.016153    65.067661     64.66587    19043.731 
10820000      -200879    1.6587549 0.0012559537     64.76746    65.057578    64.866254    19060.778 
10825000   -200988.86    1.5818657 0.0030046892    65.107332    64.558412    64.887774    19077.853 
10830000   -200913.32    1.6454908 -0.00054671867    65.131565    64.553848    65.155724    19094.928 
10835000   -200935.03    1.6312129 -0.0022993397    65.231847    64.865768    65.111311    19111.998 
10840000   -200945.76    1.6144548 -0.0013255968    65.461642    64.829179    64.839225    19129.065 
10845000   -201094.16    1.6280523 -0.0033405667    65.385349    65.046261    64.679045     19146.15 
10850000   -201246.08     1.603444 -0.0039476797    64.866887    65.364325     64.67132    19163.253 
10855000   -201003.02    1.6219797 -0.0023972886    64.903831     65.18702    64.982403    19180.342 
10860000   -200963.27    1.5964695 0.0035785745    65.005366     65.02144    64.743506    19197.444 
10865000   -201069.06     1.599072 0.00030865258    65.191531    64.975324    64.535005    19214.524 
10870000   -201164.77    1.6338668 0.0017809348    64.790174    64.895342    64.719138    19231.682 
10875000   -200930.11    1.6028454 0.0018894491    64.974453    65.356209     64.34502    19248.735 
10880000    -201105.8    1.5687255 0.0023381088    65.190656    64.760646    64.451126    19265.874 
10885000   -201179.99    1.5724929 -0.0010543975    65.084356    64.739517    64.806048    19282.966 
10890000   -201251.86    1.6346903 0.00090102753    65.199039    64.886561    64.355815     19300.05 
10895000   -201081.56    1.5632988 2.2406044e-05    65.178408    65.108736    64.086759     19317.12 
10900000   -201093.71    1.5607026 -0.0028239789    64.787356    65.350689    64.531921    19334.194 
10905000   -201019.36    1.6167068 -0.0012201585    65.088258    65.112875    64.493852    19351.287 
10910000   -201224.46    1.6369132 8.0388823e-05    65.063889     64.85216    64.471109    19368.434 
10915000   -201195.87    1.5742073 0.0022253787    65.238376    64.545847     64.61597    19385.505 
10920000   -201167.21    1.6131735 0.0011527875    64.901025    64.981397    64.516801    19402.604 
10925000    -200913.1    1.6132982 -0.0017543912    64.759335    65.145588    64.773309    19419.742 
10930000   -200951.46     1.611014 -0.0016797231    64.925622    65.198992    64.627871    19436.875 
10935000    -200953.4    1.5786307 -2.332734e-05    65.068664    65.042366    64.652225    19453.916 
10940000   -200776.28     1.616358 -0.0028537544    65.325875    64.914497    64.711738     19470.99 
10945000   -200960.28    1.5573762 0.00022248293    65.324847    64.561195    64.843091    19488.056 
10950000   -200879.12    1.5778064  -0.00308891    65.272305    64.880746    64.908755    19505.105 
10955000   -200947.18    1.6022356 -4.947851e-05    65.113367    64.967444    64.652403    19522.189 
10960000   -200980.92    1.6129477 -0.0061915738     65.41476    64.788933    64.775119    19539.244 
10965000   -200866.64    1.6420551 -0.0033254242    65.129527     64.90462    64.701621    19556.273 
10970000   -200790.19    1.5698861 0.00047507165    64.851679    64.963501    64.770901    19573.345 
10975000   -200937.46    1.6280615 -0.0018967411    65.035231    64.849182    64.704479    19590.429 
10980000   -200853.97    1.6799444 0.00057205855    65.123922    64.730891    64.806117    19607.525 
10985000   -200879.88    1.6249833 0.0044440775    65.088713    64.802919    64.634102    19624.615 
10990000   -200871.94    1.6060766 0.0013002909    65.170925    65.121952     64.56076    19641.709 
10995000   -200805.04    1.5735689 0.0032608781    65.061561     65.17495    64.301913    19658.749 
11000000   -200902.76    1.5620137 0.0054100453    65.204223    64.853323    64.397932    19675.815 
11005000   -201045.92    1.5513676 0.0018800979    65.152036    64.692573    64.826408    19692.846 
11010000   -200809.14    1.6277376 0.00011733637    65.334478    64.972356    64.670788    19709.942 
11015000   -200815.74    1.6130197 -0.0055495869    65.210185    65.076883    64.806644    19726.978 
11020000   -200973.94    1.5793648 0.00089329274     65.18997    64.624125    64.787022    19744.054 
11025000   -200831.23    1.5679702 0.0007988405    65.113008    64.810581    64.812538    19761.086 
11030000   -200861.87    1.6158542  -0.00169277    64.943772    65.048938    64.926332    19778.154 
11035000   -200767.52    1.6180919 -0.0035517396    65.159188    64.836857    64.998329    19795.198 
11040000   -200781.02    1.6022929 -0.0044710763     65.13423    64.953208    64.906685    19812.227 
11045000   -200848.06    1.5730081 -0.0018197218     65.09843    65.063162     64.80598    19829.304 
11050000   -200831.58    1.5792328 -0.00017714624    65.293385    64.843025    64.732773    19846.362 
11055000   -201018.67    1.5839866 0.0024789718    65.000329    65.203767    64.779138    19863.395 
11060000   -201126.57    1.5577759 0.0033309501    65.085646    64.970562    64.899791    19880.481 
11065000   -200943.26    1.6171593 0.0027204257     65.06516    65.022265    65.017997    19897.512 
11070000   -201011.08    1.6479432 0.0034263757    64.818142    65.387862    64.986517    19914.601 
11075000   -201010.88    1.6322069 -0.0027030267    64.760186     65.56089    65.113589    19931.618 
11080000   -200971.09    1.5596136 0.0011792342    64.979339    65.375879    64.899787     19948.67 
11085000   -201093.47    1.5650829 0.0012047935    65.036877    65.384794    64.879147    19965.723 
11090000   -200927.98      1.58382 0.0034359059    65.249281    64.785681    65.089814    19982.749 
11095000   -201004.13    1.6240669 0.0050937126    64.858225    64.888046    65.330713    19999.774 
11100000    -201027.7    1.6455265 0.0039434778    64.890472    64.988698    65.093777    20016.823 
11105000   -201054.23    1.5777666  0.004010988    65.148082    65.031548    64.726156    20033.869 
11110000   -200944.33    1.6111659 -0.0011726452    65.475011    65.059821    65.002081     20050.91 
11115000   -200927.41    1.5911444 -0.0046710961    65.398257    65.101817    65.145724    20067.971 
11120000   -200764.43    1.5914133 -0.0038920583    65.507406    65.107683    65.116778        20085 
11125000   -200821.99    1.5877098 -0.00060960827    65.343814    65.351662    64.780356    20102.052 
11130000   -200826.11    1.6104307 0.0028309121    64.977166     65.18836    65.279544    20119.082 
11135000   -200883.22    1.6022441 0.0014567127    65.121204    65.373225    64.923119    20136.128 
11140000   -200871.69    1.5900938 -0.0003842216    65.043224    65.382068    65.323991    20153.177 
11145000   -200769.43    1.5783927 0.00074973588    65.084231    65.140124    65.266982    20170.201 
11150000   -200816.65     1.536396 -0.0017007862    65.238061    65.468571    64.754747    20187.284 
11155000   -200906.78    1.6092062 -0.0027945361    65.322827    65.186585    65.011433    20204.328 
11160000   -200774.88    1.6478133 0.0021959765     65.02087    65.414936    64.914134     20221.41 
11165000   -200902.48    1.5931555 0.0055654385    64.862472    65.274565     64.82824    20238.443 
11170000   -200781.39    1.6143147 -0.00016333949    65.129644     65.32893    64.939571    20255.506 
11175000   -200826.32    1.6216557 -0.002058132    65.165511    65.178288    65.084256    20272.589 
11180000   -200866.35    1.6092662 0.00017477631    64.924104     65.32037    64.944134    20289.637 
11185000   -200932.23    1.6088612 0.0014473755    64.574891     65.43327    65.099808    20306.727 
11190000   -200775.47    1.6377877 -0.00048782327    65.073456    65.223159    64.950298    20323.796 
11195000   -200835.76    1.6229935 0.00059721821    65.448892    65.055591     64.63128    20340.836 
11200000   -200812.92    1.5433166 0.0011294166    65.113301     65.05641    64.925188    20357.902 
11205000    -200806.5    1.5828929 -0.0034279389    65.179438    65.216394    64.835624    20374.977 
11210000   -200867.27    1.6133023 1.7321504e-05    64.955494    65.489858    64.677067    20392.088 
11215000   -200990.51    1.5964166 0.0023574875    64.987226    65.383631    64.658379    20409.154 
11220000   -201038.22    1.6102666 0.0024301125    65.124636    64.848372    64.738456    20426.209 
11225000   -200953.65    1.5679586 -0.00046904839    64.928574    65.199625    64.692686     20443.28 
11230000   -200871.76    1.6050969 0.0062845791    65.085615    64.860462    64.463112    20460.304 
11235000    -200836.2     1.647365 0.0033440826    64.713118    65.163366    64.725496    20477.365 
11240000   -200974.71     1.574847 0.0041767033    64.825436    64.914369    64.763815    20494.498 
11245000   -200976.77    1.5977839 -0.00065682629    64.911716    64.810733    65.011735    20511.587 
11250000   -201018.32    1.6441501 -0.0015160989    64.691704    65.103393    65.008846    20528.731 
11255000   -201018.59     1.604401 -6.2488415e-05    64.941935    64.871571    64.961463    20545.814 
11260000   -200967.14    1.5891214 -0.006847962     64.93763     65.31897     64.89216    20562.881 
11265000   -200969.97    1.5969909 0.0041077654     64.85138    64.839353    64.926568    20579.954 
11270000      -201006    1.5903778 -0.0022246495    65.129169    64.797997    64.747606    20597.045 
11275000    -200957.7    1.5809138 0.00056429367    64.863668    64.944019    64.877502    20614.086 
11280000   -201133.16    1.6156403 0.0060836987    64.934912    64.522318    64.817559    20631.188 
11285000   -200996.76    1.6348035 -0.0012940252    65.160279    65.048146    64.589458      20648.2 
11290000   -200923.72    1.5863917 0.00088288927    64.998573     65.12337    64.601313    20665.298 
11295000   -200976.37    1.5970127 0.0010192169    65.211437    64.759276    64.715526    20682.375 
11300000    -200908.6    1.5482484 -0.002322849    65.030928    64.717097     65.11737    20699.455 
11305000   -201103.87    1.5875708  0.002391333    65.061948    64.894871    64.798014    20716.523 
11310000   -200801.58    1.6525969 0.0036656168    65.193534    64.814158    64.972326    20733.589 
11315000   -200847.11    1.6037846 0.0015129832    64.975506    64.835927    65.066773    20750.673 
11320000   -201012.45    1.6026588 0.0011654355     64.75012    64.956828    65.000482    20767.863 
11325000   -200661.15    1.5545235 -0.0024625298    65.150425    64.958984    65.011409    20784.963 
11330000      -200731    1.5980555 -0.0053278792    64.995387    65.137182    64.967107    20802.013 
11335000   -200960.56    1.5789582 -0.0070028905     64.86729    64.900919    65.168034    20819.071 
11340000   -200968.93    1.6047587 -0.0043617528    65.196101    64.763905    64.930588    20836.178 
11345000   -200990.13    1.5948704 -0.0019401264    65.080946    64.878052       64.719    20853.297 
11350000   -200823.48    1.5984108 0.0022065596    64.897934    64.986184    64.624206    20870.456 
11355000    -200993.3    1.5820981 -0.0039462593    65.025288    65.175331    64.640646    20887.572 
11360000   -201035.92    1.5613857 -0.00011522507    65.263305    64.774172    64.648813    20904.683 
11365000   -200977.38    1.6073188  0.001058299    65.261606    64.903476     64.47479    20921.803 
11370000   -201001.88     1.586175 -0.0010193443      64.9101    64.993019    64.799867    20938.956 
11375000    -201099.3     1.603602 0.0042169297     65.44336    64.439806    64.705543    20956.074 
11380000   -201123.99    1.5892885 0.00080830561    64.906722    64.795123    65.013927     20973.14 
11385000    -201112.3    1.5878675 -0.001658814    65.086275    64.926438    64.778529    20990.239 
11390000   -200996.75    1.5556654 0.0033163172    65.185914     64.70751     64.85527    21007.371 
11395000   -200962.49    1.5378004 0.0029786465    64.871475    64.962254    65.050457    21024.452 
11400000    -200823.9    1.5571349 -0.0012872499    65.036824    65.032021    64.879762    21041.541 
11405000   -201040.72    1.6184941 -0.0033861347     65.17824    64.891506    64.956756    21058.638 
11410000   -200977.58     1.599009 0.0017521144    65.281735    64.557947    64.983069    21075.734 
11415000   -200920.19    1.6056712 0.0042134656     65.10997    64.988127    64.700392    21092.802 
11420000   -200913.56    1.6107077 -0.00086134925    64.976634    65.366293    64.658262    21109.913 
11425000   -200981.87    1.6400524 0.0030124472    65.095021    64.917981    64.675195    21126.976 
11430000   -200896.08    1.6012606 -0.001146584    65.547847    64.850417    64.839185    21144.055 
11435000   -200981.83    1.5654893 -0.0041998087    65.321144    64.741235    65.051804    21161.103 
11440000   -200909.93    1.6084662 0.0006449884    65.090544    64.751377    65.032979    21178.189 
11445000   -200910.37    1.6157734 -0.0055018303    64.993971    65.091506    65.249372    21195.248 
11450000   -200728.03     1.604422 0.0039603664    64.783797    64.856953    65.138452    21212.317 
11455000   -200815.71    1.5773226 0.0027770448    65.120001    64.752318    64.876792    21229.433 
11460000   -200870.47    1.6251494 0.0001653518    65.183666    64.812459    64.912145    21246.546 
11465000   -200748.85    1.6185377 0.00080213729     65.17536    64.928499    64.901587     21263.65 
11470000   -200951.61    1.5731174 -0.00019111202    65.010666    64.891996    64.944935    21280.755 
11475000    -200850.8    1.6246293  0.001878571    64.988982    65.002137    64.967592    21297.882 
11480000   -200854.07    1.6189496 -0.00090605292    64.555281    65.056049    65.211196    21314.977 
11485000   -200792.22    1.6541902 -0.0036932832    64.770028    64.962032    65.325357    21332.067 
11490000    -200897.5     1.625684 -0.0018032975    64.697786    65.135028    65.117493    21349.153 
11495000   -201044.84    1.6287404 0.0029337975     64.60515    64.948214    65.043028    21366.228 
11500000   -201004.11    1.6166626  0.003057894    64.857564    64.763928    64.870343    21383.362 
11505000    -200838.1    1.5909357 -0.0023501909    65.071322    65.132566    64.805657    21400.505 
11510000    -200945.4    1.5802524 0.0026905167    64.558919    64.997513    64.933019    21417.615 
11515000   -200869.55    1.5978535 -0.0016316193    65.064797    64.905167    64.800441    21434.677 
11520000   -200922.04    1.6091479 -0.004074931    65.075769    65.029301    64.960444    21451.788 
11525000   -200991.72    1.5628572 -0.001443829    65.081731    64.725416    64.882934    21468.919 
11530000   -200884.96    1.6028613 0.00037199074    65.273983    64.972944    64.635457    21486.006 
11535000   -200755.59    1.5965262 0.00047840425    65.094661    65.191258    64.677417    21503.041 
11540000   -200957.95    1.6183395 0.00086054222    64.929777    65.034318     64.86317    21520.136 
11545000   -200784.05    1.6126381 -0.0010034986    64.934831    64.968133     65.00279    21537.232 
11550000    -200843.3    1.6143712  0.005911947    65.000636    64.861094     64.68483    21554.368 
11555000   -200860.52    1.5741424 -0.0010406912    65.262037    65.067547    64.601211    21571.406 
11560000   -200954.93    1.5604826 2.2539681e-05     65.10231    64.931857    65.041471    21588.519 
11565000   -201053.51    1.6109557 -0.0033659806    65.481337    64.615886    64.989242    21605.611 
11570000   -200919.91    1.6221575 -0.0031033327    64.951067    65.069285    65.294725    21622.715 
11575000   -200731.76    1.6170902 -0.00098841618    65.074563    64.845444    65.435359    21639.757 
11580000   -200666.41    1.6244482  -0.00154092    65.488087    64.625791    65.231481    21656.817 
11585000   -200947.09    1.6136155 -0.00069263563    65.430664    64.488129    65.263493    21673.912 
11590000   -200951.78    1.6262138 0.0067767121     65.37306    64.628167    64.783044    21691.018 
11595000   -200959.05    1.5841423 0.0051738452    65.429824     64.64114    64.780321    21708.057 
11600000   -200891.87    1.5811325 0.0017981988    65.163445    64.803052    65.159659    21725.148 
11605000   -200759.75    1.5831762 -0.003843508    65.452321    64.664944    65.169676    21742.229 
11610000   -200818.45    1.6080402 -0.00046310597    65.474983    64.599236    65.088809    21759.362 
11615000   -200997.26    1.6194301 0.0038187155    65.274028    64.567702    64.955901    21776.466 
11620000    -200856.9    1.5932198 0.00075142883    65.737536    64.454213    64.799546    21793.624 
11625000    -200859.3    1.6301224 0.0010394412    65.453897     64.64465    64.799159    21810.715 
11630000   -200979.06    1.5793509 -0.0024428053    65.394785    64.970282    64.678774    21827.758 
11635000   -201146.36    1.6182228 -0.0028410406    64.992587    64.871544    64.988091    21844.801 
11640000   -201059.08    1.6170418 0.00080917361    65.172205    64.589639    64.751965    21861.856 
11645000   -201045.61    1.5841712 0.0012200619    64.964377    64.636587    64.819949     21878.92 
11650000   -200847.95    1.6188909  0.002858057     65.11231    64.700095    64.831147    21896.087 
11655000   -200874.43    1.6020224 0.0052109203    64.910055    64.739787    64.891208    21913.176 
11660000   -201053.55    1.5822621 0.00039188254    65.056479    64.819894    64.647207    21930.321 
11665000   -201099.81    1.6078198 -0.00030848283    65.176035    64.852123    64.528437    21947.401 
11670000   -200993.33    1.6207998 -0.00087806989    65.148317    64.762962    64.735243    21964.487 
11675000   -200881.25    1.5939771 0.0027746628     65.08023     64.67974    64.830294     21981.56 
11680000   -200932.49    1.5649236 0.0029368108    65.130622     64.87853    64.587695    21998.631 
11685000   -201004.35     1.572689 0.0014543675    65.196054     64.62342    64.687671     22015.73 
11690000   -200937.56    1.6102252 0.00051118737    64.927021    64.767633    64.973287    22032.795 
11695000   -200959.45    1.6349523 -0.0041546091    65.182127    65.134216    64.814572    22049.823 
11700000   -201047.71    1.5994456 -0.0023829115    65.043521    65.020421    64.867347    22066.894 
11705000   -201127.55    1.5891021 -0.0038126265    65.333441    64.635202    65.049366    22083.972 
11710000   -201028.91    1.5907413 0.0045387333    64.958175     64.85166    64.885742    22101.076 
11715000   -200974.56    1.5913883 0.0028795908    65.009316     64.86025    64.925341    22118.174 
11720000   -201139.63    1.5975216  0.002060551    65.089152    64.882147    64.914566     22135.27 
11725000   -200857.61    1.6246334 -0.0021099919    65.186518    65.015255    64.764078    22152.332 
11730000   -200690.14    1.5888243  0.001762566     65.05337     64.89911    64.897908     22169.43 
11735000   -200887.09    1.5755622  0.003070739    65.067257    64.701093    64.935852    22186.479 
11740000   -200953.27    1.5800904 0.0013313462    65.032139    64.562141    64.957667    22203.621 
11745000   -200903.92    1.5422286 -0.0028615014    64.948667    64.762526     65.02237     22220.68 
11750000   -200983.18     1.620032 0.0024724916    65.106589    64.705569    64.786465    22237.712 
11755000   -201160.61    1.5850263 -0.0010962694    64.885309    64.761607    64.899862    22254.759 
11760000   -200902.28    1.6432445 -0.0024934434    65.062046    64.777963    64.829051    22271.863 
11765000   -200906.45    1.5793316 -0.0003883738    64.866087    65.033508    64.740633    22288.897 
11770000   -200941.09    1.5989083  0.002442161    64.258214    64.945436    65.193891    22305.987 
11775000   -200820.02    1.5511149 -0.0042402331    64.814049    64.978449    65.268273    22323.032 
11780000   -200849.51    1.6017338 -0.0049841131    65.025394    65.027084     65.18307    22340.127 
11785000   -200987.77    1.5691465 -0.0019852645    64.921898    64.819992     64.98756    22357.285 
11790000   -200984.41    1.6111795 0.00071817505    64.774042    64.529207    65.387928    22374.374 
11795000   -200875.48    1.5993122 -0.0045490168    65.325791    64.677999    65.064793    22391.435 
11800000   -200967.28    1.6054775 -0.0043998538    65.024883    64.926418    64.933425    22408.509 
11805000   -200957.18     1.606691 1.4379067e-05    65.182009    65.113906    64.794488    22425.559 
11810000   -200896.63    1.6093461 0.00048340544    64.941671    64.653379    65.205045    22442.652 
11815000   -200910.48    1.5897491 0.0016334539    64.945697    64.662893    64.933308    22459.707 
11820000   -200860.93     1.599753 0.0029639096    64.901576    64.915046    64.843045    22476.802 
11825000   -200814.78    1.5972833 0.00093005154    64.766204    64.999507    64.931606    22493.884 
11830000   -200963.75     1.565714 0.00085558048    65.051559    64.656571    64.871881    22510.996 
11835000   -200815.69    1.5297562 -0.002002971    64.950518    64.792577    65.017012    22528.061 
11840000   -200791.02    1.5679112 -0.0013092903    64.809988     65.10091    64.764526    22545.172 
11845000   -201014.39     1.610059 0.0053691874    64.887264    64.985806    64.450785    22562.274 
11850000   -200994.84    1.5983287 0.0021327874     65.14929    64.736014    64.610967    22579.339 
11855000   -200956.49    1.6521752 0.0011371775    64.979797     64.67658    64.905556     22596.44 
11860000   -200830.59    1.5487603 -0.0007499171    65.062992    64.814208    64.891931    22613.566 
11865000   -200860.02     1.647494  0.003338704    64.864224    64.828126    64.776835    22630.594 
11870000   -200956.11    1.6058535 0.0034533117    64.657062    65.029855    64.678797    22647.704 
11875000   -200987.62    1.5797814 -0.003983134    65.107086    64.954154    64.826133    22664.789 
11880000   -200998.39    1.6202834 -0.002443278    65.080437    64.866147     64.88284    22681.864 
11885000   -200805.37    1.5694209 -0.0011335469    65.174679    65.065976    64.698498    22698.903 
11890000   -200696.73    1.5979491 -0.00099404871    65.059596    64.674859    65.167962    22716.054 
11895000   -200796.88    1.5993531 0.00016766313     64.98937    64.765645    64.995254    22733.173 
11900000   -200753.59    1.5640408 0.0023397072    65.126475    64.593908    64.931001    22750.304 
11905000   -200829.57    1.6270777 0.0021061352    65.194119    64.445713    64.955686     22767.38 
11910000   -200692.08    1.6296519 -0.0020260618    65.530313    64.654998    64.944622    22784.502 
11915000   -200755.07    1.6071874 -0.0042739713    65.652828    64.606115     64.78189     22801.56 
11920000   -200829.99    1.6668143 -0.0003493987    65.455964    64.768947     64.74406    22818.622 
11925000   -201002.25     1.607765 -4.5731432e-06    65.322867    64.642748    64.815833    22835.687 
11930000    -200934.3    1.5415613 0.00012951254    65.270881    64.787556    64.919816    22852.754 
11935000   -200851.77    1.6177927 0.0039918243    65.413829    64.723836    64.813493    22869.788 
11940000   -200878.66    1.6227091 -0.00016386918    65.298426    65.109785    64.613745    22886.875 
11945000   -200935.51    1.6124392   -0.0057701    65.098996    65.159902    65.055087    22903.923 
11950000   -200886.42    1.5862147 -0.0019948092    64.824787    65.235101    65.044695     22921.01 
11955000   -201120.74    1.6244806 -0.00011363804    64.612199    65.505664    64.696699    22938.089 
11960000   -201070.67    1.6505175 0.00092603053    65.161194    65.094624    64.450715    22955.137 
11965000      -200876    1.5839047 0.0011494613    64.766046    64.901664    64.987502    22972.161 
11970000   -200948.81    1.6024067 -0.0015216151    65.130013    64.866368    64.917277    22989.251 
11975000   -200920.54    1.6370118 -0.00033629004     64.66571     65.23977    65.173194    23006.293 
11980000    -200857.6    1.5957788 -0.0018170974    64.911524    65.258221    64.921391    23023.382 
11985000   -200730.57    1.5831416 0.0051921409    64.645355     65.40091    64.970671    23040.425 
11990000   -200738.35    1.6163855 0.0032070077    64.780842    65.147141    65.007917    23057.502 
11995000   -200760.02    1.5797291   0.00181692    64.917242    64.741865    65.109283    23074.546 
12000000   -200830.73    1.6302595 0.00025252659       64.855     65.02959    65.216756    23091.644 
12005000   -200747.76    1.6048024 0.0012087483    64.603017    65.646021    64.854093    23108.706 
12010000   -200666.05    1.6419272 0.0051095954    64.691136    65.415405    64.925088    23125.778 
12015000    -200787.5    1.6445722 0.0059617305     64.68799    65.097658    64.865022     23142.84 
12020000   -200853.99    1.6172662 -0.00043127296    64.585043    65.234967    65.065499    23159.949 
12025000   -200948.39    1.6014009  -0.00170664    64.742023    65.070984    65.319322    23177.008 
12030000   -200790.97    1.6026387 -0.0025620581    64.624559    65.238781     65.10648    23194.075 
12035000   -200950.38    1.6266615  0.002551716    64.772043    64.987992    64.920172    23211.151 
12040000   -200851.25    1.6409195 0.0010967272    64.734618    65.104186    65.308463    23228.291 
12045000   -200854.69    1.6032776 0.0019052061    64.659197    65.184086    65.161417    23245.352 
12050000   -200811.53    1.6071035 0.0010736758     64.75384    65.159468    65.066439    23262.486 
12055000   -200822.25     1.583258 0.0011843608    64.763456    65.317773    64.892797    23279.561 
12060000   -200828.85    1.6403939 0.0053703944    64.608107    65.301693    65.071607    23296.649 
12065000   -200923.47    1.5650411 -0.00090020702    65.372619    65.047061    64.767616     23313.67 
12070000   -200829.53    1.5764531 8.6334629e-05    65.078163    65.157503    65.139941    23330.754 
12075000   -200954.85    1.6130699 -4.9475546e-05    65.313568    64.779828    65.158726    23347.806 
12080000   -200737.31    1.6312259 -0.00088937442    65.355705    64.807723     65.04686    23364.879 
12085000   -200902.55    1.5954326 -0.0029018511    65.315289    64.971846    65.060725    23381.922 
12090000   -200882.12    1.6388563 0.0021529617    65.724704    64.998216    64.684818    23398.962 
12095000   -200945.37    1.6319174 -0.0024471742    65.730653    64.860943    65.123036        23416 
12100000   -200797.95    1.5980861 -4.0343714e-05    65.325885    64.856425    65.365844    23433.064 
12105000   -200758.53    1.6499887 -0.00039940522    65.503165    64.950193    65.125515    23450.086 
12110000   -200890.93    1.6222041 0.0010766518    65.485887    64.731804    65.043684    23467.113 
12115000    -200822.9     1.609341 0.0049990841    65.443821     64.68283    64.949432    23484.167 
12120000    -200939.3    1.5525343 0.0036585073    65.398123    64.653541    64.938061    23501.229 
12125000   -200931.56    1.6192938 0.0038938256    65.143888    65.055114    64.939394    23518.287 
12130000   -200901.51    1.5875552 0.00054239166     65.02915    65.236308    64.890069    23535.352 
12135000    -200992.1    1.6118785 0.0014705718    65.190669    65.145957    64.506181    23552.398 
12140000   -200799.43    1.5646359 0.0026012648    65.078183     65.07542    64.746609    23569.476 
12145000   -200774.65    1.5837633 -0.001697184    65.337045    64.997544    64.815605    23586.543 
12150000   -200792.64    1.6149604 -0.0020184526    64.981102    65.256668    64.888196    23603.699 
12155000   -200919.97    1.6423862 0.0012917832    65.483194    64.451282    64.946084    23620.735 
12160000   -200905.03     1.590208 0.00061363377    65.031531    64.944101    64.668696    23637.798 
12165000   -200809.91    1.6094392 0.00047735327    64.866576    64.547798    65.186443    23654.877 
12170000   -200874.34    1.5827846 -0.00047895508     64.92885    64.909438     64.57671    23672.017 
12175000   -200717.65    1.6355393 0.0019323746    64.972711    65.070623    64.637698    23689.101 
12180000   -200959.85    1.6079143 -0.0017813437    65.157438    64.925982    64.726703     23706.16 
12185000   -200994.95    1.5772309 -0.0041789093     64.82165    65.117828    65.061411    23723.223 
12190000   -200953.12    1.5928545 -0.0037108803    65.059164    64.993156    64.835277    23740.341 
12195000   -200852.77     1.589228 -0.0018474935    64.990982    64.959662    64.881593    23757.425 
12200000   -200795.47    1.5888371 0.0019364541    65.066996    64.865915    64.761197     23774.54 
12205000   -200794.44    1.5949835 0.0018559961    64.918349    64.704305    65.118446    23791.626 
12210000   -200768.48    1.6357733 0.0036058028    64.808109    64.926771     64.96368    23808.702 
12215000   -200829.07    1.5977268 -0.00026723293    64.709676    64.761758    65.162928    23825.812 
12220000   -200807.56    1.5926916 -0.005007845    64.882406    65.210872    64.915333    23842.879 
12225000   -200966.01    1.6036215 4.4914566e-05    64.853316     64.95951     64.90161    23859.943 
12230000   -201015.73    1.6204397 0.00060244893    64.762343    64.868385    64.982553    23877.054 
12235000    -200903.2    1.5958587 -0.0032001483    65.201009    64.616933     65.02742    23894.131 
12240000   -201064.78    1.6052273 0.0012453958    64.954914    64.820932    64.921942    23911.217 
12245000   -200948.79    1.6286552 0.0040972349    65.007589    64.648135    65.035785    23928.288 
12250000    -200905.1    1.6092115 0.0027062493    64.938931    64.730399    65.076932    23945.393 
12255000   -200892.49    1.5889414 0.0013229388    64.866385    65.177171    64.948838    23962.465 
12260000   -200876.47    1.5995224 -0.00025983339    65.294366    64.813497    64.868117    23979.566 
12265000    -200851.9    1.6116786 0.0013406741    65.140958    64.757346    64.763524    23996.635 
12270000   -200929.54    1.5975691 0.0021002665    65.043513    64.795332    64.786147     24013.73 
12275000   -200932.27    1.6064529 0.0035463525    64.989014    64.903871    64.928568     24030.81 
12280000   -200966.04    1.6178389  0.001714788    64.898076    65.037807    64.907983    24047.922 
12285000   -200968.62    1.6193896 -0.00051986823    64.935056    64.849662    65.067843    24065.002 
12290000   -200905.11    1.5589594 -0.00025601573    64.846908    64.778914    65.477858    24082.089 
12295000   -200956.69    1.5578935 -0.00051237761    64.680577    65.266072    65.212037     24099.18 
12300000    -200885.5    1.6012337  0.003465347    64.295237    65.208928     65.45505    24116.262 
12305000   -200951.28    1.6280744 0.0016122361    64.488079    64.980998    65.509273    24133.276 
12310000   -200832.59    1.6505133 0.0013231977    64.704511    64.780165    65.426331    24150.395 
12315000   -200791.76    1.6038281 -0.00058659171    64.910995     65.01185    65.390442      24167.5 
12320000   -200769.82    1.6225037 0.0011204745    64.516366    65.336838    65.256826    24184.591 
12325000   -200968.89    1.6141122 -0.0025872007    64.786824    65.034068    65.340258    24201.678 
12330000   -200933.86     1.630027 -0.0020554905    65.166405    64.879586    65.081955    24218.766 
12335000   -200884.77    1.6024502 -0.0023403501    65.221934    64.669367    65.259145     24235.81 
12340000   -200851.82    1.6020774 0.0014087425    64.830589    64.901392    65.253965    24252.864 
12345000   -200938.83      1.60854 0.0039516094    64.842117    64.675195    65.219879     24269.93 
12350000   -200955.71    1.5434659 -0.00088758588    64.963016    64.843626    65.120312    24287.031 
12355000   -200856.53    1.6004414 -0.00085394738    65.020551    64.805889    65.351029    24304.069 
12360000   -201081.83    1.5749397 0.0010637847     64.88474    64.807008    64.980912    24321.187 
866 0.0026114441    65.542381     64.22049    65.049117    18639.791 
12370000   -200922.83    1.5791444 -0.0010082485    65.534609    64.266977    65.033817    18652.872 
12375000   -200812.08    1.6581645 0.00054002729    65.704352    64.389374    64.581296    18665.934 
12380000   -200944.52    1.6525272 0.0011134622    65.532868    64.511843    64.754566    18679.001 
12385000   -200962.62    1.6497662 0.0017296677    65.374123     64.69775    64.669774    18692.056 
12390000   -200875.55    1.5714973 -0.0016776832    65.399054    64.665771    64.875617      18705.3 
12395000   -200816.91    1.6069906 0.0014533754     65.17703    64.793502    64.773165    18718.434 
12400000    -200833.9     1.600822 -0.00047656608    65.153314    64.846968     64.94797    18731.552 
12405000   -200847.17    1.6591405 -0.0031697413    65.098169    64.990019    64.814484    18744.622 
12410000   -200880.14    1.6142637 0.0021432194    64.839149    64.830633    64.696459    18757.736 
12415000   -200791.76    1.6008951 0.00041827257    65.099573    64.937211     64.54758     18770.85 
12420000   -200913.19    1.6018794 0.0023645579    65.350498    64.709713    64.543124    18783.987 
12425000   -200893.16    1.6349711  0.005607622    65.192339    64.766371     64.59433    18797.028 
12430000   -200873.91    1.5441203 0.00095991319    65.523829    64.737354    64.695832    18810.152 
12435000   -200840.77    1.6070053 0.0022367815    65.330045    64.820929    64.811419    18823.286 
12440000   -201003.23    1.6341453 0.0024180824    65.002985    65.131582    64.606747    18836.319 
12445000   -201013.06    1.5682029 -0.0018400448    65.200604    64.947669    64.885568    18849.368 
12450000   -200823.32    1.6579119 -0.0034448803    65.256688    65.160709    64.801148    18862.423 
12455000   -200849.67    1.5385223 0.0019537115    64.990327     64.89849    64.845023    18875.488 
12460000    -200794.4    1.6018452 0.00027069805     64.93269    65.051371    65.131505    18888.558 
12465000   -200921.49    1.6214713 0.00084654546    64.831538    65.201382    64.827514    18901.606 
12470000   -201030.98    1.6026454 -0.0030779307    64.969722    65.037889    64.741652    18914.678 
12475000   -200821.97    1.5794466 -0.0011985113    65.110866    64.919513    64.822464    18927.735 
12480000   -200944.96    1.5981001 -0.00072110811    65.093033    64.768479    64.653808    18940.838 
12485000   -200806.09    1.5917196 0.00010397048    64.995473    64.806544    64.873732    18953.958 
12490000   -200795.18    1.6020423 -0.00050664129    65.297994    64.661216     64.86681    18967.053 
12495000   -200803.45    1.6234431 -0.002437671     65.41305    64.791642    64.831335    18980.114 
12500000   -200965.85    1.6086302 -0.0010101479    64.946998    64.833414    64.849449     18993.21 
12505000   -200816.42    1.5918835 -0.0025949548    65.019999    64.847065    64.700703    19006.307 
12510000   -200908.07    1.5955429 -0.0026531578    65.023353    64.790146    64.784883     19019.42 
12515000   -200904.06    1.6264716 -0.0028808547    64.832442    64.952381    64.823058    19032.498 
12520000    -201002.3    1.6262373 -0.0023850354    64.577869    64.864445    65.051912    19045.577 
12525000   -201059.06    1.6020633 -0.0019165089    64.513892    64.730913    65.050488    19058.636 
12530000   -200996.81    1.6071154 -0.0001808816    64.470793    64.784362    64.853179    19071.767 
12535000   -201108.15    1.6263988 0.0052653117    64.457044    64.523726     64.93888    19084.886 
12540000   -200941.32    1.6035331 0.0023630979    64.496709    64.630396     64.98789    19098.006 
12545000   -201029.18    1.6155316 0.0016331814     64.65657    64.668882    64.883161    19111.088 
12550000   -200911.21    1.5867262  0.004218756    64.294431    64.862415    64.927799     19124.25 
12555000   -200905.41    1.5860579 3.2208066e-05    64.572571    65.254828    64.799644    19137.424 
12560000   -200818.74    1.6045238 0.0015580943    64.303213    65.271717    65.106704    19150.502 
12565000   -201054.66    1.6000768 0.0047973713    64.498248    65.153777    64.792403    19163.604 
12570000   -200985.75    1.6001822 0.0018910754    64.941081    64.678498    65.209127    19176.679 
12575000   -200856.68    1.5871088 0.0057316568    64.813752    64.877745     64.92525    19189.757 
12580000   -201006.34    1.5929042 0.0059177177    64.823657    65.069676    64.631661    19202.785 
12585000   -201064.15    1.5841789 0.0028658228    64.879619    64.971509    64.714324    19215.898 
12590000   -201015.66    1.6135476 0.0011648709    65.119611    64.970486    64.635273    19229.003 
12595000   -200990.93    1.6061558 0.0017022251    64.825975      65.0751    64.928071    19242.067 
12600000   -200919.51    1.6266137 -0.0025127918    64.793941     65.42148    64.879437    19255.165 
12605000   -200917.42    1.5403859 0.0014507086    64.843489     65.14759    64.778312    19268.205 
12610000   -200953.52    1.6082956 0.0027446984    64.969311    65.092589    64.780088     19281.31 
12615000    -200869.6    1.6311623 -0.0052776978    64.781868    65.334537    65.310954    19294.371 
12620000    -201003.8    1.6272223 -0.005929892    64.657851    65.476563    65.368683    19307.398 
12625000   -200925.03    1.5726294 -0.0026119138      64.8176    65.222073    65.014514    19320.417 
12630000   -200939.16    1.5857225 0.0075248364    65.057897    65.060908    64.642542    19333.452 
12635000    -201012.4    1.6061557 0.0041397608    64.876036    65.253815    64.801836    19346.484 
12640000   -200834.58    1.5764156 0.0037196661    64.719895    65.343449     65.03955    19359.569 
12645000   -200797.09    1.5909281 0.0025268613    64.829805     65.25984    64.975551    19372.632 
12650000   -200854.59    1.6184869 0.0017392135    64.887846     65.27529    64.847947    19385.703 
12655000   -200876.71    1.5987155 0.0022312602    64.740064    65.215824    65.244854     19398.72 
12660000   -200802.07    1.5998741 -0.0032251188    65.054244    65.374677    65.231361    19411.699 
12665000   -200809.97    1.5695246 -0.0040529655     64.87367    65.536925     65.23699    19424.706 
12670000   -200972.67    1.6009249 0.0057042576    64.497796    65.119878    65.160309    19437.773 
12675000   -200988.87    1.5693193 0.00021228324    64.872041    65.214691    65.049413    19450.849 
12680000   -200911.97    1.6020016 -0.0022835403    65.218081    65.359373    64.652463    19463.911 
12685000   -200888.73    1.6331863 -0.0023559492    64.917743    65.119928    65.047522    19477.016 
12690000   -200939.63    1.5461884 0.0030316429    64.747294    65.162227    64.905577    19490.128 
12695000   -200817.01    1.5747087 -0.00098156479    64.987958     65.28947    64.788347    19503.138 
12700000   -200913.92    1.6759936 0.0032895241    64.601993    65.412551    64.868033    19516.173 
12705000   -200878.48    1.6055808 0.0048361927    64.951375    64.776649    64.949412    19529.289 
12710000   -200996.35    1.6049393 0.0049745744    64.927655    64.914482    64.904216    19542.316 
12715000   -200884.81    1.6053004 -0.0010096827    64.659417    65.317933    65.250704    19555.394 
12720000   -200794.84     1.578136 0.0027329852    65.171326    65.241882    64.730296    19568.445 
12725000   -200872.82    1.6192461 -0.003698711    65.275359     65.54447    64.542174     19581.54 
12730000   -200775.56    1.5922135 -0.00049269138    64.607535    65.800501     64.73195    19594.607 
12735000   -200844.75    1.5664634 -0.0022188296    65.252477    65.366112    64.495689    19607.665 
12740000   -200906.31     1.586176 0.00043691414    64.887628    65.085011    64.740319    19620.749 
12745000   -200858.35    1.6482401 -0.0023533189    65.201468    65.120362    64.733102     19633.82 
12750000   -200824.88    1.6177502 -0.0054939061     65.12189    65.330443     64.80936    19646.907 
12755000   -200916.68    1.5694244 -0.0042063584     65.00166    65.064279    64.920428    19659.968 
12760000   -200806.46    1.6162845 -0.0025869463    64.747674    65.177826    64.927483    19672.985 
12765000   -200763.82    1.5729527 -0.0016087129     65.20351    64.658236    64.978628    19686.033 
12770000   -200916.27    1.6232831 0.0013134755    64.678012    64.846272     65.01753    19699.132 
12775000    -200859.7    1.5723207 -0.0011299397    64.791215    64.782437    64.983737    19712.226 
12780000   -200706.66    1.6118752 0.0031933303    64.830813    64.780096    65.098173    19725.386 
12785000   -200989.17      1.65312 0.0017077906    64.788029    64.938732    64.946825    19738.494 
12790000   -200833.14    1.5990026 0.0057073283    64.595706    64.940344     64.96301     19751.62 
12795000   -201005.26    1.5965989 0.0011244167     64.88112    64.964057    64.829373    19764.775 
12800000   -200940.11    1.5844481 -0.0009643821    64.611873      65.1408    64.916014    19777.853 
12805000   -200983.25    1.5996762 -0.0023685588    64.666243    64.948478    65.098533    19790.934 
12810000   -200905.84    1.5857144 0.0022690185     64.82266    65.117292    64.717422    19804.024 
12815000   -201109.86    1.6441311 0.0017220409    64.397503    65.275011    64.854299    19817.111 
12820000    -201074.1    1.5903198 0.0010798783    64.820171    64.958932    65.103784    19830.155 
12825000   -200924.71    1.6195665 0.0036251674     64.88653    64.938602    65.000907    19843.314 
12830000   -200870.19    1.6296241 0.0038722591    64.987263    64.809364     65.14923     19856.42 
12835000   -200881.82    1.5446973 0.0013961974    65.197989    65.137278    64.932937    19869.485 
12840000   -200904.23     1.619949 0.0044982293    64.957203    65.203048    64.934773    19882.548 
12845000   -200948.23    1.6065677  0.004990426    65.086489    65.013963    64.791233    19895.606 
12850000   -200816.28    1.5689437 0.0031859721    64.846178    65.463568     64.86459    19908.688 
12855000   -200875.71    1.6069097 0.0040770972     65.18186    64.927403    65.007455    19921.766 
12860000   -200846.57    1.5979451 -0.00074364518    65.056578    65.010543    65.106783    19934.844 
12865000    -200758.6    1.6209561 -0.00087359239    65.035861    65.043471    65.152134    19947.865 
12870000   -200738.07    1.5991652 -1.4131168e-05    65.197076    64.979669    65.055544     19961.01 
12875000   -200782.42    1.5978468 -0.0039024664    65.237331    64.890912     65.01832    19974.096 
12880000   -200790.03    1.6008732 -0.0035303752    65.422332    65.071529    64.789952    19987.166 
12885000   -200752.23    1.5746411 -0.0016769438    64.949094    65.119971    64.999288    20000.223 
12890000   -200835.41    1.5626342 -0.0036688435    65.276347    64.621374    65.387302    20013.292 
12895000   -200889.82    1.5932997 -0.0017438275    65.184704    64.818593    65.263182    20026.329 
12900000   -200874.53    1.5864562 -0.00024303294    65.262596     64.89119    64.811543    20039.382 
12905000   -200904.37    1.6106214 0.0019581642    65.137517    65.002756    64.731277    20052.458 
12910000    -200942.1    1.6148401 0.0010818489    64.931307     65.04104    64.906474    20065.553 
12915000   -201004.16    1.6036192 0.0039095783    65.389876    64.958994    64.388431    20078.641 
12920000   -200898.21    1.6153835 -0.0026707291    65.521562    64.701741    64.986621    20091.687 
12925000    -200939.5    1.6270564 0.0028924799    64.854745    65.202823    64.840259    20104.714 
12930000   -200999.27    1.6194454 0.0014222298    65.203281    64.928086    64.978782    20117.789 
12935000   -200819.77    1.6361786 0.00069551992    64.933334    65.189125    65.015982    20130.822 
12940000   -200843.72    1.6011528 -1.8154725e-05    64.970764    64.983597    65.020169    20143.884 
12945000   -200715.33    1.5286192 -0.0012873403    65.350211    64.674848    65.169364    20156.919 
12950000   -200977.18    1.5975751 -0.0033826683    65.364032    64.617717    65.362567    20169.999 
12955000   -200673.93    1.6089149 -0.0028213563    65.271594    64.651121    65.305837    20183.094 
12960000   -200870.35    1.5892177 -0.00019982359    65.138078     64.88863    65.050415    20196.164 
12965000   -201010.06    1.6222745 0.0023964025    64.915813    64.994752    65.021352    20209.165 
12970000   -200877.19    1.6594922 0.0027892389    64.984766    65.006251    64.886436    20222.252 
12975000   -200968.77    1.5930261 0.00040046248     65.06573    64.696077    65.204593    20235.334 
12980000   -201021.23    1.5850385 -0.0047335933    65.315413    64.796778    65.108833    20248.408 
12985000   -200929.11    1.6014164 0.00014020541    65.073064    64.800998    65.139529    20261.513 
12990000   -200999.85    1.5821307 0.0032726942    64.913626     64.89417    64.996224    20274.586 
12995000   -200890.61    1.5849073 -0.0022195307    65.097004    65.054158    65.036602    20287.707 
13000000   -200954.35     1.607718 -0.00062432311    64.942304    65.041224    64.882014    20300.761 
13005000   -200997.12    1.5751468 0.00097112369    64.795338    64.875859     65.14961    20313.797 
13010000   -200980.58    1.5856464 0.0012692185    64.707238    65.075546    64.871905    20326.843 
13015000   -200981.73    1.6051313 0.00010614571    64.979096    64.934729    64.814482    20339.895 
13020000   -200995.14    1.5904641 -0.00021294667     64.89754     65.06933    65.162073    20352.998 
13025000   -200935.01    1.6331598  0.001850546    65.110576    64.889408    65.020085    20366.115 
13030000   -201123.77    1.5582937 0.0037615519    64.941649    64.930619    65.022899    20379.196 
13035000    -201043.4    1.6069419  0.001632131    64.851033    64.955038    65.107774    20392.278 
13040000   -200978.87    1.5854013 -0.0030525622    65.223838    64.885268    64.962033    20405.323 
13045000    -201024.1     1.584778 -0.0028262971    65.065452    64.671858    65.243512    20418.385 
13050000   -200985.04     1.656493 0.00047718839    64.770962    64.867472    65.316787    20431.428 
13055000   -201059.25    1.6558265  -0.00303374    65.011857    65.061493    65.025779    20444.481 
13060000   -201108.01    1.5802454 -0.002319342    64.967781    65.018325    65.037467    20457.561 
13065000   -200964.05    1.5917928 0.0048369026    65.101608     64.82717    64.896351    20470.697 
13070000   -201023.88    1.6475807 0.0042964088    65.021349    64.579185    65.450461    20483.722 
13075000   -200968.71    1.5899684 -0.00072044812    65.564565    64.610183    65.044216    20496.733 
13080000   -200968.84    1.5939793 -0.0084188473    65.393685    65.172106    64.974412     20509.76 
13085000   -200954.14    1.6296652 0.0033375467    64.888777    65.345575    64.848636    20522.834 
13090000   -201160.93    1.6078989 0.0034589194    64.897551     64.79238    65.095672    20535.831 
13095000   -201134.99    1.6260638 0.0051097099    64.649016    65.128748    64.776116    20548.926 
13100000   -200809.98    1.6570753 0.0059700418    64.630927    65.078671    64.843909    20561.994 
13105000   -200850.32    1.6235675 0.0034502876    64.867289    64.950072    64.844361     20575.06 
13110000   -200847.12    1.6019771 0.0035454857     64.85063    65.086424    64.573735    20588.216 
13115000   -200932.89    1.6148553 -0.00076892587    64.837166    65.047531    64.894698    20601.298 
13120000   -201041.25    1.5735899 -0.0017044743    64.935845    64.749237    64.934606    20614.372 
13125000   -201096.06    1.6178213 -0.0017247546    64.651432     64.63901    65.187877     20627.39 
13130000   -201022.78    1.5915293 0.00028340706    64.943161    64.801329    64.720983    20640.448 
13135000   -200946.26    1.6157883 0.0035048613     65.07997    64.658122    64.569914    20653.534 
13140000   -200832.65    1.5876118 0.0017665231     65.26921    64.813893    64.400573    20666.582 
13145000   -200797.25    1.5368768  0.003866698    64.915411    65.008228    64.511943    20679.721 
13150000   -201001.79    1.5678472   0.00149959    64.856944     64.94464    64.512431    20692.747 
13155000   -200922.45    1.5770799 0.0024750817    64.882162    65.120051    64.615936    20705.817 
13160000      -200973    1.6029585  0.001128948    64.853623     64.82912    64.694013     20718.92 
13165000   -200954.21    1.5610678 0.00090643522    64.965766    65.191614    64.507029    20731.935 
13170000   -200918.73    1.6534101 7.9185472e-05    64.985546    65.126684    64.735759     20744.96 
13175000   -200737.81    1.5984766 -0.0027116079    65.415968    64.939256    64.693254    20758.031 
13180000   -200913.41    1.6081148  -0.00048455    65.224168    64.925704    64.539744    20771.056 
13185000   -200788.16    1.5852925 0.00066793623    64.964877    65.088422    64.688197    20784.117 
13190000   -200888.78    1.5818107 0.0042035556    64.914028    65.227598    64.390475    20797.226 
13195000   -200806.05    1.5869602 -0.00093728411    65.220116    64.797892    64.708967    20810.341 
13200000   -200888.51    1.6051305 0.00087737051    65.034776    65.181867    64.551402    20823.466 
13205000   -200812.31    1.6003273 -0.00020520552    64.875561    65.061402    64.837912    20836.484 
13210000   -200903.24    1.6074293 -0.0011703047    65.291428    64.995808    64.549217    20849.551 
13215000   -200771.19    1.5754936 -0.0023351926    65.486444    64.787223    64.716048    20862.586 
13220000   -200869.46    1.6045415 -0.0014054446    65.651009    64.795486    64.515994    20875.673 
13225000   -200823.89    1.5781697 -0.0023335517    65.606924    64.992271    64.597728    20888.756 
13230000   -200951.63    1.6519724 0.00013669528    65.523605    64.868651    64.395449    20901.817 
13235000    -200995.8    1.5836154 -0.0012857212     65.71493    64.917747    64.220005    20914.871 
13240000   -200939.34    1.5806986 0.0028221271    65.800582    64.572164    64.451079    20927.991 
13245000   -200747.74    1.6415368 -0.0041012079    65.436745    64.995484    64.872759    20941.043 
13250000   -200782.54    1.5812427 0.0046655633    65.380871     64.98269    64.742699    20954.197 
13255000   -200716.17    1.6114675  0.009170637    65.370452     64.92044    64.608992    20967.256 
13260000   -200714.34     1.624944   0.00550575    65.434988     65.12724    64.621198    20980.277 
13265000   -200979.12    1.6078286 0.0035505781    65.462534    65.027885    64.624327    20993.302 
13270000   -200888.78    1.6227589 -0.0023045677    65.151953    65.202792    65.008469    21006.308 
13275000   -201077.25    1.5659093 -0.0026631752    65.112844    64.994782    65.038829    21019.282 
13280000   -200844.66     1.616203 -0.003313952    65.430523    64.771761    64.996261    21032.404 
13285000   -200762.62    1.5922212 -0.0013348341    65.334878    64.901605    64.893917    21045.452 
13290000   -200929.94    1.6054473 -0.0033855311    65.073583    65.090835    65.193813    21058.505 
13295000   -200719.63    1.6102817 0.0011024872     65.14621    64.948786     64.97544    21071.573 
13300000   -200957.63    1.6100524 9.9051234e-05      65.0493    64.972655    64.965488    21084.612 
13305000   -200989.79    1.5884497 0.00068485523    65.162781    64.858756    64.952111    21097.622 
13310000   -200886.03    1.5852286 -0.0023369543     65.14541    65.054221    64.877811    21110.689 
13315000   -200890.77    1.5700221 -0.0038647133    65.290622    64.803982    65.192821    21123.752 
13320000   -200890.68    1.5756393 0.0031419583    65.184556    64.701438    64.969999     21136.77 
13325000   -200861.42    1.5771982 0.00016737235    65.295028    64.720453     64.90596    21149.894 
13330000   -200933.68    1.5782396 0.0047122442    65.151386    64.551918    65.130306     21162.99 
13335000   -200964.62    1.6094058  0.005895341    65.358256     64.54215    64.899046    21176.051 
13340000   -200824.69     1.561059 0.0022383218    65.760686    64.424192    65.018242    21189.075 
13345000   -200899.98    1.5964382 0.00024088597    65.775083     64.44801    65.165183    21202.063 
13350000   -200749.44    1.5707846 0.0011534705    65.923097    64.512667    65.165267     21215.05 
13355000   -200768.74    1.6554425  0.002467366    65.767484    64.605984    65.109059    21228.012 
13360000   -200851.73    1.5880896 0.0012387502    65.756383    64.548795    65.167515    21241.069 
13365000   -200961.64    1.5709493 0.00088358127    65.628269    64.836056    64.773119    21254.154 
13370000   -201064.58    1.5847062  0.001753582    65.549435    64.758845    64.880899    21267.169 
13375000   -201122.03     1.599041 0.0017306714     65.58589    64.662023    64.890928    21280.211 
13380000   -200927.14    1.5822548 0.0066891558    65.419311    64.694962    64.851625    21293.267 
13385000   -200976.66    1.6116266 -0.0039666801    65.540229    65.038454    64.567799    21306.317 
13390000   -200951.11     1.594177 -0.0039585963    65.156634    65.290128    64.859122    21319.356 
13395000    -200868.5    1.6426114 8.0858279e-05    65.466941     65.14988    64.719858    21332.387 
13400000    -200943.7    1.6150754 -0.0028981251    65.628528    65.075222    64.800896    21345.422 
13405000   -200860.68    1.6263924 -0.0011532882    65.494685    65.071764     64.87837    21358.455 
13410000   -200784.22    1.6154548 0.0004067704    65.629413    65.329931    64.637315    21371.536 
13415000   -200852.31    1.5933923 0.0024491915    65.490341    65.003377    64.671309    21384.583 
13420000   -200923.79     1.550475 0.0013628289    65.189541     65.29967    64.687726    21397.614 
13425000   -200949.93     1.629394 0.0057865747    64.995285    65.111858    64.854427     21410.67 
13430000   -200845.65    1.6163323 0.0031278963    65.388961    65.091877    64.619904     21423.71 
13435000   -200906.92    1.5954558 0.0014196282    65.077114    65.136687    64.895589    21436.725 
13440000   -201018.51    1.5760598 0.00016737469    64.874857    65.110765    64.952994    21449.854 
13445000   -200938.53    1.5735599 0.00039597984    64.944562    65.184845    64.926265    21462.919 
13450000   -200872.74    1.5673312 -0.00045315432    64.945529    65.224774    64.911694    21476.038 
13455000    -200969.3    1.6004157 -0.0024463311    64.859745    65.065981    65.133157    21489.116 
13460000   -200919.67    1.6486925 -0.0020048481    64.807172    65.115342    65.060493    21502.235 
13465000    -200761.3    1.5976696 -0.0016659645    64.937844    64.955735    65.359812    21515.346 
13470000   -200708.77    1.6189262 -0.0013058428    65.043641    65.028624    65.109314     21528.38 
13475000   -200937.97    1.6324132 0.0039654575    64.757661    65.095724    65.074373    21541.489 
13480000   -200917.26     1.576916 0.00072936905    65.168231    64.708565    65.277872    21554.562 
13485000    -200844.9    1.5964099 -0.0026684058    65.252581    64.914308    65.508185    21567.573 
13490000   -200910.93    1.5653266 -0.00043665422     65.38321    64.929075    65.181872    21580.614 
13495000   -200831.87    1.5753714 -0.00018739756    64.917511    64.808746    65.340498    21593.646 
13500000   -200777.85    1.5916806 0.0042789613    65.111411     64.66371    65.123832    21606.684 
13505000   -200636.75    1.5463526 0.0051698272    64.952354    64.923464    65.039971    21619.708 
13510000   -200741.62    1.6351334 0.00014272561     65.35217    64.641537     64.87624    21632.786 
13515000   -200689.64     1.598719 0.0031853586    65.112165    64.735629    65.017992     21645.87 
13520000    -200524.4    1.6122717 0.0027604973    64.919692    64.837964    65.199943     21658.96 
13525000   -200718.36    1.5893957 0.0046322557     64.66278    64.965418    65.097908    21672.038 
13530000    -200764.1    1.6373524 0.00022351972    65.133369    64.913303     64.93777    21685.098 
13535000    -200896.8    1.5966945 0.0010934615    65.002902    64.757309    65.287118    21698.183 
13540000   -200748.11     1.605021 -0.0019129826    64.822485    65.417574    65.063755     21711.29 
13545000   -201013.28     1.567374 0.0053379555     65.08218    64.905616    64.780125    21724.372 
13550000   -201028.42    1.6163953 0.0013922439     65.23336    65.020912    64.693915    21737.398 
13555000   -201011.39    1.6084605 0.0016118971    65.025869    64.989492    64.871512    21750.481 
13560000   -200943.18    1.6117849 -0.00011836347     65.21546    65.080005    64.917176    21763.589 
13565000   -200829.94    1.5646895 -0.0025170546     65.23759    65.105293    65.034292    21776.635 
13570000   -200800.86    1.6356536 0.0036159244    65.406489    65.161717    64.559596    21789.736 
13575000   -200985.01    1.6130502 0.0026703964     65.18452    64.925961    65.050339    21802.806 
13580000   -200906.93    1.5843109 0.0077663018    64.838161    65.291059    64.881099    21815.834 
13585000    -200803.7    1.6540152 0.0057761874    64.806109    65.115928    65.216012    21828.816 
13590000   -200848.42    1.6184602 -0.0015675929     65.14949      65.2241    65.198132    21841.896 
13595000   -200811.48    1.6013808 0.0029667113     65.40128    64.736603    65.153847    21854.929 
13600000   -200813.85    1.5926073 -0.0012869483    65.115658    65.068421    65.434073     21867.95 
13605000   -200773.74    1.5943534 0.00099953397    65.265265     64.65115    65.506817    21880.937 
13610000   -200840.72    1.6031733 -0.0012250904    65.222144    65.228887    64.919819    21893.943 
13615000   -200860.47    1.6436573 -0.0020732813    65.067383    65.272746    64.929024    21907.045 
13620000   -200684.48    1.6096408 -0.0020812385    65.114217     65.07186    65.011268    21920.056 
13625000   -200755.55    1.5877582 -0.0016223235      65.2535    64.960675    65.185845    21933.087 
13630000   -200794.07    1.5844206 -0.00060271493    65.555532    64.855587    64.850226      21946.2 
13635000   -200841.32    1.5841405 -0.0048683265    65.447298    64.815346    64.962873    21959.291 
13640000   -200930.29    1.5626692  -0.00156723    65.322733    64.833904    64.867281    21972.404 
13645000   -200935.12    1.6266035 0.0003397551    65.425092    64.742541    64.780019    21985.489 
13650000    -200762.4      1.60997 -0.0057069654     65.11644    64.876258    65.098103    21998.555 
13655000   -200809.34    1.6030645 -0.0016670848    64.991818    65.154819    64.946794    22011.574 
13660000      -200694    1.6450614 0.0002228213    65.059497    64.916656    65.066087    22024.665 
13665000   -200851.69    1.5762311 -0.0011738736    65.222332    64.910334    64.973753    22037.737 
13670000   -200909.05    1.5874726 0.0013646406    64.720805    64.878666    65.222468    22050.853 
13675000   -200922.14    1.6088078 -0.002338972    65.156156    64.738749    65.061163    22063.901 
13680000   -200834.38    1.5853395 -0.0028031907    65.211693    64.813694    64.878238    22076.986 
13685000   -200944.31    1.5907669 -0.005614174    65.201569    64.983805    64.830018    22090.058 
13690000   -200937.67    1.6014422 -0.0010514872    65.212478    64.860624    64.762516    22103.144 
13695000   -200981.14     1.606911 -0.0011846606    65.134418    65.160312    64.680295    22116.218 
13700000   -200947.46    1.5655395 -0.001559077    64.800479    65.168159     64.87733    22129.304 
13705000   -200943.72    1.6373905 0.0016214342    65.066546    64.915045    64.875702    22142.355 
13710000   -201027.32    1.5898581 0.00023911861    65.009954    64.917676     64.97598    22155.445 
13715000   -201099.72    1.5867247 -0.0036025265    65.075051    64.836938    64.916256    22168.516 
13720000   -200907.96    1.5779646 0.0015874467     65.26281    64.788373    64.954299    22181.643 
13725000   -201002.54    1.5782492 -0.0017867008    65.389959    64.735921    64.779102     22194.72 
13730000   -200951.34    1.6157067 0.00058699622    64.870782    65.006715    64.949395    22207.841 
13735000   -200980.86    1.6468054  0.000224485    65.135448     64.86222    64.829165    22220.896 
13740000   -200693.31    1.5809965 -0.00059043686    65.464528    64.461553    64.938413    22233.988 
13745000   -200915.34     1.575968 -0.00092368267    65.281308    64.785975    64.690477     22247.15 
13750000   -201070.32     1.609336 0.00037168658    65.343915    64.750258    64.400633     22260.37 
13755000   -200972.95    1.6377764  0.001009996    65.135375    64.767393    64.636025    22273.466 
13760000   -200940.42    1.6041538 -0.00093729806    64.969392    64.608938    64.951075    22286.601 
13765000   -200865.69    1.6002142 0.0020864494    65.166275    64.523964     64.92188    22299.708 
13770000   -200929.45    1.6282139 0.0027203896    65.202701    64.853575    64.456569    22312.827 
13775000   -200872.45    1.5745255  0.004034788    65.123285    64.845584    64.557465    22325.957 
13780000   -200762.19    1.6396244 0.0036869379    65.114799    64.826649    64.614545    22339.047 
13785000    -200821.2    1.6010674 0.0043473261    65.049595    64.615035    64.964428    22352.123 
13790000   -200915.57    1.6040047 0.0014151864    64.811934    64.991127    64.892476    22365.248 
13795000   -200904.47     1.657227 -0.0017457361     65.08745    65.110795    64.828358    22378.454 
13800000   -200941.97    1.6295647 0.0013377049    64.893822    65.128033     64.70815     22391.55 
13805000   -200959.05    1.5915985 7.8119797e-05    65.112885    64.970772    64.656426    22404.646 
13810000   -200962.28     1.628137 -6.0714416e-05    65.152451    64.881072    64.667266    22417.734 
13815000   -200893.51    1.6247917 -0.0026059264    64.949653    64.775065    64.889492    22430.872 
13820000   -200892.71    1.6059513 0.0016298382    65.050666    64.821237    64.995368    22443.967 
13825000   -200903.32    1.5947309 -0.00053542636    64.823814    65.173999    65.035559    22457.063 
13830000   -200861.49     1.595695 -0.0013171011    65.261624     65.08971    64.900016    22470.214 
13835000   -200855.79    1.6188158 -0.00052758865    65.140658    65.193227     65.02294    22483.322 
13840000   -200816.33    1.5821869 0.0014719176    64.990467     65.26968    65.008109    22496.447 
13845000   -200864.98    1.5916423 -0.0012942837    65.137385     65.03813    65.029952    22509.567 
13850000   -200866.31    1.5447836 -0.0034083081    65.330035    65.164198    64.812089     22522.67 
13855000   -200934.48    1.6038294 -0.0062638864    65.333817    65.285822    65.026475    22535.757 
13860000   -200947.23    1.6294621 -0.0019671495    65.245999    64.864494    65.220163    22548.815 
13865000   -200861.64    1.6233497 -0.0015140241    64.854018    65.148755     65.12936    22561.896 
13870000   -200873.51    1.5847997 0.0032515641    65.153009    64.829392     64.87387    22575.031 
13875000   -200903.25    1.6172851 -0.00048392233    65.148197     65.02521    65.014005    22588.106 
13880000   -201010.19    1.6046435 -0.0024725351    65.413735    64.897986    64.958383    22601.177 
13885000    -200917.6    1.6049809 0.0025746372    65.125962    65.202487    64.671509    22614.222 
13890000   -201022.38    1.5848297 0.0062445314     64.74137    65.236345    64.615359    22627.235 
13895000   -201036.16    1.5886944 0.0029856862    64.879385    64.661015    64.776319    22640.334 
13900000   -200792.08    1.6041461 0.0030263338    65.005273    64.726701    64.750355    22653.402 
13905000   -201060.79    1.6164134 -0.0019658674    65.078993    64.916927    64.749657    22666.474 
13910000   -200940.13    1.6106961 -0.0027683295    64.654216    65.030595    65.108188    22679.627 
13915000   -200884.78    1.6380541 -0.0024398388    64.780455    64.721652    65.071604     22692.71 
13920000   -200927.03    1.6066675 0.0043750609    64.935524    64.748634    64.748687    22705.831 
13925000   -200931.42    1.5809062 0.0038628823     65.05334    64.666118    64.859539    22718.919 
13930000   -201004.05    1.5649136 0.0053884749    64.697734    64.704648    64.902514    22732.008 
13935000   -200957.14    1.6279662 0.00098847365     64.88103    64.997969    64.992439    22745.115 
13940000   -201004.69    1.6227451 0.0028653481    64.717207    64.752713    65.295431    22758.251 
13945000   -200879.45    1.5940642 0.00096416403    64.902965    65.068575    64.892915    22771.316 
13950000   -200981.44    1.5989807 0.0031519345    65.032693    64.612463    65.034539    22784.432 
13955000   -200922.58      1.59103 0.0016101987    65.474836    64.657645    64.659996    22797.487 
13960000   -200800.34    1.6385317 -0.0030850384    65.203734    64.856232    65.234447    22810.571 
13965000   -200787.08    1.5984754 -0.0026809181    65.226216    64.608793    65.493489    22823.671 
13970000   -200715.52    1.6050066 -0.0071120738    65.430061    64.853353    65.219398    22836.765 
13975000   -200835.27    1.6560243 0.0029076938    64.773959    64.885765    65.565639    22849.838 
13980000   -200852.73    1.5509311 0.0044205945    64.532008     64.99834    65.507042    22862.929 
13985000   -201102.08    1.6153619  0.004129664    64.857044    64.654974    65.192101    22875.996 
13990000   -200730.45    1.6414826 0.0009574095    65.237907    65.082722    64.953288    22889.114 
13995000    -200759.7    1.5772533 0.0038952259    64.826232    64.986404    65.106055    22902.216 
14000000   -200687.09     1.618358 0.00088290623    65.065869    64.950753    64.895227    22915.318 
14005000   -200683.81    1.6046706 -0.0036552698    65.119212    64.886089    65.219213    22928.444 
14010000   -200847.49    1.6111707 -0.0023102305    65.369969    64.787653    64.957775    22941.536 
14015000   -200778.21    1.5856169 -0.0023508637    65.062565    65.019739    65.128844    22954.591 
14020000    -200854.3    1.5925207 -0.001150156    65.019728    65.197742    64.997443    22967.671 
14025000    -200824.6     1.624271 0.0027749056    65.071077      64.8899    64.951797    22980.762 
14030000      -200861    1.6642974 0.0019103071    65.209144    64.811587    64.910637    22993.827 
14035000   -200823.04    1.5901818 -0.0041656459    65.441953    65.208512    64.700351    23006.884 
14040000   -200869.55    1.5789198 -0.0010569519    65.400427    64.874756    64.888775    23019.937 
14045000   -200878.29    1.6463998 -0.0042018914    65.327798    64.900695    64.999754    23033.039 
14050000   -200751.63     1.590846 -0.00077974531    65.100068    64.939499    65.348979    23046.141 
14055000   -200826.69    1.6230474 -0.00076647831     65.34955    64.719766    64.908183    23059.224 
14060000   -200676.14     1.616434 0.0010679047    65.519636    64.714007     64.87773    23072.301 
14065000   -200579.66    1.6045859 0.0029436788    65.444544    64.750461    64.610747    23085.395 
14070000   -200686.27    1.6097782 0.0017780879    65.409166    64.765949    64.517385    23098.502 
14075000   -200748.52    1.6325918 0.0067424257    65.358567    64.580529    64.610331    23111.559 
14080000   -200673.82    1.5752953 0.00020378748    65.570847    64.673607    64.680711     23124.61 
14085000   -200688.29    1.5931858 -0.0030683665    65.496115    64.868276    64.707991    23137.708 
14090000   -200847.48    1.6764778 -0.002379897    65.441186    64.793866    64.637779    23150.812 
14095000   -200959.26    1.5874698 -0.00065492709    65.135565    64.345305    64.819878    23163.895 
14100000   -200993.97     1.623782 0.0016807522    65.027387    64.478698    64.785616    23176.989 
14105000   -200872.47    1.5924433 0.0026215918    65.230818    64.302432    64.696331    23190.114 
14110000   -201064.25    1.5701532 0.0037556117    65.357428    64.494804    64.231718     23203.22 
14115000   -200960.38    1.5934397 0.0019127824    65.125162    64.439615    64.609012    23216.332 
14120000   -200891.48    1.6116287 -0.00052177029    65.149605    64.829247    64.497745    23229.457 
14125000   -200892.68    1.5896566 0.0013930099    65.158212    64.473537    64.870004    23242.598 
14130000   -200893.07    1.5758853 0.0028705513    64.779912    64.608146    64.863825    23255.718 
14135000   -200991.51    1.5672063 -0.00068519627    65.091781     64.59781    64.522708    23268.953 
14140000    -200769.3    1.5745359 -0.00089694305    65.171649    64.747221    64.635478    23282.094 
14145000   -200951.77    1.6095338 0.0049171165    65.106874    64.375083    64.646083    23295.248 
14150000   -200796.83    1.6268145 0.0041178758     65.28663    64.549529    64.592692    23308.391 
14155000   -200770.84    1.5566132 -0.00075979415    65.414848    64.302033     64.87193    23321.496 
14160000   -200788.54    1.6410834 -0.00099388384    65.216684    64.547818    64.982168     23334.61 
14165000   -200876.13    1.6305184 -0.0027265214    65.323032    64.718316     64.83938    23347.684 
14170000   -200806.04    1.5810987 -0.002999873     65.40091    64.489912    64.946576    23360.825 
14175000   -200911.84    1.5716772 -0.0014390693     65.34586    64.799194    64.716942    23373.952 
14180000   -200776.44    1.6126101 0.0011045897    65.209661    64.708316    64.858484    23387.021 
14185000   -200800.74    1.6436819 -0.0023963029    65.246573    64.898691    64.777534    23400.065 
14190000    -200755.2    1.6029713 6.8539043e-05    65.094856    64.941119    64.563488     23413.18 
14195000   -200861.19    1.5828543 0.0036033918    64.959006    64.652966    64.754421     23426.34 
14200000   -200833.88    1.6078023 0.0053550176    65.145111    64.568952    64.695643    23439.486 
14205000   -200954.79    1.6217232 -0.0021057352    65.109666    64.570703     64.91489     23452.54 
14210000   -200842.56    1.5954046 0.0059137725    65.070013    64.493738    64.669133    23465.626 
14215000   -201012.53     1.608931 0.0063131335    65.289632    64.201919    64.541861    23478.708 
14220000   -201094.43    1.5805969 -0.00082378827    65.092939    64.303028    65.003965     23491.86 
14225000   -200953.92     1.608824 0.0025378674    65.051309    64.507002     64.67142    23504.966 
14230000   -201138.52    1.5911922 0.0021757258    64.861729    64.387631    65.045757    23518.085 
14235000   -200953.03    1.5998498 -0.0014453428    64.702431    64.769626    65.154109    23531.155 
14240000   -201021.44    1.5870123 0.0015733553    64.883993     64.86793    64.817098    23544.258 
14245000   -201040.25    1.5756871 0.0015078156    64.852907     64.70782    65.048034    23557.371 
14250000   -200695.93    1.5637306 -0.00069733221    64.869518    64.475977    65.413912    23570.471 
14255000   -200824.87     1.637093 -0.00027087824    64.856164    64.878257    65.006101    23583.539 
14260000   -200810.88    1.5567543  0.002359418    64.773205    64.940735    65.015582    23596.678 
14265000   -200895.15    1.6244704 0.0022825844    64.955472    64.864473    64.994074    23609.771 
14270000   -200991.38    1.6297219 0.0035226526    65.179954    64.712653    64.690358    23622.873 
14275000   -200830.45    1.6106844 0.0024659013    64.753364    65.054596    64.821281    23636.006 
14280000   -200987.08    1.6136732 0.0055137554    64.576016    65.002244    64.948954    23649.078 
14285000   -200860.65    1.6068996 -0.00045901138    64.952676    65.030938    65.035745     23662.11 
14290000   -200906.46    1.5781681 0.0041098995    64.816483      64.6749     65.13464    23675.228 
14295000   -200913.76    1.5921811 0.0060051488    64.800028    64.998503    64.861733    23688.281 
14300000   -200871.57    1.5908543 -0.00059309872    65.073197    64.608991    65.100013    23701.378 
14305000   -200739.93    1.5920942 0.00038038081    64.916806    64.775497    65.079118    23714.473 
14310000   -200861.12    1.6061754 -0.0016335587    64.933547    64.913506    64.844555    23727.583 
14315000   -200918.27     1.601259 -0.0029472734    64.986063    64.776801    65.169132    23740.717 
14320000   -200688.45    1.6162651 0.00098373988    64.953584    64.905424    64.952538    23753.819 
14325000   -200942.47     1.625495  0.001984109    64.910567    64.758986    64.965719    23766.887 
14330000   -201057.63    1.5734649 -0.0019184254    65.155264    65.008839    64.604184    23779.987 
14335000   -201074.93    1.6106028 0.0030169296     64.87265    64.655796    64.944202    23793.095 
14340000   -200996.89     1.587347 -0.0071127079    64.922656    64.872201    65.276422    23806.201 
14345000   -200989.47     1.613803 -0.0054141018    65.396321    64.843547    64.929478    23819.289 
14350000   -201126.65    1.6278859 -0.0014498502    65.650283     64.60132    64.806551    23832.375 
14355000   -201039.25    1.5871284 0.0015489418    65.235506    64.789083    64.685531    23845.444 
14360000   -201084.31    1.5578617 0.00052231023    65.069282    64.663673    65.114958    23858.557 
14365000   -200967.13    1.5837214 -0.00039272179    65.002839     64.64872    65.138461    23871.702 
14370000   -200988.89    1.6190498 -0.0045752206    65.279979    64.901131    64.933935    23884.759 
14375000   -201025.73    1.6124575 0.00082918849    65.245696    64.891184    64.798037    23897.846 
14380000   -200843.09    1.5854401 -0.0034060933    65.446535      64.8187    65.139721    23910.943 
14385000   -200937.01    1.5774799 0.0010374654     65.22164    64.774735    65.034976    23924.056 
14390000   -201118.46    1.6682376 -0.0020782062    65.152319    64.999853    64.948612    23937.141 
14395000   -200951.01    1.6051441 -0.0059970454    65.310697    64.965184    65.066266    23950.214 
14400000   -200940.31    1.6250925 -0.004973984    64.938259    65.173599    65.153315    23963.281 
14405000   -200866.68    1.5988497 7.0948444e-05    65.140673    64.829491    64.952531    23976.371 
14410000   -200849.24    1.6158256 -0.0014862184    65.352062    65.040741    64.751902    23989.451 
14415000   -200983.82    1.6393061 -0.0004299448    64.871439      64.9137    65.082578    24002.547 
14420000   -200817.14    1.6308262 -0.00079725423    65.086949    64.733943    65.142789    24015.713 
14425000   -200828.39    1.5662249 -0.0032175799    65.306321    64.725747     65.01404    24028.825 
14430000    -200883.8    1.5827226 -0.0025202264    65.219702    64.901193    64.988211    24041.957 
14435000    -200967.6    1.6329227 -0.0029167465    65.071712    64.933177    65.184153    24055.033 
14440000   -200929.39    1.6294767 -0.0036894843    65.176382    64.894288     65.17287    24068.126 
14445000   -200874.36    1.6017726 -0.0039487406    65.129521    64.921492    64.873896    24081.224 
14450000   -200779.67    1.5583505 -0.002324969    64.957733    64.937874    65.048475    24094.295 
14455000   -200833.45     1.579801 -0.0044276428    64.874642     65.11088    65.165171    24107.391 
14460000   -200914.89      1.57925 -0.0011656802    64.657735    65.189367    64.964326    24120.538 
14465000   -200969.88    1.6422412 -0.0022661815    64.860227    64.998428    64.943117    24133.633 
14470000   -200939.24    1.6294868 -0.0047822348    65.026901    65.035486    64.916694    24146.769 
14475000   -200850.49    1.5771332 -0.0024503152    64.799932    65.040363    65.031549    24159.902 
14480000   -200801.24    1.6064252  0.005270692    64.817041    64.904471    64.968158    24173.045 
14485000   -200874.14    1.6343048 0.0038238124    64.870158    64.935767    64.810752    24186.062 
14490000   -200932.59    1.5636139 -0.00039262406    64.727627    65.146898     64.76844     24199.17 
14495000   -200923.45     1.601949 -0.0011839414      64.9802    65.074681    64.706713    24212.277 
14500000   -200912.76    1.5977063 0.0020688368    64.806509    65.040081    64.495353    24225.376 
14505000   -200827.72    1.5882065 0.0012923778    64.856853    64.865009    64.782572    24238.507 
14510000   -201012.33    1.5836612 0.0017385255    64.978369    64.925455    64.679476    24251.588 
14515000   -201007.25    1.5906463 -7.9141743e-05    64.773528    64.934626    64.729643    24264.676 
14520000   -200885.81     1.616734 -0.0021449313    64.624308      65.0153    65.059941    24277.774 
14525000   -200705.58    1.6557995 -0.00029547407    65.041693     64.97008     64.73264    24290.812 
14530000   -200801.64    1.6074563 -0.0015306775    64.657853    65.193874    64.882184     24303.88 
14535000   -201030.44    1.5919334 -0.0025112966      64.7758    64.907273    64.988089    24316.926 
14540000   -201007.23    1.6327396 -0.00067894966    65.114029    64.907765    64.583917    24330.073 
14545000   -200957.77    1.6260494 -0.0047050169    65.178885    64.805866    64.783599    24343.231 
14550000   -200949.72    1.5862929 0.00064343032    65.032025    64.737117    64.532824     24356.28 
14555000   -200984.38    1.6118228 -0.0014208295    64.853102    64.721533    64.896145      24369.4 
14560000   -200948.86    1.6260117 7.5037166e-05    65.081451    65.136275    64.225708    24382.549 
14565000   -200844.02    1.6397722 0.0016875188     65.00544    64.997083    64.439679    24395.722 
14570000   -200880.66    1.6256128 0.0015062241    65.233688    64.803904    64.509638    24408.848 
14575000   -200882.68    1.6119455 0.0036076884    65.008225    64.853019    64.587091    24421.936 
14580000   -200984.33    1.6164454 0.0014056881    65.098681    65.103282    64.241881    24435.035 
14585000   -201100.41    1.6505332 0.0010537184    64.957629     65.13474    64.332484    24448.101 
14590000   -201049.84    1.6027217 -0.00045832818    65.040422    65.073881    64.391192    24461.168 
14595000    -200909.5    1.6215319 0.00047780223    65.034156    64.950949    64.605348    24474.275 
14600000   -200845.73    1.5882078  0.005295703    64.715855    65.077345     64.61508    24487.388 
14605000   -201006.17    1.5489821 -0.00070933904    65.190391    64.519383    64.678748    24500.511 
14610000   -200773.54    1.5933159 -0.00094865125    65.049358    65.076216    64.593364    24513.601 
14615000   -200785.09    1.6558441 0.00058868455    65.347685    64.946954    64.463312    24526.796 
14620000   -200943.45     1.559074 -0.0021078078     65.24565    65.026311    64.798981    24539.855 
14625000   -201003.22    1.5727695 -0.0021837972    65.595726    64.683229     64.76847    24552.931 
14630000   -200943.25    1.5964571 0.00028441329    65.315472     64.95933    64.656317    24565.987 
14635000   -200702.15    1.5972749 0.00039826141    65.255727    65.151152    64.680223    24579.112 
14640000   -200885.41    1.6392111 -0.0029644144    65.171674    65.222375    64.711261    24592.186 
14645000   -200865.65    1.5477599 -2.7765281e-05    65.147117    65.035397    64.934292    24605.307 
14650000   -200940.92    1.5418256 -0.00067767681    65.306317    65.166466    64.622494    24618.399 
14655000   -200924.55    1.5639546 -0.0027172197     65.42557    65.036864    64.678349    24631.526 
14660000   -201026.05    1.6093234 0.00010590936    65.255969    64.876328    64.725842    24644.704 
14665000   -200940.49    1.6073345 -0.0062913737    65.030214    65.189755    65.008776    24657.783 
14670000   -200913.21    1.6009859 -0.00052795271    65.135999    65.121266    64.753606    24670.861 
14675000   -200858.64    1.6148568 0.0011635603    65.153049    65.027936    64.707134    24683.949 
14680000   -200953.12    1.6761475 0.0022450452    65.147421    65.099991    64.641669    24697.044 
14685000   -200868.38    1.6261934 -0.0021077052    65.226335     65.11534    64.623571    24710.136 
14690000   -201056.14    1.5816997 0.0037849231    65.482786    64.557109    64.530837    24723.211 
14695000   -201077.17    1.5799623 -0.0010536986    65.721305     64.57045    64.440279    24736.248 
14700000   -201238.21    1.5850907 -0.0021989176    65.316747    64.683023    64.537305    24749.289 
14705000   -201193.77    1.5934234 0.00060145805    65.157809    64.689752    64.494455    24762.437 
14710000   -201098.48    1.5869045 -0.0012624059    65.299958      64.9023    64.421223    24775.553 
14715000   -201084.97    1.5960152 0.0016644319    65.306738    64.752727    64.546596    24788.728 
14720000   -200938.32    1.5827922 0.00014477531    65.450009    64.796648    64.404971    24801.822 
14725000   -200905.89     1.572935 0.0014621286     65.02901    64.879743    64.565354    24814.869 
14730000   -200913.62    1.5846117 0.0013369464    65.168678    64.879744    64.699054    24827.961 
14735000   -200807.91      1.60562 -0.0023459874    65.191684    65.204683    64.695025    24841.068 
14740000    -201038.1    1.5418833 0.0013013748    65.134924    65.029831    64.683141    24854.244 
14745000   -200947.48    1.6423375 -0.00073408411    64.949939    65.131379    64.788021    24867.375 
14750000   -200827.38    1.6183845 -0.00012984823    65.267871    64.833919    64.818967    24880.507 
14755000   -200924.14    1.6111566 -0.0038235335    65.400183    64.518121    64.797871    24893.612 
14760000   -200819.24    1.5912703 -0.0040211604    65.004655    64.899804    64.749515    24906.794 
14765000   -200847.65    1.6594859 -0.00097309993     65.02327    64.568819    64.861747    24919.964 
14770000   -200867.13    1.5699972 -0.0021241069    64.823712    64.742373    64.773928    24933.107 
14775000   -200913.77    1.6199607 0.00030488189    64.655234    64.682053    64.962411    24946.253 
14780000   -200826.26     1.595765 0.0022454886    65.001956    64.393556    64.979229    24959.333 
14785000   -200957.63    1.5881785 0.0012036734    64.871668    64.605026    65.062939    24972.471 
14790000   -200914.11    1.5922753 0.0011046049    64.759835    64.731117    64.972765    24985.603 
14795000   -201000.77    1.6212831 -0.00027864308    64.688736    64.738085    65.075747    24998.723 
14800000   -200860.84    1.5945187 -0.001258749    64.621778    64.705654    65.352585    25011.878 
14805000    -200948.6    1.6182701 -0.00030384843     64.60543    64.791417    64.980765    25025.034 
14810000   -201048.39    1.6422283 0.00047080723    64.831233    64.423641    64.872486    25038.162 
14815000   -200999.06     1.615325 -0.0022917581    64.376049    64.453331    65.368688    25051.304 
14820000   -200920.46    1.5630616 -0.0051446972    64.627457    64.698112    65.380083    25064.388 
14825000   -200905.34    1.6146714 -0.0076882216    64.594524     64.82306    65.207765    25077.488 
14830000   -200957.16    1.5619693 -0.0036799295    64.394933     64.92095    65.050406    25090.564 
14835000   -200959.26     1.590572 0.00040864601    64.531386    64.586949    65.039904    25103.743 
14840000   -200727.25    1.5989257 -0.0038570915    64.449876    64.938308    65.150826    25116.892 
14845000   -200969.99    1.6487359 -0.0014341148    64.539805    64.894686    65.116218    25129.988 
14850000   -200918.32    1.5967548 0.0016107812     64.76744     64.49931    65.033532    25143.057 
14855000   -200858.43    1.5868699 0.0028451626    64.773842    64.295504    65.102051    25156.214 
14860000   -200919.11    1.6303548 -0.0040521526    65.068513    64.808242    64.586792    25169.322 
14865000   -200874.04    1.5981902 -0.0047277501    65.008792    64.512282    64.860171    25182.413 
14870000   -201024.84    1.6252915 -0.0023545146    64.464415    64.629776     65.24977    25195.487 
14875000   -200960.28    1.5997976 -0.0039092914     64.51116    65.024433    65.097828    25208.622 
14880000   -201016.25    1.5958125 0.00086975831    64.712479    65.089701    64.662681    25221.696 
14885000   -201009.79    1.5886856 -0.0056466776    64.904254    64.849882     65.07563    25234.904 
14890000   -200956.37    1.6310312 -0.0018613211    64.580473    64.869782    65.084611    25248.042 
14895000   -200766.29    1.6469404 -0.0036848695    64.539206    65.145098    64.945807     25261.21 
14900000   -200969.74    1.5865854 -0.0005577009    64.499297    65.007971    65.105187    25274.357 
14905000      -200936    1.5953195 0.00035625452    64.693969      65.0352    64.870809    25287.476 
14910000   -200791.25    1.6221393 -0.0040438948    64.771459    65.227136    64.959356    25300.538 
14915000   -200812.23    1.6267107 -0.002898573    64.793229    65.159559    64.956865    25313.619 
14920000   -200942.96     1.607753 -0.0016861189    64.762657    65.438786    64.660348    25326.675 
14925000   -200786.98    1.6293564 -0.0022113205    64.919266    65.086805    64.953343    25339.723 
14930000   -200964.77     1.591329 -0.0011511595     65.46648    64.804008     64.35365    25352.817 
14935000   -200994.82    1.6001099  0.002599626    65.028241    64.882027      64.4738     25365.93 
14940000   -200980.09    1.6493998 0.0022224723    64.905981    64.831951    64.760939    25379.019 
14945000   -200780.27    1.6332578 -0.00072362258    65.375452    64.686434    64.835054    25392.079 
14950000   -201020.58    1.5946333 -0.0026364665    65.184878    64.639779    64.940107    25405.191 
14955000   -201080.09    1.6037993 -0.0036310655    65.148248    64.753728    64.796181    25418.305 
14960000   -201033.09    1.5765587 0.0036635846    64.963746    64.681382    64.718632     25431.41 
14965000    -200931.8    1.6107044 -0.00057511094    65.449414    64.521062    64.751314     25444.51 
14970000   -200950.45    1.6027681 -0.0022771635    65.123192    64.610761    64.956602    25457.588 
14975000   -200955.57    1.6122388 -0.00023433981    65.052804    64.494896    64.952885    25470.654 
14980000   -200954.33     1.612518 -0.0013463282    64.730908    64.839856    64.957998    25483.779 
14985000   -201100.89    1.6340382 -0.001688272    64.932283    64.600054     64.99089     25496.94 
14990000   -200913.96    1.6205457 0.0010669447    64.653673    64.602375    65.219157    25510.158 
14995000   -200904.79    1.5934288 -0.0021509368    64.729833    64.793897    64.908764    25523.345 
15000000   -201146.02    1.5650866 0.00057123619    64.813623    64.532327    64.804593    25536.526 
15005000   -200875.27    1.6551594 -0.0014426341    64.543158    64.921307    65.060859    25549.639 
15010000   -200959.81    1.5845122 0.0034529746    64.770214    64.801954    64.743676    25562.739 
15015000   -200937.63    1.5663795 0.0046018794    64.638133    64.801901    64.757853    25575.836 
15020000   -200906.94    1.5977675 0.0017338504     64.91667    64.883144    64.752835     25588.96 
15025000   -201105.94    1.5783236 0.0032973839    64.822624    64.722573     64.68971    25602.092 
15030000   -200821.84    1.6275219 0.0013802218    65.141662    64.956331     64.40721    25615.197 
15035000   -200887.26    1.5529438 -0.001824232    64.849557    64.748236    64.698839    25628.288 
15040000   -200926.34    1.6396165 -0.00068615314    64.422266    64.987506    64.667435    25641.418 
15045000   -200935.53    1.6149808 0.00091042761     64.71571    64.948376    64.384555    25654.546 
15050000   -200804.07    1.5720691 -0.0013530141    64.869539    64.730415    64.661842    25667.684 
15055000   -200839.46    1.6379521 0.00035203465    64.852347    64.375381    64.852432    25680.799 
15060000   -200918.06    1.6109273 -0.00091878076    64.672821    64.516224    65.085651    25693.947 
15065000   -200893.48    1.6656418 -0.00021044341     64.73525    64.400804    65.122836    25707.068 
15070000   -200825.56    1.5935303   0.00231336    64.959467    64.429971    64.886741    25720.186 
15075000   -200935.01    1.6242201 -0.0018382758    64.988395     64.28087    65.115722    25733.322 
15080000   -200864.62    1.5636485 -0.0034520123    65.145786    64.610276    64.699168    25746.437 
15085000   -201066.51    1.5959287 -0.0028031697    64.815471    64.397605    65.140065    25759.514 
15090000    -201036.4    1.6566868 0.0026240268    64.864443    64.553058    64.802758    25772.613 
15095000   -200874.47    1.6111224 0.0020742341    65.136706    64.526347     64.69601    25785.746 
15100000   -200973.37    1.6310159 -0.00059422252    64.816626    64.457511    65.082926     25798.81 
15105000   -200885.99    1.6066114 -0.0056569941    64.685288    64.891717    65.043751    25811.939 
15110000   -201032.21    1.5383434 0.0039336571    64.421894    64.600017    65.068641    25825.056 
15115000   -200790.98    1.6085178 0.00096704779    64.751953    64.841787     64.96039    25838.178 
15120000   -201025.42    1.6053352 0.0029032525     64.78748    64.862938    64.698875    25851.269 
15125000   -200918.91    1.5564176 0.0032396219    64.912009    64.683965    64.772049    25864.412 
15130000    -200984.1    1.5911334 0.0014838615    65.040716    64.422099    65.020834      25877.5 
15135000   -200940.07    1.6190459 -0.0008677759    65.291466    64.787105    64.647838     25890.63 
15140000   -200941.77    1.5517352 -0.0054930763     65.19688    64.935692    64.804493    25903.787 
15145000   -201040.75    1.5787659 -0.0028830527    65.279445    64.739594    64.714787    25916.902 
15150000   -200961.98    1.6031324 -0.0052239626    65.327584    64.652242    64.942687    25930.014 
15155000   -201013.09    1.6093967 -0.0036269693    65.165977    65.062709    64.797142    25943.133 
15160000   -200627.55    1.6205389 -0.003481481    65.323438    64.843145     65.03578    25956.212 
15165000   -200758.04    1.6291164 -0.0078830714     65.02617    65.029901    65.337975      25969.3 
15170000    -200905.6    1.6248051 -0.001087701    65.032495    64.658211    65.171873    25982.404 
15175000   -200593.54    1.6141329 -0.00041859546    65.184257    64.595753    65.061007    25995.564 
15180000   -200649.45    1.5646112 -0.0014932587    65.153576    64.739309    64.798276    26008.675 
15185000   -200659.64    1.5980591 -0.00026208761    65.087473     64.78699    64.998245    26021.732 
15190000   -200755.33    1.6219488 -0.0026115417    65.185516    64.934518    64.899922    26034.852 
15195000   -200699.91    1.6038238 -0.00014762055    65.147859    64.908423     64.91545    26047.925 
15200000   -200750.55    1.6076808 -0.00055593731    65.393036    64.870293    64.697751    26061.097 
15205000   -200766.77    1.6210335 0.0002453075    65.278765    64.840871    64.912333    26074.186 
15210000   -200827.66    1.6271765 0.0027379159    65.270775    64.234327    65.530451    26087.247 
15215000   -200723.46    1.6049775 0.00030373456    65.694741    64.564982    64.981859     26100.35 
15220000   -200843.06    1.6039558 -0.0035009181    65.420223    64.838426    64.772642    26113.497 
15225000   -200947.53    1.5712424 0.00060054424    65.592168    64.546139    64.685283    26126.591 
15230000   -200881.27    1.5590786 -0.0037962801    65.604381    64.442511    64.959723     26139.71 
15235000   -200911.32    1.6105115 -0.0016127173    65.242702    64.976097     64.60931    26152.805 
15240000   -200967.44     1.637312 -0.0003227802    65.257041    64.534781    64.942551    26165.925 
15245000   -201010.33    1.5958536 -0.0036089288    65.325891    64.727117    64.927442    26178.996 
15250000    -200930.3    1.6506898 -0.0036421956    65.201099    64.918435    64.751629    26192.081 
15255000   -201075.52    1.5882625 -0.004049922    65.006912    64.621374    64.956716     26205.22 
15260000   -200829.12    1.6065751 -0.0035829967    65.332392    64.433584    65.015177    26218.309 
15265000   -200979.19    1.6270993 -0.0024447004    65.098052    64.584538    64.921011    26231.441 
15270000   -201191.41    1.5926894 0.0022823494    64.747546    64.466215    64.765768    26244.565 
15275000   -200973.64    1.5820849 0.00073585639    64.640785    64.757312    65.147054    26257.757 
15280000   -201005.85    1.5782357 -0.0033536638    65.105631    64.397217     65.00728    26270.875 
15285000   -200996.73    1.6325842 0.00090088511     65.23172    63.905107    64.932309    26283.965 
15290000   -200875.33    1.6028505 0.0008435885    65.169555    64.332071    64.760648    26297.111 
15295000   -200850.52    1.5915997 -0.0014720323    65.157384      64.6342    64.788692    26310.218 
15300000   -200907.63    1.6179975 -0.00021209561    64.983167    64.666461     64.70865    26323.365 
15305000   -200860.54    1.6201174 -0.00085528383    65.074089    64.749268    64.504132    26336.498 
15310000   -200876.96    1.5689597 0.00063267237    65.170463    64.296218    64.872615    26349.631 
15315000   -201046.84    1.5983897 -0.0025063331    65.078652    64.730703    64.563578    26362.755 
15320000   -200859.01    1.5724335 -0.0032466038    64.987817    64.817694    64.567713    26375.891 
15325000   -201031.95    1.6557599 -0.0055804722    64.990168    64.878079    64.844439    26389.021 
15330000   -201071.58    1.6044694 -0.0047400695    64.943991    65.015411    64.631664    26402.116 
15335000   -201080.29    1.6157026 -0.0041906246    64.542468    64.888931    64.984164    26415.263 
15340000    -200911.1    1.5900951 -0.0046786548    64.549241    64.733746    65.384683    26428.383 
15345000   -200912.47    1.6184662 -0.0022114689     64.86949    64.694532    65.083421    26441.458 
15350000   -200996.63    1.5916526 0.0034079848    64.964763    64.882653     64.53133    26454.612 
15355000    -201011.7    1.6495942 0.00034920583    65.029696    64.711908     64.80549    26467.742 
15360000   -200908.72    1.6314707 -0.0022083712    65.256542    64.620211    64.945753    26480.899 
15365000   -200794.64    1.6383252 -0.0023569495    64.982796    64.791785    64.923256    26494.082 
15370000   -200897.12    1.6294829 0.0009489964     65.43018    64.716773    64.477543    26507.206 
15375000   -200952.88    1.6858528 0.00077845531    65.131501     64.67574    64.711174    26520.362 
15380000      -200862    1.6155338 -0.0026318152    64.985054    65.091088    64.758118     26533.46 
15385000   -200871.44    1.6010593  0.003467101    64.650733    64.809845    64.873797    26546.589 
15390000   -200989.61    1.6130661  0.003463767    64.945105    64.856826    64.641703    26559.717 
15395000    -200947.9    1.5752694 0.0014794289    64.820397    64.648679    64.689766    26572.766 
15400000    -200976.6    1.5627752  -0.00281849    65.059567    64.812141    64.820686    26585.875 
15405000   -200859.56    1.5911211 -0.0056531362    65.264303    64.848788    64.892457    26598.993 
15410000   -200935.73    1.6222438 -0.0014830664    65.311038    64.510066    64.943251    26612.081 
15415000   -200942.36     1.646523 0.0034580724    65.070931    64.620542    64.936372    26625.195 
15420000   -200771.68    1.6186875 0.0030128112    65.208184    64.737801    64.907898    26638.224 
15425000   -200883.22    1.6112737 0.0024808922    65.235967    64.545016    64.702155    26651.326 
15430000   -200900.91    1.6232809 -0.00078394506     65.35888    64.615118    64.806452     26664.44 
15435000   -200887.86    1.5746041 -0.00078234056    64.879215     65.26206    64.773268    26677.553 
15440000   -200870.12    1.5551003 -9.3375073e-05    65.681083    64.613825    64.780199    26690.644 
15445000    -200843.2    1.6278105 0.0014720025    65.826902    64.478313    64.744315    26703.722 
15450000   -200730.48    1.6280715 0.0063509053    65.726087    64.673331    64.548839    26716.766 
15455000   -200744.74    1.6216174 0.0041724324    65.272936     64.91664    64.815369    26729.809 
15460000   -200855.67    1.5818119 -0.00082732224    65.274925    65.241703    64.752416    26742.824 
15465000   -200763.63    1.5952791 -0.0016527962    65.562133    65.205174    64.729792    26755.852 
15470000   -200916.24    1.6216823 0.00038885035     65.67789    64.871743    64.752475    26768.917 
15475000   -200693.57    1.5836916 -0.0008068811    65.584976    65.043593    64.995851     26781.98 
15480000   -200969.25    1.6330993 0.0030976631    65.555334    64.836905    64.847998    26795.026 
15485000   -200759.32    1.5923038 -0.0025599304    65.546293    65.327015    64.783674    26808.062 
15490000    -200902.7    1.6233944 -0.0034319269    65.758718    65.129524    64.712952    26821.094 
15495000   -200893.85    1.5923138 -0.0031312024    65.697192    65.060387    64.975208     26834.11 
15500000   -200917.53    1.5958525 0.0031033329    65.269356    65.164863    64.819863    26847.195 
15505000   -200855.51    1.6314806 0.0045924964    65.419239    64.684193    65.045966    26860.229 
15510000   -200857.41    1.5865597 0.0049074108    65.211062    65.090794    64.618186    26873.294 
15515000   -200883.44    1.6014843 -0.0029234871    65.428532    65.171167    64.593314    26886.329 
15520000   -201082.03    1.6007593 -0.00088252166    65.278217    64.978381    64.852934    26899.488 
15525000    -200999.7    1.5993696 -0.0027319761    65.332297    65.237434     64.70677    26912.578 
15530000   -200909.01    1.6063172 -0.0024336233    65.095919    64.968376    64.939505     26925.62 
15535000   -200964.32    1.6035637 -0.0016506301    65.225999    64.621845    65.046237    26938.692 
15540000   -200937.95    1.5805303 0.0010602794    65.103405    64.685676    64.823802    26951.774 
15545000   -200970.74    1.5958569 0.0016768883     64.99861    64.656631    64.982476    26964.854 
15550000   -201066.42    1.6472142 0.0011446529    64.795922    64.564042    65.065724    26978.015 
15555000   -200871.85    1.5583509 0.0020867787    64.952781    64.376362    64.798328     26991.09 
15560000   -200884.86    1.5919237 -0.0012064118    64.997577    64.714572    64.618716    27004.225 
15565000   -200945.96    1.5513748 0.0032545307    64.844946    64.527807    64.856179      27017.3 
15570000   -200928.33    1.5948435 -0.0017895697    64.957057    64.459289    65.324758    27030.348 
15575000   -200871.08    1.5826841 -0.00051713805    65.101161    64.624084    65.081413    27043.404 
15580000   -200889.73    1.6063447 -0.00070896107    65.129537    64.725942    64.919979    27056.462 
15585000   -200930.46    1.6095564 -0.0017337032    65.178307    64.855802    64.906537    27069.538 
15590000   -201081.95    1.5733651 -0.0013651329    65.112385    65.075097    64.927539    27082.595 
15595000   -200865.99    1.5542916 0.0022468575    65.191512    65.097169    64.956344     27095.64 
15600000   -200901.54    1.6327709 0.0007323033    65.423731     64.77945    65.072418    27108.672 
15605000   -200978.68     1.583937 0.0031398493    65.328125    64.956616    64.787545    27121.705 
15610000   -201025.56    1.5965152 0.0033541586    65.338528      64.9276    64.642016    27134.788 
15615000   -201039.14     1.541287 0.0018271599    65.316219    65.153018    64.592871     27147.87 
15620000   -200953.33    1.6048487 0.00062624393    65.475056    64.937072    64.730989    27160.935 
15625000   -200796.91    1.5612192 -0.0039248015    65.445815    64.891577    65.121569     27173.97 
15630000   -200875.93    1.6496012 0.0020233163     65.31569    64.650901    65.001316    27187.018 
15635000   -200811.47    1.5929342 0.0011656421     65.29597     64.76395    65.110094    27200.082 
15640000    -200629.7     1.553113 0.0019868084    65.439146    64.790289    65.118049    27213.192 
15645000   -200712.25    1.5692369 0.00083584497     65.03328    64.790369    65.418626    27226.288 
15650000   -200826.75    1.6353878 0.0027238163    65.326334    64.781075    64.745814    27239.371 
15655000   -200687.11    1.6056469 0.0040817676    65.143224    64.785418    65.084768    27252.404 
15660000   -200653.83    1.5968766 0.00079765821    65.230335    64.661783    65.063334    27265.472 
15665000    -200817.8    1.6006785 -0.00017844818    65.167115    64.611108    64.968113      27278.5 
15670000   -200856.47    1.5971071 6.2351633e-05    64.972561    64.732508    64.931458    27291.598 
15675000   -200884.64     1.635737 0.0021669934    64.748544    64.938067    65.285799    27304.647 
15680000   -200812.25    1.5688297 -0.0029047847    64.871711    65.294215    65.258399    27317.711 
15685000   -200833.85    1.5588228 0.0018697382    65.032524    64.730944    65.469435    27330.754 
15690000   -200898.53    1.5549389 0.00045938904    65.263601      64.7494    65.204846    27343.826 
15695000   -200762.05     1.640906  0.002359373    64.986974    64.821306    65.249529    27356.886 
15700000   -200723.94    1.5802972 -0.00049532178    65.244257    64.748609    65.081686     27369.98 
15705000   -200808.54    1.5560566 -0.0055477179    65.211585    64.941642    65.106028    27383.025 
15710000   -200880.83    1.5868441 -0.0052741327    65.155966    64.936448    64.948098    27396.059 
15715000   -200896.96    1.6784413 -0.0010468868    65.081399    64.629174    65.140166    27409.132 
15720000   -200984.62    1.5859056 -0.0021570314    64.998036    64.802646    64.900639    27422.227 
15725000   -200743.55    1.6504078 -0.004426074    64.902464    64.879522    65.078816    27435.289 
15730000   -200865.74    1.5975916 0.00093262277    64.767789    64.806526    65.006635    27448.364 
15735000   -200883.57    1.6408297 0.00013371116    65.180736    64.786957    64.600265    27461.476 
15740000   -200862.41     1.626935 -0.0060565484    65.347536    64.755904    64.856458    27474.547 
15745000   -200820.03    1.5813831 -0.0027114402     65.38047     64.81844    64.882377     27487.62 
15750000   -200913.66    1.6075897 -0.001134886      65.0677    64.849144    64.822569    27500.713 
15755000   -200861.23    1.6099351 0.0026348585     65.05801    64.536942    64.846917    27513.831 
15760000   -200973.44    1.6434415 -0.00028105651     65.09707    64.788707    64.533881    27526.951 
15765000   -200868.95    1.6028818 -0.0015608237     64.90596    64.921352    64.852944    27540.041 
15770000   -200922.28    1.6220647 -0.0026118939    65.009572    65.052563    64.882401    27553.108 
15775000   -200935.83    1.6074117 -0.0030091776    65.043204     64.64591    64.950073    27566.241 
15780000   -200860.22    1.6001788 -0.0011180979     64.86097    64.792994    65.091295    27579.365 
15785000   -201012.17    1.5898912 0.0053020198    64.536237    64.684452    65.002404    27592.468 
15790000   -200964.94    1.5974253 4.3983891e-05    64.639074    64.664239    65.212895    27605.559 
15795000   -201006.25    1.5939678 -0.0036618311    64.670647     64.95787    65.145955    27618.622 
15800000    -201061.6    1.5603168 -0.00019842768    64.833477    64.934983    65.075235    27631.742 
15805000   -201019.69    1.5856483 -0.0023778588    64.832539    64.990274    65.166961    27644.828 
15810000   -200956.55    1.6046273 -0.0025924646    64.919087     65.25076    65.043697    27657.893 
15815000   -200961.86    1.6124553 -0.0035421407    65.263585    65.200249     64.84947    27671.023 
15820000   -200940.93    1.5360775 -0.0012115362    64.622831    65.398718    65.167688    27684.056 
15825000   -200842.04     1.609054 -0.0011716765    64.937971    65.419349    64.976649     27697.16 
15830000   -200830.05    1.6411227 -0.001271131    64.896451    64.948364     65.17967    27710.333 
15835000   -200756.02    1.5734437 0.00010151842    65.054034    64.865585    65.207882    27723.476 
15840000   -200817.16    1.6416239 -0.00037208791     64.87599     64.74756    65.406799    27736.642 
15845000    -200891.1    1.5492729 -0.0015108727    64.963374     64.98877     65.23301    27749.745 
15850000   -200945.21    1.6097137 -0.0011749167    65.126246    65.121162    64.918308    27762.855 
15855000   -200869.51    1.6233091 -0.0023722254    65.080165      65.0291    65.150707    27775.951 
15860000   -200893.11    1.5918354 0.00069861651    64.874178    65.110897    65.201674    27788.999 
15865000   -200682.86    1.6068024 0.0026602939    65.022394    65.092794    65.054028    27802.102 
15870000   -200801.07     1.568351 -0.0019972595    64.984788    65.177881    65.065637    27815.267 
15875000   -200778.53    1.6338879 -0.00062848766    64.983791    64.982042    65.192077    27828.342 
15880000   -200867.13    1.6227607 -0.00036898555      65.0276     65.13051    65.206164    27841.378 
15885000   -200756.01    1.6036503 -0.0012970407    64.715634    65.331209    65.380068    27854.499 
15890000   -200837.31    1.6078149 -0.0010760053    65.116588    65.089778    65.263356    27867.565 
15895000   -200858.39    1.6001158 0.0016904456    64.744946     65.02041    65.182221    27880.637 
15900000   -200757.68    1.5883052 -0.00023163926    64.686788    65.122612     65.29194    27893.728 
15905000   -201084.66    1.5998909 0.0013939171    64.466405    65.297776    65.294259    27906.757 
15910000   -201178.69    1.6220054 0.0053668308    64.714583    64.797424    65.319105    27919.871 
15915000   -201078.36    1.6110538 -0.0029601915     65.03227    65.148153    65.087355     27932.93 
15920000   -201051.32    1.5807583 -0.0011757879    64.775175    65.076358    65.287311    27946.017 
15925000   -201041.11    1.6508829 -0.0002933637    64.920075    65.233197    64.993247      27959.1 
15930000   -201124.75    1.6362251 -0.0014855137    64.747682    65.167321    65.031395    27972.153 
15935000   -200994.02    1.6443492 -0.0099343299    65.069266    65.012494    65.445268    27985.204 
15940000   -200962.84    1.6486437 0.0010426909    64.635972    65.020784    65.323215    27998.249 
15945000    -200941.2    1.5695999 -3.43637e-05     64.47773    65.288965    64.845774      28011.3 
15950000   -201069.38    1.5450747 0.0010768212      64.7482    65.051978    64.514593    28024.384 
15955000   -201040.05    1.5983842 -0.0040182139    64.689779    65.016122     64.87683    28037.466 
15960000   -200990.21     1.639688 -0.00096478518    64.609392    65.157279    64.883947    28050.594 
15965000   -200958.52    1.5879257  0.002899863    64.574839    65.080326    64.857235    28063.692 
15970000   -200985.83     1.640753 0.0016608933    64.756319    65.030196    64.743134    28076.808 
15975000   -201032.66     1.596247 0.0058068444    64.688544     64.91252    64.793787    28089.858 
15980000   -200985.97     1.615756 0.0014321289    64.936229    64.885727    64.668521     28102.95 
15985000   -201095.68    1.5962393 -0.0013428982    65.246919    64.613862    64.799745     28116.05 
15990000   -201034.24    1.6316477 0.0010543952    65.260683    64.777774    64.502521    28129.142 
15995000   -201006.23    1.6018542 -0.00098532345    65.501396    64.774009    64.491405    28142.204 
16000000   -200923.25    1.5904292 -0.0013557026    65.195073    65.180612    64.503189    28155.259 
16005000   -200955.71    1.5880525 -0.0029832833    65.204819    64.775683     64.73908    28168.362 
16010000   -200993.32    1.5750038 0.0021820907     65.27051     64.49746    64.728566    28181.498 
16015000   -200857.56    1.6495402  0.005173383    65.249193    64.938487    64.468129    28194.597 
16020000   -201023.05    1.5896233 0.0001767614    65.069323    64.837554    64.756188    28207.703 
16025000   -201034.93    1.5881628 -0.0011487136    65.151232    64.554555    64.927487    28220.771 
16030000   -200917.96    1.5901118 0.0036617563    65.333695    64.822684    64.187222    28233.836 
16035000   -201035.32    1.5651201 0.0025419232    64.936801    64.957005    64.509868    28246.932 
16040000    -201033.6    1.5642693 9.6362451e-05    64.813298    64.890858    64.682362    28260.017 
16045000    -201071.2    1.6243029 0.00084928568    64.884359    64.999689    64.530437    28273.102 
16050000    -201129.3    1.6028217 0.00010516745    65.041973    64.985124    64.531921    28286.214 
16055000   -201208.94     1.649445 -0.0017604901    64.774708     64.99017    64.760806    28299.274 
16060000   -201190.57    1.6315183 -0.0029287342    65.079588    65.154358    64.432317    28312.407 
16065000   -201136.33    1.5895762 -0.0025651932    65.138637    65.114933    64.417066    28325.492 
16070000      -200945    1.5881358 0.0015431879    65.005428     65.02312    64.533099    28338.589 
16075000   -200971.08    1.6161929 0.0017874772    64.875779    65.017165     64.53392    28351.739 
16080000   -200826.03    1.6019665 0.00058564818    65.026383    64.845126    64.805834    28364.891 
16085000   -201071.14    1.5857437 -0.0037330367     65.14762    64.769143    64.728001    28378.014 
16090000   -200966.94    1.5529276 -0.0012691777     64.71099    64.850887    64.942211    28391.161 
16095000   -200870.38    1.5834873 -0.00059128206    65.048356    64.587559      64.9256    28404.284 
16100000   -200816.17    1.6024842 -0.00051793785    64.843511    65.088943     64.87599    28417.406 
16105000   -200914.67     1.549684 -0.0010836011    65.051476    65.260621    64.613074    28430.477 
16110000   -200876.39    1.6006173 -0.00074655144    65.336142    65.293912    64.460047    28443.522 
16115000   -200960.71     1.617076 0.00038972463    65.021255    65.202525    64.641672    28456.604 
16120000   -201029.44    1.6013733 0.0014690389    65.086479    65.264177    64.534768     28469.71 
16125000   -200824.71    1.6413434 0.0013102239     65.06115     65.35656    64.622724    28482.769 
16130000   -200788.02     1.598887 0.0033017235    65.273456     65.18885    64.503031    28495.862 
16135000   -200953.02    1.5876202 0.0019084676      65.4352    64.988887    64.661486    28508.948 
16140000   -200904.49    1.5902578 0.00089585105    65.432161    65.009198    64.721639    28522.025 
16145000   -200700.53    1.6061937 -0.003103634    65.425478    65.250426    64.762228    28535.076 
16150000   -200795.29    1.6081724 0.00072729483    65.353087     65.01001    64.746094    28548.141 
16155000   -200943.05    1.5848413 0.00050455984    65.289427    64.838305    64.936392    28561.236 
16160000   -201058.56    1.5924572 0.0021668826    65.030028    64.786588    64.793868    28574.316 
16165000   -200778.15    1.5736726 0.00012363022    65.144351     65.21331    64.594682    28587.421 
16170000   -200793.48    1.6463566 0.0012538479    65.308915    64.967791    64.867126    28600.549 
16175000      -200708    1.5816426 -0.0050321803    65.342328     65.28978    64.951008    28613.612 
16180000   -200975.11    1.5413257 -0.0019481404    65.355246    65.023087     64.88005    28626.726 
16185000   -201024.49    1.5953925 0.0014659843    65.239491    64.841594    64.925205    28639.805 
16190000   -200950.76    1.6254421 0.00088762083     64.94908    64.836101     65.04603     28652.97 
16195000   -200767.48    1.5743241 -0.00074865995    65.379927    64.981989    64.647479    28666.074 
16200000      -200723    1.6054675 0.00074876945    65.249844     64.93871    64.980349    28679.196 
16205000    -200752.2    1.5847053 -0.0020552513    65.289541    64.678388    65.190728    28692.257 
16210000   -200812.04    1.5878663 -0.00046824154    65.269086    64.897008    65.013052    28705.347 
16215000    -200829.9    1.6031825 -0.0018210304    65.537409    65.044985    64.544524    28718.474 
16220000   -200778.85    1.5688011 -0.0014507472    65.457792    64.978164    64.785832     28731.56 
16225000   -200823.24    1.6347171 -0.00076021176    65.034739    64.800751    65.235987    28744.637 
16230000   -200794.34    1.6153432 -0.002182938    64.945453    65.026041    65.146472    28757.729 
16235000   -200804.51    1.5862762 -0.0041791818    65.275389    65.038284    64.909297    28770.792 
16240000    -200705.5    1.5863524 -0.0072695385     65.60055    65.279329    64.620607    28783.856 
16245000   -200706.71    1.6244365 -0.0036349939     65.40414    65.029509    64.815399    28796.934 
16250000   -200600.89     1.620287 -0.0044638646    65.307836    65.160657    64.897383    28810.035 
16255000   -200672.04    1.6276403 -0.00030398447    65.547642    65.015352    64.591217    28823.127 
16260000   -200815.97    1.5986095 -0.00076318646    65.216244    64.958128     64.84566    28836.199 
16265000   -200832.86     1.611175 0.0011449384    65.089299    64.897997    64.710862     28849.34 
16270000   -200626.43     1.565048 -0.0044416036    65.109635    64.823293    64.819565    28862.478 
16275000   -200794.16    1.5800496 -0.0014609561    65.028419    64.516659    65.026945    28875.669 
16280000   -200811.81    1.6319006 -0.00039174181    64.769672    64.887629    64.884295    28888.878 
16285000   -200816.36     1.619631 0.00016011693    65.040822    64.674186    64.937536     28901.97 
16290000   -200826.09    1.5916006 -0.00019464656    64.831451     64.59747    64.985167    28915.065 
16295000   -200746.59     1.582085 0.0011237155    64.964877    64.635375    64.851313    28928.185 
16300000   -200891.24    1.5966531 -0.0038439682    64.854747     64.93261    64.741437    28941.338 
16305000   -200870.35    1.5770456 0.0011196436    64.507968     64.77696    65.015029     28954.46 
16310000   -200784.25    1.6001842 0.0061780893    64.515171    64.929622    64.856265    28967.594 
16315000   -200980.86    1.5761743 0.0019376322    64.892481    64.574152    64.779184    28980.677 
16320000   -200940.35    1.6238416 -0.003355228    64.307111    65.042912    65.237629    28993.783 
16325000   -200999.63    1.5636886 -0.0029278619    64.827166    64.758081    64.867878    29006.867 
16330000   -200816.07     1.561761 -0.000534322    64.732244    64.351464    65.250316    29019.989 
16335000   -200866.08    1.6758616 0.0040687908     64.83107     64.32506     64.84108    29033.089 
16340000   -200934.78    1.6128373 0.0004961768     64.90217    64.291278    64.984189    29046.256 
16345000   -200710.18    1.6075203 -0.0049502334    64.725364     64.50459     65.19624    29059.411 
16350000   -200846.96    1.5865616 -0.0044810963    64.917514     64.47509    64.910899    29072.547 
16355000   -200842.37     1.608797  0.001544995    64.748732     64.48958    64.771476    29085.692 
16360000   -200626.85    1.6089624 -0.001363989     64.81391    64.756023    64.824069    29098.843 
16365000   -200843.62    1.6360978 0.0016936699    64.934523    64.546435    64.599363        29112 
16370000   -200860.62    1.6470016  0.001014226    64.865127    64.623639    64.704572    29125.113 
16375000   -200827.27    1.6301009 -0.00062824531    64.651914    64.812294    64.702389    29138.252 
16380000   -200858.06    1.6934243 -0.0014119382     64.75696    64.955418    64.588812    29151.333 
16385000   -201027.94    1.5783458 -0.0026457133     65.14996    64.487051    64.540255    29164.433 
16390000   -200724.83     1.628251 -0.0015873577    65.132098    64.758922    64.361837     29177.58 
16395000   -200832.02    1.6412301 -0.003017226    65.034974    64.818201    64.593816    29190.681 
16400000   -200903.52    1.5996112 0.0015030418     64.98403    64.553467    64.612974    29203.801 
16405000   -200878.46    1.5867017 0.0034887812    64.892063      64.6926    64.615014    29216.978 
16410000   -201093.58    1.6021349 0.0016544956    64.871429    64.885531    64.245857    29230.123 
16415000   -200956.76    1.6172229 -0.0037949062    65.243662    64.744069    64.577182    29243.285 
16420000   -200842.41    1.6081261 -0.0028433249    65.139296    64.774703    64.757578    29256.433 
16425000   -200959.83    1.5954751 0.00075708566    64.903869    64.906846    64.794025    29269.481 
16430000   -200838.36    1.6102119 0.0014812783    65.196723    65.156897    64.626346    29282.609 
16435000   -200793.78    1.5928041 0.0052192846     64.84871    65.006772     64.68203    29295.677 
16440000   -200841.86    1.6205336 0.0015212128    65.290984    64.869438    64.642647    29308.772 
16445000   -200768.47     1.575334 0.00097141426    65.368686    64.712381    64.675251    29321.843 
16450000    -201011.8    1.5989005 0.00088737016    65.154449    64.897543    64.742624    29334.951 
16455000   -200949.78    1.5823545 0.00024049725    65.127035    64.693267    64.862274    29348.073 
16460000   -200814.97    1.5740608 -0.0014162231     65.09171    64.861868    65.012476    29361.203 
16465000   -200983.17    1.6577837 0.0015179063    64.823584    64.959992    64.923156    29374.283 
16470000   -200813.74    1.6471057 0.00092170774    64.719518    65.056945    65.207782    29387.348 
16475000   -200978.22    1.6062366 0.00071283881    64.981471    64.996459    64.977102     29400.42 
16480000   -200969.69    1.6096105 0.00051467299    64.880212    65.079361    64.917675    29413.495 
16485000   -200996.81     1.630007 0.0052638312    64.543851    64.957483    65.057402    29426.569 
16490000   -200910.95    1.5495574 0.0036952365    65.009819    65.201289    64.665319    29439.635 
16495000   -201017.21    1.5954419 0.0049917743    65.019679    64.949767    64.878292    29452.723 
16500000   -200918.25    1.6164109 7.5860237e-05    65.119212    65.239937    64.923825    29465.819 
16505000   -200745.96    1.6156186 0.00042116956    65.278567     65.24628    65.012558    29478.911 
16510000   -201015.04    1.5500351 -0.001424916    65.326031    65.052011    64.929665    29492.004 
16515000   -200930.44    1.6208997 0.0013720065    65.086329    64.984562    65.240118    29505.062 
16520000   -201044.41    1.6196492 -0.0023788714    65.323785    65.062124    65.099639    29518.177 
16525000    -200941.9    1.5632762 -0.0044932064    65.505192    65.211167    65.070012    29531.247 
16530000    -200996.5    1.5826555 0.0017150719    65.350028    65.004294    64.950247    29544.278 
16535000   -201047.87    1.5649502 0.0011634482    65.212325     65.48833    64.652772    29557.292 
16540000   -200923.86    1.6113411 0.0018128553    65.271994    65.140502    64.905749    29570.393 
16545000   -201100.03    1.6054256 0.0016582194    65.032085    64.994494    65.164708    29583.425 
16550000   -200997.07    1.5966996 0.00052309395    65.111639    64.956216    65.248976    29596.497 
16555000   -201002.62    1.5740028 -0.0013870242    65.107901    65.237927    65.098537    29609.574 
16560000   -201054.73    1.6074884 -0.0010211643    65.305281    64.979398    64.952216    29622.603 
16565000   -200968.71    1.5666259 5.8861452e-05    65.296146    64.923775    64.961992    29635.682 
16570000   -200814.44    1.6332567 -3.0991186e-05    64.983523     65.01768    65.293954    29648.742 
16575000   -200983.52    1.6229395 0.0018380768     65.11777    64.967621    64.946532    29661.824 
16580000   -200978.41    1.5681696 0.0032185306    65.611157    64.455787    64.698478    29674.827 
16585000   -200925.73    1.6291762 -0.0010451228    65.296191    64.612207    65.366376    29687.924 
16590000    -200705.7    1.5759675 -0.002892138    65.507853    64.734596    65.166795    29701.008 
16595000   -200792.08    1.5949688 0.0022480169    65.609465    64.630308    65.036565    29714.081 
16600000   -200780.16    1.5956586 -0.0026354787    65.323078    64.797506    65.193703    29727.137 
16605000   -200789.46    1.5915042 0.0031209911     65.32813    64.673849    64.968036    29740.305 
16610000   -200704.48    1.5897506 0.0028530441    65.287144    64.475967    65.412267    29753.379 
16615000   -200751.82    1.6352713 0.0019320933    65.513298    64.551698    65.121513    29766.407 
16620000   -200625.85    1.5844767 -0.00065263673    65.092203    64.951073    65.425304    29779.536 
16625000   -200850.81    1.5606601 0.00060840747    65.590551    64.915775    64.822348    29792.625 
16630000    -201056.8    1.5928417 0.0025632321    65.198107    64.998442    65.118094    29805.725 
16635000   -200864.59    1.5955362 0.0019957528    65.094337    64.943322    65.193971    29818.802 
16640000   -200989.79    1.6235086 -0.0010646576    64.944156     65.06363    65.216161    29831.912 
16645000   -201048.84    1.6248104 -0.0048582182     65.07995     64.95205    65.160568    29845.002 
16650000   -200906.85    1.5932852 -0.00013674399    65.259695    64.676036    65.253904    29858.059 
16655000   -201024.88     1.596018 0.00059221407     65.22553    64.723698    64.880792    29871.185 
16660000    -200820.9    1.5980659 -0.0032744915     65.49847    64.895847    64.908714    29884.205 
16665000   -200818.21    1.6076008 -0.0012908646    65.204682    64.894566    64.784924    29897.363 
16670000   -200798.52    1.5859303 0.00047372953    65.007394    64.842249    64.727607    29910.444 
16675000   -200870.61    1.6067366 0.0015030178    65.031956    64.513565    64.841845    29923.508 
16680000   -200818.42    1.6210217 0.0018524837    64.912757    64.654399    64.930956    29936.625 
16685000   -200858.77    1.5864586 -7.7049428e-05    65.034071    64.932341    64.667756    29949.711 
16690000   -200807.79    1.6231673 -0.00066223595     64.92969    64.778566    65.060511    29962.817 
16695000   -200900.94    1.5867529 -0.0050100203    64.706288    65.091022    64.947821    29975.869 
16700000    -200871.1    1.6501533 0.00039944605     64.69028    64.709212    65.227145    29989.002 
16705000   -200960.77    1.6288344 0.0021508404    64.868331    64.637297     64.82491    30002.125 
16710000   -200909.17    1.6070157 -0.0073277288    65.041585    64.495226    65.460883    30015.216 
16715000   -200884.19    1.5786172 -0.0015545721    65.108887    64.606688    65.169364    30028.321 
16720000    -200866.1    1.5883132 -0.005311909    65.219025    64.792483    65.193146    30041.442 
16725000   -200844.33    1.5937418 -0.0023172778    65.359346    64.734058    65.003105    30054.514 
16730000   -200781.81    1.5831054 -0.0050300503    65.122492    64.668061    65.394769    30067.567 
16735000   -200921.02    1.5958044 -0.00022053952    65.047671    64.673185    65.014577     30080.66 
16740000    -200990.2    1.5904196 0.0031900502    65.159635    64.531701    64.974439     30093.79 
16745000   -201004.69    1.6268254 0.0024893512    65.158951     64.82368    64.659153     30106.85 
16750000   -200973.58    1.5759257 -0.0058186271    65.035213    64.921686    65.255351    30119.917 
16755000   -200976.45    1.6217979 0.00072265503     64.98563    64.958224    64.948913    30132.985 
16760000    -200993.3     1.652025 0.0015348604    64.862248    65.084741     64.78238    30146.137 
16765000   -200880.72    1.5622357 -0.0018905753    64.821611    65.045638    65.108576    30159.222 
16770000   -200914.46    1.5703226 -0.0055718358    65.228413    64.852585    65.114812    30172.307 
16775000   -200801.92     1.578563 -0.0060542837    65.371856    64.607424    65.197066    30185.391 
16780000   -200761.23     1.550184 -0.0031098315    65.261631    64.730322    65.050255    30198.516 
16785000   -200843.49    1.6081128 -0.0020070877    65.156056    64.770603    65.152865    30211.705 
16790000   -200884.04    1.5613687 -0.0042706559    65.652979    64.769096     65.08896    30224.741 
16795000   -200887.78    1.5535339 0.0022531787    65.477124    64.640643    64.902982    30237.779 
16800000   -200984.96    1.5938163 0.0005213264    65.413439    64.866534    64.690845    30250.892 
16805000    -201044.8    1.5808883 0.0017459758    65.126111    64.752928    64.934489    30263.964 
16810000   -201085.14    1.6478699 -0.0019916799     65.13594     64.82607    65.095808    30277.009 
16815000    -201054.7    1.5880801 -0.00097309273    65.249814    64.848484    64.959553    30290.051 
16820000   -200929.78    1.6027805 -0.0035783085    65.457264    64.905177    64.933409    30303.114 
16825000   -200774.46    1.6191267 -0.0044029252    65.463419    65.095977    65.001498    30316.206 
16830000   -200884.84    1.6113654 -0.00050140798    65.130208    64.899441    65.043408    30329.216 
16835000   -200870.15    1.6537548 -0.0040042143    65.282576    64.903507    65.150733    30342.239 
16840000   -200886.13    1.5394783 -0.0018507692    64.969295    65.167916    64.902059    30355.357 
16845000   -200795.12    1.5873848 0.0053865039    64.746874    64.902735    64.879188    30368.468 
16850000   -200874.08      1.59508 0.00016952826    64.947842    64.816347    65.169132    30381.584 
16855000   -200921.09    1.5860136 0.00063060766    64.712435    65.128743     64.87337    30394.653 
16860000   -200880.02    1.5717335 0.00065761394    65.132466    64.730406    65.060235     30407.73 
16865000   -200914.68    1.5817358 0.0012519681    65.112221    65.043586    64.620374    30420.786 
16870000   -201074.81    1.6033092 0.0022763177    64.697151    65.099317    64.805671    30433.841 
16875000   -201061.86    1.5593488 0.0037637726    64.844865    65.038084    64.903734    30446.975 
16880000   -200917.86    1.5820057 0.0049590763    65.185377    64.831389    64.718302    30460.059 
16885000   -200787.44    1.6122038 -0.00013633487    65.142757    65.155633      64.9293    30473.093 
16890000   -200971.17    1.5270996 -0.00027564696    65.139169    64.825974    65.107697    30486.165 
16895000   -201019.35    1.6278313 0.0029558662    65.129854     64.96514    64.950863    30499.208 
16900000   -201100.86    1.5954154 0.0049492059    64.938715     64.71112    65.076722    30512.241 
16905000   -201040.41    1.6170419 0.0030600589    65.163954    64.832529    64.829423    30525.328 
16910000    -201086.5    1.5888133 0.0020524096    64.899174    64.790726    65.204429    30538.505 
16915000   -201005.25    1.6345484 0.0023372774    65.045056    64.681225    65.197318    30551.647 
16920000   -200992.55    1.5982712 0.0016619288    65.171923    64.856156    64.776728    30564.749 
16925000   -200929.11    1.5957124 0.0043593522    64.952564    64.825532    64.858197    30577.825 
16930000   -200895.63    1.6156179 0.00056777017    65.039011    64.803886    64.875958    30590.952 
16935000    -200955.6    1.6414923 0.0042597451    65.136613    64.576432    64.897417    30604.083 
16940000   -200880.44    1.6053493 0.00031819779    65.051521    64.736843    65.013719     30617.22 
16945000    -200947.4    1.5691136 0.0019863689    64.700006     64.75283    65.114643    30630.359 
16950000   -201027.09     1.616916 0.0046739104    64.888573    64.968895    64.613136    30643.468 
16955000   -201002.14    1.5997255 0.0015008348    64.765469    65.120666    64.532862     30656.54 
16960000   -200962.59    1.6534443 0.0019817335    64.957511    64.929068    64.534535    30669.632 
16965000   -201066.89    1.6252284 0.0061059434    64.596028    64.943766    64.599987    30682.761 
16970000   -201133.04     1.589698 -0.00074267948    64.885793    64.762054    64.935013    30695.852 
16975000   -200973.06    1.6259072 0.0028721781    64.621231    64.905182    64.739684    30708.955 
16980000   -201043.24    1.6258489  0.002245431    64.908483    64.694647    64.612789    30722.074 
16985000   -201003.42    1.6122011 0.0054687395    65.198822    64.497477    64.446545    30735.152 
16990000   -200935.33    1.6275908 -0.0019480672    65.077316    64.589533    64.757178    30748.293 
16995000   -201037.69    1.5706422  0.001751352    65.249082    64.492915     64.59573    30761.401 
17000000   -200982.82    1.6397771 0.0012474256    64.786501    64.711529    64.580488    30774.528 
17005000   -200817.48    1.5857035 -0.00039276515    65.189961    64.650769    64.761757    30787.671 
17010000   -200958.56    1.6085185 0.0056301015    65.020161    64.799455    64.378747    30800.778 
17015000   -200738.62     1.548203 0.0048266307    64.896496     65.10584    64.369921    30813.881 
17020000    -200811.8    1.5846581 0.0031842666    64.842162    65.080369    64.542513    30826.994 
17025000      -200738    1.5741751 0.0018048399    65.037371     64.77852    64.789989    30840.109 
17030000   -200958.68    1.5976542 -0.00039138313    64.892316    64.889847    64.545337    30853.227 
17035000    -200982.5    1.5803946 0.0028532734    64.626255    64.786667    64.927849    30866.299 
17040000   -200953.66    1.5758607 0.0046051314    64.807639    64.703621    64.645216    30879.381 
17045000   -201011.93    1.6214147 0.0046349645    64.688895    64.899504    64.598036    30892.468 
17050000   -201010.44    1.6102679 -0.001448841     64.68459     64.71479    65.242032    30905.552 
17055000   -201006.19    1.5935935 -0.00059195668    64.935857    64.809784    64.932286    30918.655 
17060000   -201087.05    1.5596407 -0.0032093248    64.950466    64.765283    64.901426    30931.771 
17065000   -200989.77    1.5850285 -0.0019322327    64.894412    65.087482    64.694654    30944.859 
17070000   -200964.06    1.6166527 -0.001565028    65.089751    65.314335    64.620717    30957.916 
17075000   -200920.79    1.5783198 -0.00049909369    65.101637    65.147777     64.52253    30970.967 
17080000   -200881.65    1.6120244 0.00095145831    64.933951    64.945962    64.869698    30984.061 
17085000    -200612.2    1.5950898 3.6436323e-05    65.124239    64.933999    65.098374    30997.114 
17090000   -200809.62    1.6115981 0.0021864711    65.336573    65.121209    64.472615    31010.122 
17095000   -200860.74    1.6563158 -0.00047123801    65.098314    65.080853    64.715843    31023.135 
17100000   -200744.53    1.5818031 -0.0020597162    65.108473    65.185797    64.768256    31036.202 
17105000   -200730.99    1.6156776 -0.00024771021    65.064615    65.118532    64.750885    31049.251 
17110000   -200823.36    1.5839526 -0.0011229725    65.402023    64.582716    64.775893    31062.337 
17115000   -200803.44    1.6087009 -0.00035206894    65.389986    64.770594    64.731299    31075.436 
17120000   -200714.23    1.5745035 -0.0032841573    65.539734    64.725764    64.655507    31088.571 
17125000   -200896.54    1.6005995 -0.002156251    65.339171    65.042904    64.378098    31101.687 
17130000   -200888.42    1.5975006 -0.0029698743    65.076288    64.846904    64.765368    31114.871 
17135000   -200705.85    1.5905739 -0.0028253282    65.017096    64.919677    64.812825    31128.062 
17140000   -200819.44    1.5919021 -0.00067299877    65.168554    64.613259    64.478574    31141.204 
17145000   -201003.01    1.6227598 0.0027291357    64.886088    64.569799    64.740869    31154.415 
17150000   -200843.69     1.620119 0.0029240134    64.754959    65.026114    64.604753    31167.556 
17155000   -200710.97    1.5834675 -0.0011504673    65.200954    65.209968    64.491416    31180.689 
17160000   -201025.76     1.620482 -0.0009850804    64.963175     64.84005    64.755317    31193.857 
17165000   -201072.59    1.6561409 -0.00094854775    65.068282    65.048493    64.358104    31206.975 
17170000   -200990.59    1.6261195 0.00095149586    64.988082    65.061098    64.675304    31220.056 
17175000   -200821.95    1.5969394  0.003236635    65.295876    64.864921    64.479213    31233.182 
17180000   -200851.16    1.5898114  0.002939256      65.1399    64.884154    64.784309    31246.238 
17185000   -200916.48    1.5753356 7.6948531e-05    65.295946    64.939169    64.548787     31259.29 
17190000   -200771.62    1.6285811 -0.0014896954    65.067997    64.734994    65.074247    31272.348 
17195000   -200913.54    1.5911471 0.0065011954    65.161079    64.729386    64.508872    31285.417 
17200000   -200604.19    1.6129295 0.00011987717    65.544671     64.70766    64.547816    31298.585 
17205000   -201004.33    1.5766594 -0.00033706465    65.110727    65.061915    64.408283    31311.722 
17210000   -200865.29    1.5770862 -0.00017461691    65.243623    65.138713    64.369259    31324.832 
17215000   -201024.46    1.5705322  0.001662932    65.052501    64.694022    64.643037    31337.995 
17220000   -201052.82    1.6299662 0.00044358244    65.044207     64.52887    64.651364    31351.122 
17225000   -200856.35    1.6179848 0.0011151486    65.084317    64.402079    64.677456    31364.339 
17230000   -201037.61    1.6518785 0.0010379477     64.91749    64.432314    64.805163    31377.423 
17235000   -201070.06    1.5732807 0.0016695754    64.709942    64.475886     64.86837    31390.536 
17240000   -200927.48    1.6069597 -0.0001221152    64.676154    64.693526    64.836299     31403.65 
17245000   -200989.73    1.6266388 -0.0040386162    65.025491    64.652044    64.820897    31416.767 
17250000   -200942.02    1.6225053   0.00238225    65.119398    64.568579    64.545783    31429.888 
17255000   -201117.35     1.558223 -0.0037123336    65.120055    64.478009    64.788875    31443.078 
17260000    -200933.7    1.5551213 -0.0017686631    64.733787     64.61557    65.037023    31456.233 
17265000   -200931.59    1.5444294 -0.0042189024    64.805251    64.714986    65.116143    31469.292 
17270000   -200965.45     1.554505 -0.00030401505    64.774861    64.722409    64.833384    31482.423 
17275000   -200787.88    1.5903642 -0.0016110454    65.165349    64.467376    64.954442    31495.527 
17280000   -200853.71    1.6766028 0.0018918788    64.586318    64.805768    64.983098    31508.619 
17285000   -200785.72    1.5769258 0.00074472221    64.607064    64.666086     65.26208    31521.747 
17290000   -200863.36      1.62197 0.00040655019    64.439283    64.954935    65.150605    31534.847 
17295000   -200826.14    1.5928713 -0.0018078285    64.700859    65.047965    64.984882    31547.921 
17300000   -200806.05    1.5961961  0.002457824    64.504987    65.028418    64.935474     31561.01 
17305000   -200690.01    1.5470616 -0.00058468103    64.380191    65.354161    65.108062    31574.063 
17310000   -200794.16    1.6063372 -0.0011908815    64.774469    65.137546    64.763107    31587.126 
17315000   -200980.27    1.6482846 -4.7131805e-05    64.936947    64.895439    64.689141    31600.267 
17320000   -200984.25     1.577252 -0.0010885927    64.885029    64.970034     64.57277    31613.393 
17325000   -200854.97    1.5868571 -0.0021975508    64.974676    64.592706    65.013671    31626.486 
17330000   -200888.01    1.5827341 -0.001217486    65.078053    64.696353    64.749573    31639.646 
17335000   -200816.85    1.6085368 -0.0017598536    65.026994    64.616277    65.080064    31652.797 
17340000   -200990.72    1.6165264 2.0723873e-05    64.840339    64.731726    65.048241    31665.915 
17345000   -200853.36    1.6211897 -0.004525238    65.046782    64.716118    65.041684    31678.955 
17350000    -200890.2    1.5929151 0.0011907732    64.918058     64.88765    64.774954    31692.028 
17355000   -201105.02    1.6074816 -0.00043480141    65.070004    64.529193    64.704249    31705.159 
17360000   -200952.45    1.6607646 9.8306011e-05    65.111911    64.564798    64.829181    31718.308 
17365000   -200973.43    1.6284532 -0.0027165268    64.775401    64.635988    65.230778    31731.399 
17370000   -201004.34    1.6116418 -0.0020060008    64.409227    64.763304    65.250674     31744.48 
17375000   -200948.91    1.6335074 -0.0069796771    64.696065    64.847262    65.031844    31757.588 
17380000   -200890.31    1.5761613 -0.0025264681    64.905386    64.916823    64.731462    31770.738 
17385000   -201091.67    1.6271736 0.0019256189    64.666542      64.7581    64.718989     31783.83 
17390000   -201005.69    1.6056655 0.0032064009    64.667583    65.031048    64.704853    31796.935 
17395000   -201027.99    1.6249886 0.0024251625    64.900683     64.89319    64.671641    31810.083 
17400000    -200961.7    1.6537575 -0.00014697601    65.187154    64.560317    64.835786    31823.162 
17405000   -201134.58    1.5805041 -0.0011691396    64.914174    64.893267    64.937214    31836.272 
17410000   -200994.87    1.5542264 -0.00034640873    65.277577    64.783169    64.852426    31849.476 
17415000    -200917.7    1.6157003 0.0027898488    65.235766    65.044267    64.505491    31862.604 
17420000   -200874.36    1.6109569 0.0028862253    65.166793    64.766268    65.025688    31875.697 
17425000   -200708.14    1.6066523 0.0082642099    64.970619     64.55979    64.949549    31888.828 
17430000   -200706.03    1.6223929 0.0028788578    65.360108    64.610236    64.877402    31901.918 
17435000   -200648.19    1.5674518 -0.0035315003    65.206631    65.006305    64.571609    31914.947 
17440000    -200713.4    1.5952135 -0.0057495972    65.485142    64.994648    64.565733    31928.037 
17445000   -200767.88    1.6142747 0.0012251542    64.894225    65.036847    64.696588    31941.138 
17450000   -200723.81    1.6025231 0.00053555621    64.818041    65.315562    64.635405    31954.216 
17455000   -200933.06    1.5973071 -0.0017860151    65.034263    64.837303     64.89294    31967.337 
17460000   -200985.39    1.6041175 0.0017128583     64.96055    64.794269    64.828995    31980.396 
17465000   -200755.09    1.5863593 0.0012036903    64.899207    64.988363    64.960162    31993.459 
17470000   -200752.39    1.6568775 -0.00082540409    65.183718    65.064433     64.94336    32006.566 
17475000   -200814.45    1.6075315 -0.0036663586    64.920261    64.790647    65.343018    32019.668 
17480000   -200831.31    1.6037668 -0.00036685182    65.080598     64.90661    64.976824    32032.767 
17485000   -200963.65    1.6037794 -0.00089220936    65.285271    64.751845    64.791817    32045.905 
17490000   -200921.58    1.6525717 -0.0011940093    64.989526    65.002469    64.906434    32058.986 
17495000   -200759.52     1.569636 -0.0019928057    64.953523    64.859519    64.992861    32072.022 
17500000   -200905.53    1.5796904 0.00085001375    64.634011    64.861631    64.992385    32085.149 
17505000   -201014.97    1.6723918 -0.0010308486    65.051631    64.804216     64.75101    32098.232 
17510000   -200959.21    1.6261863 -0.001989112    64.914666    64.891853    64.926257    32111.327 
17515000   -200858.77    1.5748185 -0.0032909579    65.061915    64.939919    64.648444    32124.399 
17520000   -200843.86    1.6138988 8.0754785e-05    65.014168    64.898061    64.705788    32137.559 
17525000   -200788.91     1.606741 -0.00016310876    65.223403    65.099117    64.541132    32150.623 
17530000   -200691.89    1.5925818 0.00019931604    65.217611    65.007116    64.698175    32163.689 
17535000   -200800.01    1.6295677 0.0047091267    65.070367    64.796731     64.87923    32176.753 
17540000   -200832.46    1.5937862 0.0012768355    64.941974    65.004793    65.020981    32189.815 
17545000   -200825.31    1.6158289 -0.0019283059    65.293066    64.838085    64.714083    32202.875 
17550000   -200863.22    1.5992786 -0.0017126929    65.020668    64.954103     64.66926    32215.916 
17555000   -200861.54    1.6286328 -0.00041782302    65.090989    65.007517    64.541915    32229.026 
17560000   -200925.88     1.586499 0.0020309533    64.936555    64.813321    64.798051    32242.124 
17565000   -200785.48     1.564937 0.0025266079    64.993075    64.853814    64.829662    32255.204 
17570000   -200802.64    1.5584973 -0.0030810029    65.347659    64.575238    65.006981    32268.269 
17575000   -200871.16    1.5706019 -0.0025915777    65.198912    64.729469     65.21548    32281.343 
17580000   -200859.42    1.6223457 -0.00024376937    65.178228    64.822644    65.013456    32294.483 
17585000   -200996.97    1.6071982 0.0018369928    65.151817    65.096775    64.686065    32307.561 
17590000   -201012.96    1.6186961 0.0017080532     65.30786    65.046249    64.585273    32320.649 
17595000   -200917.78    1.6179628 0.0010225109    65.147806    64.871438    64.730795    32333.691 
17600000   -200836.39    1.5760262 -0.0025019097    65.191801    65.057899    64.923866    32346.789 
17605000   -200861.92    1.6365353 0.00092711276    65.195527     65.13354    64.872308    32359.856 
17610000    -200865.8    1.5703232 0.0021236522    65.062558    65.012115    65.066336    32372.964 
17615000   -200869.25    1.5827242 0.0042353779    65.303539    64.517695    65.228121    32386.016 
17620000    -200994.7    1.6127767 0.0065023722    65.177671    64.850619    64.911852    32398.999 
17625000   -200968.98    1.5960732 0.0020610579    65.180022    65.256961    64.602365    32412.063 
17630000    -201019.2    1.5516768  0.002632579    65.112955     65.17746    64.842462     32425.07 
17635000   -200971.34    1.5915929  0.004597624    65.081062    65.217628    64.823915    32438.095 
17640000   -200975.36    1.5592224 0.00029807377    65.210542    65.171384    64.788872    32451.196 
17645000   -200834.27    1.6262121 0.00045203904     65.36646    65.087842    65.005966    32464.263 
17650000    -200983.6    1.5732838 0.0038693802    65.218585    64.961445    64.726269    32477.315 
17655000   -200869.17     1.579576  0.001014979     64.62678    64.881461    65.378729    32490.361 
17660000   -200928.68    1.6128584 -0.00086984803    65.010971    64.960993    64.879707    32503.414 
17665000   -201186.76    1.6042912 -0.0023703191    64.929091    65.118851    64.760885    32516.508 
17670000   -201098.21    1.5885726 -0.0032569826    65.278496     64.88547    64.987639    32529.581 
17675000   -201013.27    1.5857832 0.0047603118    65.191955    64.974207    64.698549    32542.614 
17680000    -200965.2    1.5973816 -0.00039129487    65.216299    65.133305    64.985199    32555.646 
17685000   -200893.44    1.6004374 0.0027588544    65.497812    64.736801    64.758954    32568.727 
17690000   -200948.19    1.6431188 0.00051190687     65.14374    64.786248     65.13192    32581.786 
17695000   -200790.59    1.5973977 -0.00046091257    65.335813    65.017419    64.935219    32594.868 
17700000   -200803.44    1.6104958 -0.0010792256    65.192538    65.106173    65.186804    32607.968 
17705000   -200958.08    1.6912297 0.0014219639    65.350544    64.715984    64.983264    32621.023 
17710000   -200907.99    1.6158401 0.0019312455    65.164838    65.105146    64.933262    32634.069 
17715000   -200930.35    1.5320955 -0.00084493309     65.08816    64.986874    65.064794    32647.167 
17720000   -200990.66    1.6014148 0.0043959688    65.212807    64.659704    64.904109    32660.221 
17725000   -201015.19     1.586391 0.00090741379    65.259688    64.703879    64.909287    32673.296 
17730000   -200964.95    1.6342631 -0.0011791059    65.002768    64.928453    64.963581    32686.391 
17735000   -201009.24    1.6232197 0.00049050492    65.107137    64.709672    65.039082    32699.503 
17740000   -200841.83    1.5969038 0.0012773912    65.514115    64.381121    65.009061    32712.548 
17745000   -200858.09    1.5949481 -0.0018895086    65.324898    64.823763    64.929778    32725.601 
17750000   -200958.26    1.5381458 -0.0039105338    64.932754    65.042655    65.090874    32738.684 
17755000   -200859.35    1.5901376 -0.0016418105    65.301738    64.958674    64.829556    32751.764 
17760000   -200902.23    1.6290539 -0.0010436865    65.070409    64.954299    65.059842    32764.828 
17765000   -200901.39    1.5952384 -0.0017849348    65.159055    65.166551    64.909762    32777.937 
17770000   -200790.09     1.633973 -0.00039151756    65.195685    64.724389    65.167561    32791.019 
17775000   -200929.24     1.609009 0.0026591062    65.180877    64.931961    64.903635    32804.046 
17780000   -201052.66    1.6063803 0.0073218632    65.228816    64.808218    64.803113    32817.138 
17785000   -201031.79     1.565562 0.00029163788    65.167114    64.762023    65.019918    32830.194 
17790000   -201074.67    1.5875995 0.0039346253    64.980996    64.795069    64.927794    32843.305 
17795000   -200894.89    1.6240916  0.003904603    65.055548    64.753658    64.978637    32856.391 
17800000   -200966.78    1.5847016 -0.0029754079    65.187192    64.935357    64.879709    32869.532 
17805000   -200991.57    1.6289607 0.00084482943    65.346932    64.911466    64.635934     32882.63 
17810000   -200865.86    1.5978995 0.0024261376    65.031054    65.269139    64.552834    32895.653 
17815000   -200846.67    1.5804805  0.002608355    65.204398     65.17777    64.626832    32908.718 
17820000   -200698.31    1.5754431 0.0068696688    65.400207    65.010231    64.532384    32921.791 
17825000   -200917.05    1.6127039 0.0020215078    65.690373     64.85992    64.532483    32934.891 
17830000   -200975.57    1.6125231 -0.003736695    65.524329    64.887279    64.907233    32948.002 
17835000   -200769.72    1.5761625 -0.00065802629    65.511536    64.761002    64.968935     32961.06 
17840000   -200956.19    1.6167075 -0.0021316286    65.363073    64.767927    64.928298     32974.14 
17845000   -200799.38    1.6360634 -1.4031801e-06    65.130761    64.891361     64.73116    32987.216 
17850000   -200861.03    1.5986065 -4.8519834e-07    65.241554    64.726492    64.946238    33000.302 
17855000   -200850.36     1.576338 -0.0024948394    65.464876    64.706571     65.06202    33013.358 
17860000   -200845.62    1.6298851 -0.00073511608    64.998255     65.06555    64.960654    33026.436 
17865000      -200938    1.6152373 -0.0027646614       65.225    64.737759    65.083305    33039.496 
17870000   -200889.74    1.6126903 0.0022817096    65.083693    64.751304    65.206366    33052.543 
17875000    -200821.7    1.6069269 -0.0050728588    65.269152     64.80965    65.188799    33065.618 
17880000    -200973.9    1.6032838 -0.0031478016    65.232984    64.738754    64.943635     33078.74 
17885000   -200800.84    1.5848776 -0.0035827863    65.118016    64.849656     65.03706    33091.765 
17890000   -200711.95    1.6214718 -0.0067954003    65.321751    64.779783    65.180073    33104.837 
17895000   -200979.73    1.6089637 -0.001507317    65.202607    64.512932    65.061894    33117.888 
17900000    -200945.1    1.6008176 0.00090615784    65.224727    64.437105    64.808186    33131.017 
17905000   -200856.42    1.6624881 0.0010183202    65.405616    64.719646    64.730485    33144.145 
17910000    -201006.9    1.6176289 0.00032033446    65.114637    64.674969    64.743742    33157.225 
17915000   -200848.39    1.5686134 0.0057794155    65.500379    64.667953    64.501435    33170.312 
17920000   -200844.17    1.5799784 0.0029100756    65.481288    64.511208    64.947802    33183.368 
17925000   -200803.37    1.6479591 0.00045551756    65.619355    64.701217    64.872125    33196.388 
17930000   -200923.47    1.5856262 -0.0034216557    65.531346    64.595306    65.012801    33209.415 
17935000   -200821.54     1.621403 -0.0041567111    65.377487    64.924766    64.965621    33222.478 
17940000    -201063.7    1.6145729 -0.00074843065    65.171635    64.821157    65.075437    33235.488 
17945000   -201039.48    1.5563836 -0.0023342483    65.357552    64.742674    65.141989    33248.521 
17950000   -200957.49    1.6072695 -0.0027781229    65.587456    64.884542    64.911425    33261.608 
17955000   -200927.34    1.6182742 -0.0024476511    65.334679    64.830243    64.945962    33274.681 
17960000   -200699.15    1.6115916 0.0032632668     65.48514    64.690745     65.03055    33287.701 
17965000   -200911.49    1.5596462 0.00040650454    65.129557     64.75463    65.170766    33300.781 
17970000   -200975.56    1.5759094 0.00070873308    65.455983      64.5086    64.989295    33313.832 
17975000   -200839.15     1.560096 -0.002236853    65.588122    64.482935    65.228789    33326.901 
17980000    -200961.6    1.6095111 -0.0039398438    65.231867    64.973419    65.136607    33339.951 
17985000   -201104.84    1.6563555 -0.0030314292     65.02876    64.785682    65.600387     33352.97 
17990000      -200975    1.5963712 -0.0016512713    65.143101    64.744743    65.461481    33366.034 
17995000      -201089    1.5931771 0.0011952136    65.216987    64.765421    64.929205    33379.146 
18000000    -200909.9    1.5760462 -0.0051024793    65.216985    64.969846    65.204918    33392.264 
18005000   -200804.19    1.5976651 -0.00033696131    64.932587    64.977516    65.355384    33405.283 
18010000   -200928.61    1.5911158 -0.0030383361    65.092545     64.70396    65.368633    33418.341 
18015000    -200932.6    1.6061515 0.0004458221    65.262488    64.750031    65.185117    33431.397 
18020000   -200983.37    1.5747917 -0.00093354976    65.345856    64.755351    65.233946    33444.511 
18025000   -200865.36    1.6464339 -0.0022517103    65.398837    64.884624    65.190857    33457.575 
18030000   -200819.18    1.5706648 0.0011666388    65.000141    64.919344    65.206766    33470.637 
18035000   -200927.83    1.6553156 -0.0040280348    65.437694    65.023752    64.999407    33483.674 
18040000    -200855.6    1.5855929 0.00075366786     65.47526    64.907785    64.826547    33496.738 
18045000   -200792.47    1.5909432 0.0042765133    65.202712    64.763816    65.211359    33509.806 
18050000   -200833.15    1.6051773 0.0015929077     65.32739     65.13015     64.69257     33522.83 
18055000    -200750.6    1.5755105 0.0035641323    65.617681    64.879937    64.637194    33535.905 
18060000    -200769.3    1.5411923 0.0043443408    65.156705    64.872437    64.880151    33548.953 
18065000   -200838.57    1.5789355 0.0079266263    65.407381    64.407335    65.071441    33561.969 
18070000   -200999.83    1.6525409 0.0035370605    65.092879    64.601355    65.241875    33575.009 
18075000   -200840.46    1.5955124 0.00097098026    65.262944    64.607587    65.260905    33588.047 
18080000   -200820.63    1.5986991 0.00094888326     65.63678    64.764475    64.600081    33601.118 
18085000   -200839.87    1.6020739 -0.00085384412    65.475572    64.968926    64.852839    33614.201 
18090000   -200861.84     1.614143 0.0014576086    65.588924    64.661826    65.028343     33627.29 
18095000   -200602.24    1.5864624 0.0016232341    65.611781    64.957151    64.916683    33640.313 
18100000    -200803.5     1.610899 0.00018206787    65.453835    64.874104     65.14784    33653.375 
18105000   -200742.74    1.6227897 0.0029501484     65.69701     64.65807    64.927683    33666.479 
18110000   -200915.83    1.5766938 0.0036348218    65.627808    64.868537    64.562431    33679.539 
18115000   -200991.61     1.643409 0.0031726848      65.2608    64.949014    64.819033    33692.589 
18120000   -200919.06    1.5880378 -0.0017852915    65.325978      65.0637    64.825433    33705.659 
18125000   -200685.04    1.6113921 0.00079840504    65.405156    65.187208    64.776183    33718.725 
18130000   -200834.49    1.5944722 -0.0053671536    65.451935    64.997454    64.888397    33731.799 
18135000   -200774.79    1.5937602 -0.0058585369    65.400188    65.421527    64.710013    33744.871 
18140000   -200930.03    1.5776924 -0.0049777849    65.396598    65.324263     64.71023    33757.915 
18145000   -200936.49    1.6119809 -0.006919777    65.499222    65.301001    64.751667    33770.959 
18150000   -200833.29    1.5883555 0.0012561896    65.155822    65.158998    64.838134    33784.016 
18155000   -200934.69    1.6181604 -0.00038297845     65.37133    64.810433    64.999507    33797.125 
18160000   -200907.91    1.6248119 0.0044612376    65.196125    65.044427    64.769556    33810.212 
18165000   -201042.01    1.6319932  -0.00125354    65.291831    65.016079    64.916345    33823.285 
18170000      -201019    1.6031272 -0.003473633    65.293928     65.14854    64.924144    33836.387 
18175000   -200860.63    1.5953028 -0.002222347    65.129939    65.065163    64.980194    33849.523 
18180000   -200972.05    1.6045532 0.0022758998    65.426408    64.997419    64.728345    33862.655 
18185000   -201014.26    1.6347024 0.0048492741    65.330847    64.972202    64.716415    33875.727 
18190000   -200889.82     1.642305 0.0019613225    65.478615    64.888508    64.649003    33888.735 
18195000   -200987.74    1.6196157 0.0018026717    64.880634    65.139948    64.899688    33901.841 
18200000   -200938.93     1.633019 0.0024892096    64.935189    65.215048    65.004526    33914.903 
18205000   -200941.82    1.6027152 0.0016378718    65.206385    65.045798    64.694168    33927.968 
18210000   -201116.48    1.6057684 0.0040735207    64.981816    65.216925     64.46587    33941.056 
18215000   -200808.32    1.6287222 9.4030686e-05    64.936144    65.451054    64.871313    33954.189 
18220000   -200857.96    1.6150819 0.0039948423    64.748669    65.175629    65.072861     33967.29 
18225000   -200838.77    1.5899669 0.0055606714    64.575409    65.199679    64.902088    33980.385 
18230000      -200898    1.6220297 0.00021851816    64.687126    65.270277    64.829691    33993.464 
18235000   -200870.99    1.5857695  -0.00187691    64.709959    65.422913     64.98266    34006.588 
18240000   -200913.97    1.6018494 -0.00017082836    64.644177    65.432062    64.998204    34019.638 
18245000   -200827.61    1.6071997 0.00016526023    64.831865    65.393557    64.798515    34032.778 
18250000   -200948.75    1.5790115 0.00061500427    64.596095     64.96798    65.338621     34045.85 
18255000   -200931.12    1.6195585 0.00015247442    64.836637    65.086549    65.133452    34058.895 
18260000   -201113.89    1.5894807 0.0030266032     64.44837    65.011954    65.032341    34071.959 
18265000   -200891.94    1.6249492 -0.0014218342    64.724292    65.107864    65.176465    34085.051 
18270000   -201023.97    1.6032287 -0.0042070585    64.691107    65.173602    65.072157    34098.137 
18275000   -200970.47    1.6413791 -0.00060766927    64.831659     64.86445     64.86683    34111.213 
18280000   -200940.64    1.6580609 -0.002085632    64.897522    64.895605    65.050065    34124.302 
18285000    -200953.9    1.6114793 0.0027784351    64.601028    64.847314    65.066857    34137.402 
18290000   -200868.53    1.6051409 0.0025220885    64.830915    64.614526    65.375543    34150.513 
18295000   -200917.47    1.5771108 -0.0011645244    64.852649    64.495927    65.404717    34163.559 
18300000   -200938.77    1.6104288 -0.0034534542    64.753623    64.942937    65.261253    34176.665 
18305000   -200946.49    1.6205937 -0.0026096035    64.866855    64.807307    65.129829    34189.803 
18310000   -201035.67    1.6181663 -0.00082290563    64.636338    64.723115    65.206702    34202.943 
18315000   -200921.38    1.6000701 0.0016485669    64.757858    64.593314    65.259382    34216.097 
18320000   -200955.38    1.5379272 -0.0025780375    64.548129    64.963421    65.332389    34229.162 
18325000   -200840.21    1.5736356 -0.0023941654    64.530722    65.212601    65.300574    34242.202 
18330000    -200959.5    1.6098204 -0.0026952273    64.719566    65.027753      65.2306    34255.276 
18335000   -200931.89    1.5784516 -0.0025633724    64.673965    64.794396    65.272079    34268.348 
18340000   -201066.82    1.5879703 0.00060340228    64.828052    64.698994    65.161955    34281.476 
18345000   -200858.28    1.6123771 0.00070614842    64.619983    64.989593    65.336859    34294.593 
18350000   -200838.76    1.6132513 -0.00034700448    64.473333    64.949221    65.532675    34307.769 
18355000   -200842.07    1.6574863  0.001892102    64.751119    64.768443    65.188113    34320.935 
18360000   -201045.88    1.5812324 0.0044376063    64.976247    64.600083    64.582982    34334.001 
18365000   -200930.04    1.6037032 -0.0033686032    64.924313    64.964795    65.044087    34347.138 
18370000   -200971.73    1.6148118 -0.00025927443     64.72926    64.923053    65.013672    34360.272 
18375000   -201058.15    1.6488734 -0.0014828109    64.636834    64.767376    65.050549    34373.399 
18380000    -200926.6    1.5824701 -0.0062000093    64.847013    64.927874    65.275003    34386.473 
18385000   -201055.99    1.6155138 0.0034778542    64.675224    64.835896    64.967129     34399.62 
18390000   -200999.02    1.6381965 -7.3191047e-05    64.512873    65.208186    65.149519    34412.733 
18395000   -200945.24    1.5576482  0.004416661    64.567518     64.93139    64.813495    34425.799 
18400000   -200886.07    1.6169149 0.0010238998    64.738645    64.770468    64.907929    34438.883 
18405000    -200765.1    1.5933748 0.00086497223    64.837849    65.206828    64.664968    34451.971 
18410000   -200739.19    1.5870437 0.00038943234    64.614412    65.268462    64.905863     34465.11 
18415000    -200885.6    1.6282361 -0.0012002853    64.647709    65.163653    65.030337    34478.188 
18420000   -200948.63    1.6022619 0.0025762372    64.438906    65.078042    65.145629    34491.307 
18425000    -200871.5    1.6366188 -0.0018107329    64.792158    65.165378    65.209712    34504.421 
18430000   -200666.95    1.5940661 -0.0014503822    65.003153    65.380358     64.79225    34517.508 
18435000   -200815.78    1.6043153 -0.0060711489    65.210424    65.248772    64.953848    34530.572 
18440000   -200671.11    1.5658874 -0.00043750546    65.012389    65.543513    64.836207    34543.575 
18445000   -200840.41    1.6153217 -0.0023900449    65.250876    65.099373    64.709912    34556.702 
18450000   -200944.35    1.5846233 -0.0044980583    65.237212    65.103776    64.914167    34569.773 
18455000   -200936.83    1.5617338 -0.0055417679    65.284121    65.041579    64.774351    34582.858 
18460000   -200936.37     1.608492 -0.004279409    65.180748     65.09188    64.711056    34595.907 
18465000   -201022.98    1.6435269 -0.0015016218    64.943956    65.146312    64.989797    34608.955 
18470000   -200887.67    1.6224268 -0.0026945382    64.943654    65.395441    64.918043    34622.019 
18475000   -200950.26    1.5793505 0.0065863963    64.767935     65.29777    64.547152    34635.099 
18480000   -200922.82    1.5957158 -0.0036441528    65.309112    65.307322    64.405523    34648.164 
18485000   -200959.44    1.5867029 0.00030195545    65.142515    65.050824     64.24412    34661.273 
18490000   -200926.38    1.5761182 0.0013509157    65.063625    64.896987    64.554062    34674.348 
18495000   -200813.71    1.6037781 0.0067247435    65.096262    64.872744    64.498193    34687.454 
18500000   -200897.17    1.6176403 0.0013608059     64.94309    64.738935    64.847884    34700.582 
18505000   -200806.16    1.5920875  0.004900781     64.73711    64.842094    64.831078    34713.706 
18510000   -200763.55    1.5951334 0.0023341041    65.355147    64.565321    64.708822    34726.832 
18515000   -200901.72    1.5861164 0.0027101743    65.119481    64.449808    64.977084    34739.908 
18520000   -201012.58    1.6062186 0.0035731242    65.084184    64.798792    64.550869    34753.039 
18525000   -200910.43     1.584755 0.0015906483    65.195915    64.627655    64.753432    34766.133 
18530000   -200913.25    1.5957602 0.0013338606    65.145643      64.6718    64.747446    34779.255 
18535000   -200833.19    1.5890366 0.0018754414    64.934329    64.605385    64.967774    34792.294 
18540000   -200801.51    1.6203952 0.0062491906    65.061705    64.660772    64.714969    34805.371 
18545000   -200918.97    1.6065884 0.0050142751    65.124851    64.550663    64.783346    34818.511 
18550000   -200864.65    1.6350042 -0.00063314803    64.958605    64.695901    65.011122    34831.622 
18555000   -200769.68    1.5991835 -0.00073977376    65.188965    64.716059    64.684862    34844.698 
18560000   -200928.75    1.5923126 0.0016932463    65.441155    64.575229    64.635279    34857.762 
18565000   -200868.68    1.6128635 0.0031426976    65.345552    64.471591    64.674347    34870.897 
18570000   -200932.97    1.6083547 0.0052822287    65.352311    64.449583     64.67091     34884.03 
18575000   -200975.09    1.5966393 -0.0021715204    65.265896     64.83279    64.640559    34897.078 
18580000   -200916.05    1.6116024 -0.0022313762    65.262533    64.538483    65.010425    34910.243 
18585000   -200844.07    1.5619927 -0.0031251037    65.326595    64.668448     64.92736    34923.346 
18590000    -200806.1    1.5876806 0.00091096265    65.038336    64.963623    64.917452    34936.413 
18595000   -200889.51    1.6125022  0.001577218     64.87505    64.996414    64.913646    34949.506 
18600000   -200804.32    1.5684195 -0.0011232854    65.206363    64.799673    64.811239    34962.568 
18605000   -200850.44    1.6391446 0.0029807906    65.003267    64.588496    64.647039    34975.622 
18610000   -200868.43    1.6167782 -0.0019707717    64.880425    64.910517    64.686829    34988.702 
18615000   -200843.81     1.589085 0.00081519172    64.867001    64.777375    64.551368    35001.793 
18620000   -200863.71    1.5608971 -0.0038416322    64.588935     64.88818    65.035052    35014.934 
18625000   -200814.88    1.6300115 -0.0018689136    64.980326    65.011145     64.52825    35028.048 
18630000   -200759.71    1.5827808 -0.0018100838    65.155952    64.681612    64.650409    35041.197 
18635000   -200907.01    1.5625275 -0.001482929    64.985335    64.749462    65.013961    35054.312 
18640000   -200983.51    1.6259654 0.00071605578    64.918478    64.895518    64.751159    35067.419 
18645000   -200876.69    1.6034003 -0.00035326339    65.356252    64.632775    64.912038    35080.473 
18650000   -200778.85    1.6023832 -0.00075928941    65.312097    64.803035    64.644096    35093.587 
18655000   -200965.45    1.5798237 -0.0034161209    65.248109    64.598868    64.876405    35106.658 
18660000   -200744.19    1.6353154 -0.0057205534     65.15724    64.962939    64.938513    35119.746 
18665000   -200575.43     1.633257 -0.0031296516    65.163394    64.864053    65.180063    35132.814 
18670000   -200731.88    1.6550421 -0.0026010525    65.201094    64.758547    65.005435    35145.906 
18675000   -200825.48    1.6270631 -0.0026013889    65.090301    64.695067    65.048645    35158.938 
18680000   -200882.61    1.6003916 -0.0011913653     65.15857    64.513565    65.014576    35172.006 
18685000    -200980.9    1.5824057 0.0010253187    65.098279     64.59421    64.701077     35185.09 
18690000   -201007.47    1.5561157 0.0010430627    65.125576    64.838054    64.628835    35198.249 
18695000   -200932.44    1.5846004 0.0011082408    65.031017    64.869397    64.817025    35211.363 
18700000    -200839.7    1.6090695 0.0015136611    65.186821    64.513308     65.01917    35224.409 
18705000   -200767.17    1.6259781 -0.00052211937    64.910213    64.953522    64.905811    35237.482 
18710000   -200939.76    1.6067295 0.0014875591    64.636781    64.916469    64.878296    35250.591 
18715000   -200761.66    1.5982683 0.0022351749    64.646636    64.691056    64.937639    35263.655 
18720000   -200814.19    1.6073438 0.0041829002    64.670539    64.579652    64.944019    35276.758 
18725000   -200879.81    1.6215019 -0.00090901202    64.787687    64.851663    64.919413    35289.859 
18730000   -200819.79     1.651197 -0.0018581849    65.075066    64.969019    64.681131    35302.943 
18735000   -200934.36    1.6296327 0.00066784522    65.011358    64.599842    65.002142    35316.019 
18740000    -201013.2    1.6071919 0.0036857657    64.923686    64.675771    64.577533    35329.113 
18745000    -200869.4    1.5693445 0.0031134433    64.978839    64.537207    64.838662    35342.188 
18750000   -200690.63    1.5704132 -0.00073475396    64.769016    64.780061    65.107522    35355.285 
18755000   -200883.39    1.5624253 -0.0052661631    64.829889    64.778975    65.049801    35368.401 
18760000   -200615.54    1.5978167 -0.0002592045    65.056282    64.511451    64.941961    35381.462 
18765000   -200709.82    1.6082314 -0.0020655293     64.97469    64.609551    64.756782    35394.524 
18770000   -200646.91    1.5774814 0.0011077177    64.747369    64.467886     65.14183    35407.654 
18775000   -200837.71    1.6240578 0.0012107498    64.465505    64.681779    65.035965    35420.804 
18780000   -200964.07     1.581017  0.004000412    64.397401    64.583775    64.877549    35433.916 
18785000   -200930.09    1.5798184 0.00085991982    64.407797    64.578565    64.926419    35447.021 
18790000   -200680.88    1.6207944 0.00042550466    64.536747    64.804829    64.884071    35460.165 
18795000   -200764.21    1.6188711 -0.0019424151    64.911699     64.67592    64.888108    35473.318 
18800000   -200713.69    1.5462574 -0.0014267807    64.957277     64.56715    64.948258    35486.489 
18805000   -200642.47    1.5653408 0.0023752192    64.831565    64.607219    64.811683    35499.592 
18810000    -201002.7    1.6079558 0.0051843592    64.794191     64.64096    64.758627    35512.736 
18815000   -200891.39    1.5501399 0.0011094445    64.883527    64.479631    64.882688    35525.802 
18820000   -200960.96    1.6345023 0.0010629157    65.095363    64.875971    64.523553    35538.918 
18825000   -200928.48    1.6205184 -0.0015478296    65.040093    64.996789    64.663792    35552.056 
18830000      -200791    1.5984916 0.0015447418    65.128712    64.745277    64.604983    35565.177 
18835000   -200810.25    1.6057162 -0.0010877332    64.984902    64.736019    64.741859    35578.319 
18840000   -200931.38    1.5796803 0.0020035757    64.938281    64.800192     64.48203    35591.394 
18845000   -200889.21    1.6272053 -0.00035658527    64.672821     64.79909    64.829703    35604.495 
18850000   -200930.82    1.5708977 0.00096666645    64.712774    64.779301    64.832301    35617.579 
18855000   -200955.16    1.5961238 0.0008240886    64.637979    64.855674    64.659186    35630.745 
18860000   -200930.36    1.6206755 0.0014442034    64.651892    64.645851     64.79143    35643.938 
18865000   -200849.52    1.6375364 0.0018764645    64.701804    65.105582    64.462819    35657.032 
18870000   -200818.37    1.5821198 -0.0015312155    64.880519    64.940636    64.618132    35670.115 
18875000   -201114.84    1.5875653 -0.0022380884    64.677388    65.033414    64.575471    35683.246 
18880000   -200863.69    1.5511327 -0.0022824945    64.958749    64.962468    64.761228    35696.429 
18885000   -200946.78    1.6553613 0.0029961703    64.876664    64.784394    64.706626    35709.532 
18890000    -200917.8    1.6061779 0.00040944685    65.052584    64.799849     64.81058    35722.663 
18895000   -200890.14    1.5560315 -0.0022623872    65.125152    64.716797    64.875995     35735.73 
18900000   -200779.81     1.600224 -0.00047821334    65.142637    65.073813    64.761372    35748.791 
18905000   -200853.27     1.603231 -0.00052851561    65.130983    64.827317    64.944943    35761.837 
18910000   -200791.27    1.6195923 -0.0023280493    65.088566    64.863884    65.070952    35774.954 
18915000   -200795.69    1.6187815 0.0013901383    64.808607    64.925072    65.055738    35788.095 
18920000   -200874.75    1.6058016 -0.0018199258    64.803583    64.998104    64.957935    35801.194 
18925000   -200959.61    1.6717848 8.467868e-05    65.161841    64.769844    64.647526     35814.33 
18930000   -200858.59    1.6192765 -0.0013888244    65.311701    64.609994    64.773089    35827.442 
18935000   -200887.34    1.6070152 -0.0022506762    64.952571    64.741117    64.979567    35840.548 
18940000    -200938.3    1.6148149 0.0015958098    65.339598    64.492412    64.680381    35853.649 
18945000   -201131.14    1.5829307 0.0017291145    65.386677    64.804481    64.255414    35866.782 
18950000   -201172.26    1.5859031 0.0053680361    65.447071    64.635697    64.335578    35879.894 
18955000   -200962.37    1.6287721 0.0088407809     65.41575    64.515829    64.443177     35892.98 
18960000   -201056.17    1.5627053 0.00075075319    65.529824    64.665369     64.38902    35906.074 
18965000   -200895.49    1.5942787  0.002920498    65.389229    64.805824    64.615185    35919.214 
18970000   -201007.09    1.5849173 0.0020160839    65.262921     64.81232    64.499636    35932.317 
18975000   -200900.46     1.624323 0.0035179188    65.164217    64.837955    64.658728     35945.38 
18980000   -200908.14    1.5920991 -0.0060530951    65.373755    64.901938    64.818264    35958.462 
18985000   -200972.43    1.5927361 -0.0028548798    65.279339     64.42832     65.05767    35971.602 
18990000   -200990.67    1.5806117 -0.00076131676    65.289811    64.795184    64.756281    35984.639 
18995000   -200861.25    1.6231487 0.0012505578    65.367196    64.780475    64.800017    35997.749 
19000000   -200825.35    1.6486316 0.0022465382    65.109526    64.961299    65.073125    36010.907 
19005000   -200797.66    1.5779428 -0.0039813063    65.373281    64.772228     65.17323     36024.01 
19010000    -200677.5    1.5601428 -0.0017667091    65.569417    64.880655    64.805288     36037.06 
19015000   -200668.83    1.6219712 -0.0028791722    65.109474     64.99897    65.118467     36050.12 
19020000   -200807.35    1.5732266 -0.0050167062    65.043314    65.039308    65.217047    36063.212 
19025000   -200742.96    1.5888813 -0.0043110331    65.497905    64.857538    64.983444    36076.335 
19030000   -200893.11    1.5736617 -0.0011382196     65.03749    64.760964    64.973866     36089.41 
19035000   -200836.73    1.6083585 0.00081505951    65.031946    64.724948    64.903629    36102.493 
19040000   -200793.46    1.5991177 -0.0018646571    64.884962    64.605384    65.164387    36115.567 
19045000   -200768.78     1.596976 -0.0035111137    65.165812     64.56673     65.22289    36128.667 
19050000   -200798.19    1.5685783 0.00079406512    65.206515    64.596838    65.171612    36141.793 
19055000    -200805.4    1.5770246 0.0018934453     65.42681    64.307459     65.08521    36154.877 
19060000   -200770.02    1.5970653 0.00036762733    65.564974     64.60646    64.780546    36167.947 
19065000   -200705.93    1.6333947 -0.0027736215    65.241066    64.594826    65.211397    36181.008 
19070000   -200811.51    1.5866465 -0.0043690707    64.984876    64.642967     65.17297    36194.093 
19075000   -200911.91    1.6094576 -0.0024357046    65.305271    64.551489    64.913638    36207.157 
19080000   -200993.18    1.6077955 -0.00013016238    65.255065    64.622404    64.770184     36220.24 
19085000   -200830.83    1.6111056 0.00029186876    65.339101    64.342607    64.995961    36233.343 
19090000   -200862.78    1.5746334 0.0013887931     65.13543    64.454692    64.895042    36246.407 
19095000   -200873.12    1.5808148 -0.0017488715     65.31845    64.602502    64.942847    36259.544 
19100000   -200854.32    1.6022103 -0.0024152525    65.436634    64.483266    64.946982    36272.613 
19105000   -200861.76    1.5889892 -0.0022059001     65.25213    64.319476    65.238769    36285.735 
19110000    -200783.7    1.6052819 -0.00022899744    65.157019    64.636153    64.959111    36298.851 
19115000   -200979.33    1.5811201 -0.0012857257    65.197094    64.785589    64.874529    36311.933 
19120000   -200932.95    1.5430405 -0.00089232327    65.312181    64.824432    64.855416    36325.007 
19125000   -201038.31    1.6231389 -0.0013013296    65.397457    64.506483    64.827297    36338.098 
19130000   -200928.58    1.6031921 0.0016223158    65.369028    64.604986    64.851454    36351.226 
19135000   -200887.11    1.6116282 0.0031853742    65.259739    64.864399    64.886291    36364.289 
19140000   -200874.58    1.5785649 -0.0029070985    65.167421    65.107742    64.936927    36377.425 
19145000   -200928.95    1.5938564 -0.0022305813    65.189184    65.060819    64.777341    36390.517 
19150000   -200897.23    1.5841227 -0.001627693    65.278338    64.960888    64.721758    36403.585 
19155000   -201070.99    1.6345732 -0.00087781029    65.195715    65.052284    64.604689    36416.675 
19160000   -201061.12    1.6480736 -0.0065198564    65.032827    65.385353    64.793493    36429.759 
19165000   -201068.51    1.5867502 4.7125758e-05    65.090266    65.281747    64.423372    36442.843 
19170000   -201013.42     1.581794 0.0011226775    65.119518    65.043098    64.720225    36455.914 
19175000   -201029.57    1.6130472 0.0051129959    65.273986    64.868582    64.563206    36468.989 
19180000   -200977.68    1.5951904 0.0019068304    65.364253    65.193016    64.169699    36482.023 
19185000    -201008.1    1.6006836 0.0019270464     65.07174    65.514989    64.261528    36495.071 
19190000   -200886.38    1.5931951 0.0005503369    65.121213    65.403937    64.630105    36508.171 
19195000    -200930.5    1.6271851 0.00038862985     64.81986     65.12564    65.154076    36521.213 
19200000   -200803.86    1.5576153 -0.00070784953    65.164129    65.394096    64.994422    36534.306 
19205000   -200925.77    1.5906612 0.0042896447     65.29559     65.11899    64.771836    36547.373 
19210000   -201014.16    1.5954557 0.0030134931    65.151426    65.254957    64.931816    36560.405 
19215000   -201071.39    1.6308955 0.0019716699    65.329697    64.878433    64.741236    36573.516 
19220000   -201058.04    1.6051428 -0.0021057894    65.199312     65.10071    64.920719    36586.576 
19225000   -200922.19    1.6293394 -0.0011979615    65.299032    65.015205     64.87303    36599.703 
19230000   -200899.74     1.575925 -0.0022952808    65.114046    64.906089    65.125389    36612.748 
19235000    -200924.5    1.6220975 -0.0053201514    64.579596    65.122126    65.208297    36625.822 
19240000   -200984.19    1.6017286 -0.0021324614    64.979174    65.270602    64.712777     36638.88 
19245000   -201144.56     1.570265 -0.0016008907    64.935213    65.133688    64.751406    36651.962 
19250000   -200937.23    1.5647664  0.004253773    64.755041    64.996537    64.830588    36665.066 
19255000   -200993.33     1.590051 -0.00071776652    64.929723    65.436991    64.598296    36678.189 
19260000   -200961.56    1.5798875 -0.0044778052    64.851274    65.086121    65.115735     36691.24 
19265000   -200908.29    1.5829732 5.2312076e-05     65.45123    65.028648    64.590911    36704.304 
19270000   -201003.36     1.600852 -0.0011690414     65.23854    64.922108    64.919397    36717.358 
19275000    -200857.5    1.5745266 0.00097992807    64.991916    65.070125    64.921091     36730.43 
19280000   -200915.21    1.5863665  0.001042015    65.142649    64.872053    64.750613     36743.48 
19285000   -200991.78     1.578252 0.0014826672    64.917382    64.923193    64.902152    36756.603 
19290000    -200991.7    1.6355959 -0.00070470456    64.996251     64.77087     65.17629    36769.694 
19295000   -200907.75    1.6044993 -0.0027589159    65.257118     64.76566    65.247895    36782.764 
19300000   -200966.56     1.644848 0.0029665969    64.877765    65.005227    65.115949    36795.839 
19305000   -200985.29    1.6118645 -0.0011645543    65.120621    64.815216    65.099069    36808.929 
19310000   -200915.91    1.5697278 3.874826e-05    65.065705    64.932675    64.907239    36822.009 
19315000   -200780.24    1.5616276 -0.0010599803    65.105966    64.726409     65.38847    36835.077 
19320000   -200775.36    1.5969696 -0.0013157949    64.952793     64.96635    65.302119    36848.153 
19325000   -200874.44    1.6403986 -0.0010944939    64.853693    65.026607    65.069989    36861.306 
19330000   -201037.23    1.6063784 -0.0042941916    65.087162    64.990516    64.867127     36874.42 
19335000   -201014.69    1.5887912 -0.0011474717    65.144356    65.012508    64.775215      36887.5 
19340000   -200852.71    1.5548043 -0.0021643266    65.055778    65.059946    64.971346    36900.562 
19345000   -200769.74    1.6431956 -0.0005336921    65.145555    64.859241    65.218579    36913.715 
19350000    -200884.2    1.5694104 -0.0034132217    65.342124    64.635461    65.133217    36926.924 
19355000   -200811.79    1.6166414 -0.0034961679    64.954863    65.090686    65.088059    36940.065 
19360000   -200707.76    1.5759847 -0.0019857093    64.782168     65.23809    65.087349     36953.17 
19365000   -200815.17    1.6507141 -0.00095314152    65.003398    64.752949    65.242189      36966.2 
19370000   -200983.84    1.6004842 -0.0039349517    64.736268    64.935461    65.384244    36979.247 
19375000   -200895.28    1.6404309 -0.0027881296    64.906634    65.172407    65.270997    36992.338 
19380000   -200955.61    1.6123871 -0.0027144887    64.922337     65.19298    65.044672    37005.415 
19385000   -200932.66    1.6105965 0.0019102249    64.767975    65.017333    65.322396    37018.509 
19390000    -200860.4    1.5533865 0.0054021202    64.846897    65.215553    64.963284    37031.567 
19395000   -200920.39    1.5930353 -0.00048684283    64.564885    65.452253    65.046203    37044.631 
19400000   -200824.93    1.5566791 -0.003422778    64.955478    65.158831    65.184813    37057.756 
19405000   -200748.25    1.5837066 -0.0037714781    65.223813    64.860107    65.261069    37070.804 
19410000   -200709.77    1.5545346 -0.00074929774      65.1982    64.725494     65.15006    37083.874 
19415000   -200703.69    1.5657176 0.00089605729    64.937153    64.911135    65.148091    37096.962 
19420000   -200769.04    1.6523148 -0.0020958902    65.234413    64.618416    65.440059     37110.08 
19425000   -200774.72    1.6355688 -0.0035738513    64.993308    64.821377    65.541743     37123.14 
19430000   -200755.07     1.584084 0.0029960941    64.983574    64.764395    65.463872    37136.186 
19435000   -200809.94    1.6398804 0.0056868525    64.780559     64.89888    65.186901    37149.196 
19440000   -200707.84    1.5657887 0.0022014762    65.026677    64.770262    65.185275    37162.259 
19445000   -200761.64    1.5685884 0.0030125041    65.095893    64.856938    65.200272     37175.27 
19450000   -200996.29    1.5953927 -0.0014429763    65.060095     64.86132      65.1681    37188.333 
19455000   -200837.35    1.5678448 -0.0002940848    64.903802    65.154626    65.026868    37201.398 
19460000    -200921.4    1.6156449 -0.00057299621     65.14876     64.97084    65.035065    37214.469 
19465000   -200901.06    1.6494426 0.0033844517    65.228303    65.038421    64.793383    37227.512 
19470000   -200914.99    1.5901742 0.00046070377    65.408888    65.068784    64.719227    37240.575 
19475000   -200866.07    1.6186586 0.0021848502    65.372062     64.98264    64.654626    37253.646 
19480000   -200766.37    1.5803978 0.0043246769    65.141629     64.99447    64.648526     37266.71 
19485000   -200925.97    1.5487472 -0.0016361511    64.972251    65.367536    64.720694    37279.778 
19490000   -201006.94    1.5853958 -0.00059580452    65.301493    65.102407    64.707732    37292.852 
19495000   -200849.75    1.6303793 -0.00064590832    65.362152    64.885095    64.783873    37305.987 
19500000   -200885.44     1.550879 -0.001484197    65.232671    64.778888    64.773381    37319.047 
19505000   -200929.85    1.6227573 0.00063765075    65.074051    65.153435    64.615085    37332.118 
19510000   -200905.67    1.6006367 0.0023406511    65.297513    64.801084    64.737868    37345.182 
19515000   -200835.59    1.6081396 0.0031596831    64.967772    65.014536    64.796224    37358.321 
19520000   -200958.93    1.6405266 -0.00033282217     65.09945    64.802746    64.801176    37371.417 
19525000   -201043.07    1.6019008 -0.0023198411     65.53469    64.777901    64.723351    37384.503 
19530000   -201014.77    1.6032885 -0.0051499704    65.333408    64.810354    64.959965    37397.575 
19535000   -200987.24    1.5656108 0.00077487827     65.15923    64.559508    65.006623    37410.625 
19540000   -201001.68    1.5736735 -0.00024357958    64.736587    64.647356    65.402345    37423.708 
19545000   -200944.83    1.5774596 0.00089317365    65.006557    64.777603    65.165994    37436.802 
19550000   -200877.73    1.5992341 -0.0010580147    65.261713    64.494248    64.984638    37449.852 
19555000   -200987.72    1.5254983 -0.0032403689    65.041044     64.72864    64.973748     37462.95 
19560000   -201054.59    1.5966419 -0.0047776154    65.060606    64.901488    64.833076    37476.077 
19565000   -200644.85    1.6098779 -0.0069518076    65.247194    64.490972    65.140902     37489.18 
19570000   -200857.41    1.6208257 -0.0026647549    65.113345      64.6894    64.756645    37502.278 
19575000    -200823.5    1.5808766 -0.0024945813    65.175466    64.643623    64.938245    37515.356 
19580000    -200978.2    1.5751902 -0.0027323718    65.290333    64.416367    64.770589    37528.447 
19585000   -200769.81    1.6031257 -0.0052340024    65.211633    64.119211    65.303876    37541.548 
19590000   -200756.41    1.6039636 -0.001186372    64.955387    64.261947     65.17257    37554.634 
19595000   -200722.55    1.5696986 0.00081551328    65.154191    64.263524    64.763728    37567.709 
19600000   -200765.51    1.6563264 -0.0017576718     64.92407     64.48683    64.968149    37580.867 
19605000   -200740.85    1.5669719 -0.0047236761     64.93823    64.651813    64.836912    37594.011 
19610000      -200870    1.5761711 -0.0021365251    64.818712    64.479563    64.895667    37607.084 
19615000   -200832.41    1.6225892 -0.00052595436    64.965197    64.489862    64.624784    37620.233 
19620000   -200909.83    1.5452419 -0.0035895594    65.116416    64.260583    64.770235     37633.39 
19625000   -200851.27    1.6247966 0.00070218474    65.364077    64.308167    64.682769    37646.506 
19630000   -201003.72     1.590622 -0.00052483505    65.347289    64.231427    64.822224    37659.627 
19635000   -201040.26    1.6047556 -0.0050679031    65.152283    64.540976    64.951122    37672.708 
19640000   -200949.46    1.6121339 -0.0079443354    65.442121    64.762076    64.884934    37685.733 
19645000    -200904.7    1.6378804 -0.0021577273      65.0167    64.851086    64.898227    37698.805 
19650000   -200956.77    1.6103334 -0.0068627477    65.516671    64.935827    64.763779      37711.9 
19655000   -201023.57    1.6146226 3.5302035e-06    65.135254    64.700993    64.666999    37725.016 
19660000    -200908.4    1.5606481 -0.0025054092    65.410427    64.573626    64.676318    37738.143 
19665000   -200836.89    1.5746092 0.00051417803    65.054287      64.8763    64.626016    37751.232 
19670000   -200910.55    1.5874698  0.004714236    65.124628    64.666274     64.58284    37764.324 
19675000   -200925.12    1.5955739 0.00086207229    65.144659    64.934091     64.48195    37777.367 
19680000   -200912.31    1.5641646 -0.0029971176    64.966804    65.109513    64.690236    37790.484 
19685000   -200852.73    1.5763407 -0.0034610776    65.047678    65.283846    64.511627    37803.555 
19690000   -201003.76    1.6309052  0.001259071    64.809333    64.947198    64.532645    37816.632 
19695000   -200954.84    1.5763806 -0.0016301863    64.816098     65.23975    64.565413    37829.742 
19700000    -200970.2    1.6276104 0.0022003129    64.795501    65.053628    64.668681    37842.789 
19705000   -200885.75    1.6265944 0.0052826112    65.003349    65.154199    64.361002    37855.829 
19710000   -200954.66    1.5855877 0.0058294844    64.820981      64.9493    64.668442    37868.897 
19715000   -200980.26    1.5940879   0.00496354    64.855573     65.08459    64.556229    37882.016 
19720000   -200839.54    1.5973008 0.0045151803    64.513431    64.980269    64.937086    37895.092 
19725000   -200779.69    1.5899404 -0.0010094942    64.990536    64.792967    65.080193    37908.201 
19730000   -200888.43    1.5469796 0.00033897401     65.21536    64.991524    64.445125    37921.289 
19735000   -200903.65    1.6223418 -0.00096860542    64.831495    64.969656    64.725241    37934.317 
19740000   -200883.23    1.6267844 -0.00031698292    64.656766    64.487474    65.290282    37947.384 
19745000   -200888.82    1.5881242 -0.0056022806    64.862427    64.721871    65.339782    37960.426 
19750000   -200874.92    1.5822141 -0.0025149475     65.10461    64.750261    64.978269    37973.532 
19755000   -201080.82    1.5849121 -0.004123846    65.121326    64.952534    64.813802    37986.604 
19760000   -200922.49    1.6536042 0.0014828898    65.018068    65.002078     64.79445    37999.721 
19765000   -200884.97    1.5939334 0.0017722404    64.991915    65.034264    64.604561     38012.79 
19770000    -200912.9    1.5808244 -0.00013287762    65.304457    64.864221    64.646645    38025.845 
19775000   -200878.94    1.6293975 0.0026019623     65.19499    65.024149    64.469952    38038.938 
19780000   -200971.79    1.6228412 -0.0033829734    65.285303    64.861938    64.828737        38052 
19785000   -200937.79    1.5800215 -0.0027712599    65.020058    65.182219    64.705663    38065.073 
19790000   -200981.64    1.5781907 0.00020886339    65.172175    65.104174    64.565203    38078.164 
19795000   -201063.63    1.6235597 0.0038009776    64.791711    65.247864    64.570017    38091.186 
19800000   -200788.77    1.6015505 -0.0014658716    65.085279    65.229526    64.777554    38104.203 
19805000   -200861.27    1.6215881 -0.0018542192    65.198979     64.99625     64.91839    38117.267 
19810000   -200927.39    1.6135785 -0.00033317342    65.040593    65.231938     64.78424    38130.292 
19815000   -200874.11    1.5710637 -0.0047761097    65.148986     65.16663    65.022093    38143.361 
19820000   -200630.33    1.5897075 0.00078614445     64.94658    65.191359    64.943154    38156.459 
19825000   -200725.57    1.5610149 -0.0016422245    65.502427     64.71024    64.809361    38169.497 
19830000   -200784.91    1.5810965 0.00048301434    65.123514     65.11554    64.750052    38182.537 
19835000   -200696.87    1.6411265 -0.0015606283    65.075882    65.228784    64.810408    38195.638 
19840000   -200570.04    1.5987161 0.0018299909    65.056724    65.148129    64.956841    38208.648 
19845000   -200683.27    1.6461384 -0.0018605651    64.729173     65.38675    65.054857    38221.715 
19850000   -200594.35    1.5504276 -0.0027382009    65.118848    65.194954    64.887637    38234.773 
19855000   -200528.15    1.5855189 -0.00038878488    64.788448    65.030127    65.185819    38247.744 
19860000   -200585.71    1.6481438 -0.0016370289    64.996278    65.237677    65.108017    38260.787 
19865000   -200655.82     1.617856 -0.0021968895    65.161941    65.432547    64.823566    38273.808 
19870000   -200573.68    1.6094117 -0.0017557428    65.446592    65.156859    64.993021    38286.821 
19875000   -200611.61    1.5900534 -0.0036584157    65.386989    64.974245    65.325861    38299.896 
19880000   -200847.95     1.576194 -0.0012774054    65.399835    64.928634    65.199544    38312.994 
19885000   -200858.86    1.6279825 0.0011430132    65.753706    64.471856    65.059566    38326.018 
19890000   -200660.38     1.592452 -0.003208011    65.200411    64.872925    65.502795    38339.023 
19895000   -200711.68    1.5497797 -0.0034746005    65.175986     65.07964     65.45196    38351.991 
19900000   -200828.56    1.6007313 -0.0012423434    65.386983    65.045957    65.098022    38365.002 
19905000   -200800.98    1.6129745 0.00019966874    65.246829    65.018638    65.034318     38378.01 
19910000   -200756.67    1.6070675 0.0059324775     65.32078    64.873744    64.861944    38390.998 
19915000   -200855.24    1.6701879 0.0011532542    65.279075    64.926009    64.851478    38404.043 
19920000   -200645.24    1.5896696  0.002553481    65.098555    64.835163    65.221706    38417.083 
19925000   -200893.24    1.6318647 0.0011454864     64.95429    65.015117    64.946186    38430.183 
19930000   -200842.47    1.6103092  0.001253122    64.772804    64.948739    65.323978    38444.488 
19935000   -201044.66    1.5877564 0.0016456561    64.772858    64.648117    65.322197    38457.535 
19940000   -201033.94    1.5946577 0.0018235452    65.064644     64.47122    65.201081    38470.556 
19945000   -200902.39    1.5507187 0.0011819179     64.88118    64.480324    65.343435    38483.587 
19950000   -200781.01    1.6524282 -0.0014833889    65.094621    64.439422    65.353169      38496.6 
19955000   -200973.69    1.5971647 0.0035543712    64.863012    64.560474    65.210227    38509.616 
19960000    -200831.5    1.5845843 0.0053378109    65.154827    64.531771    64.970806    38522.674 
19965000    -200884.4    1.5823442 0.00085033872    65.107865    64.625395    65.027377    38535.684 
19970000   -201047.88    1.6021581 0.00092652906    64.858594     64.52987    65.423811     38548.72 
19975000   -200884.48    1.6112466 0.00067895733    65.232447    64.592491    65.201042    38561.767 
19980000   -200795.38    1.5823221 -0.00072251095    65.209999    64.871079    65.134829     38574.83 
19985000   -200721.51    1.6356151 -0.00034332977    65.475945    64.675999    65.052021      38587.9 
19990000   -200887.42    1.5686492 -0.0011166056    65.364605    64.750596    65.079224    38600.967 
19995000   -200890.08    1.6112535 0.0022707243    65.434552    64.738157    65.006127    38613.959 
20000000   -200757.45    1.5614532 4.879847e-05    65.691053     64.60956    65.098641    38627.009 
20005000   -200760.35    1.5965953 0.0023240694    65.189431    64.898916    65.119791    38640.041 
20010000   -200932.13    1.6693359 0.0043268851    65.216586     64.97668     65.02414    38653.093 
20015000   -200911.34    1.5656242 0.0018864178    65.358673    64.806458    65.196651    38666.155 
20020000   -200833.13     1.586879 0.00028618191    65.468085    64.735788    65.148143    38679.214 
20025000   -200875.85    1.6007669 -6.6425868e-05     65.44975    64.720803    64.995415    38692.295 
20030000   -200813.19    1.6069939 0.0016692625    65.191658    64.803935    64.990102    38705.348 
20035000   -200875.87     1.595802 0.0034301222    65.073755    64.652094    65.042226    38718.396 
20040000   -200821.59    1.6124919 0.0032330858    65.231624    64.726584    64.831364    38731.436 
20045000   -200763.48    1.5647559 0.0034685356    65.518244    64.607891     64.86486    38744.493 
20050000   -200921.78    1.5804103 -0.00071391778    65.019196     64.82457    64.868871    38757.544 
20055000   -200919.07    1.5753904 -0.0042904814    65.078969    64.726953    65.283674    38770.664 
20060000   -200893.81    1.6086609 -0.0042687112    65.244036    64.786734    65.028621    38783.772 
20065000   -200810.44    1.5843561 -0.003204643    64.941297    65.285522    64.812325    38796.866 
20070000   -200831.61    1.6451652 -0.0014846726    64.491922    65.210112    65.197154    38809.949 
20075000   -200846.51    1.6226956 -0.0021246272    64.623866    64.859831    65.379557    38823.037 
20080000   -200922.43    1.6104281 0.00036056016    64.460222    64.925158     65.52318      38836.1 
20085000   -201005.16    1.6035177 -0.0025109558    64.361441    65.103852    65.314667    38849.182 
20090000   -200960.25    1.6319896 -0.0028622579    64.912564    64.800448    65.171456    38862.236 
20095000   -200920.92    1.6297922 -0.00043384716    64.715238     64.70879    64.958615    38875.294 
20100000   -200879.15    1.6246013 -0.0059165507    64.586695    64.913108    65.079914    38888.439 
20105000   -201035.02    1.5927752 -0.00045283228    64.838078    64.802847     64.71646    38901.578 
20110000   -201047.17    1.5823976 -0.0028279319    64.908721    64.895428    64.783007    38914.648 
20115000   -201064.47    1.6288155 0.00022792529    64.606828    64.971603    64.879887    38927.719 
20120000   -200862.11    1.6526151 0.0042845819    64.768773    64.803711    64.995639    38940.808 
20125000   -200788.39    1.6047216 -0.00083321924    64.907554    64.830097    65.118792    38953.844 
20130000   -200832.09    1.6032636 -0.0033492322     65.06061    64.904792    64.855928    38966.925 
20135000    -200992.2    1.5919569 -0.0018908141    64.942844    64.689694    64.979705    38979.972 
20140000   -200934.03    1.6559124 -0.0015718205    65.187156    64.675194    64.856572    38993.052 
20145000    -200997.7    1.5695136 -0.000254123    65.021387    64.706373    64.963878     39006.09 
20150000   -201004.89    1.5690111 -0.0013917313    64.659854     65.06224    64.921188    39019.166 
20155000   -201051.66    1.6338053 -0.001593857    65.007823    64.751185    64.972244    39032.323 
20160000   -200940.78     1.580166 -0.0018837953    64.985435    64.670609    65.045682    39045.427 
20165000    -200910.9    1.6083473 0.00027923221    64.912848    64.555023    65.221474    39058.508 
20170000   -200917.67    1.6064278 0.0021844617    64.600894    64.465663    65.161149    39071.606 
20175000   -200853.55    1.5608024 0.0039902348    64.468489    64.782724    65.178249    39084.745 
20180000   -200917.27    1.5746782 0.0024289247    64.661339    64.573614    65.292184    39097.875 
20185000    -200726.1    1.6164629  0.002614935    64.607231    64.288426     65.53442    39110.982 
20190000   -200822.76    1.5538607 0.0015651598    64.863433    64.583718    65.045967    39124.105 
20195000   -200817.56    1.5882754  0.003267604    64.927967    64.690701    64.901716    39137.222 
20200000   -200964.76    1.5640826 0.0027257845    65.158255     64.57683    64.831539    39150.307 
20205000   -200925.77    1.6160102 0.0049101059    65.202275    64.827445    64.650905    39163.332 
20210000   -200909.56    1.6268794 0.0025000026    65.253344    64.881331    64.850396    39176.366 
20215000   -200982.06    1.5972552 -0.0052348146    65.461882    64.853815    65.073794     39189.43 
20220000   -200854.42    1.5834306 0.0025183569    65.186392    64.604245    65.226696    39202.446 
20225000   -200786.69    1.6035619 0.0015578121    65.011984     64.76395    65.142372    39215.535 
20230000   -200928.82    1.6292658 0.0053258201    65.089212    64.496703    65.068366    39228.563 
20235000   -200801.89    1.5580422 -0.00018585709    65.439051    64.550247    65.267023    39241.603 
20240000   -200952.06    1.6167387 0.0012458488    65.218863    64.488733    65.256339    39254.701 
20245000   -201078.74    1.5934182 -0.00012791221    65.383066    64.441533    65.077406    39267.736 
20250000   -200924.54    1.5653183 -0.0041426917    65.361076    64.845151     64.86643    39280.754 
20255000   -200918.92    1.5739755 -0.0017657831    65.545197    64.660793    64.776971    39293.835 
20260000   -200886.49    1.6264162 -0.0023517189    65.470081    64.803738    65.040776    39306.959 
20265000   -200941.38    1.6598345 -0.0046110014     65.85712    64.622058    64.778872    39320.014 
20270000   -200995.03    1.5803719 -0.0026472632    65.381466    64.686233    65.011635    39333.058 
20275000   -200922.02     1.624223 0.0022736476    65.072893    64.825588    64.856966    39346.106 
20280000    -200881.6    1.5687541 0.0029118214    65.202227    64.774754    64.858587    39359.217 
20285000   -200892.51    1.6239781 -0.00029481812    65.100881    64.839723     64.96706    39372.265 
20290000   -200704.64    1.5991641 -0.000683491    65.189333    64.819764    64.855671    39385.303 
20295000   -200842.29    1.5694578 -0.00042413866    65.125187    64.589422    64.975065    39398.376 
20300000    -200859.1    1.6222797 0.0021717209    64.891142    64.551226    65.078166    39411.462 
20305000   -200872.67    1.5632127 -0.00019623831    65.259121    64.659605    64.753842    39424.514 
20310000   -200993.64    1.6070546 0.0044768024    64.932981    64.325168    65.037176      39437.6 
20315000   -200953.44    1.6085806 -5.1188086e-05    65.030829    64.475932     65.08243     39450.74 
20320000   -200769.88    1.5837142 0.0041288368    65.027701    64.415282     65.12536    39463.868 
20325000   -200706.24    1.6197588 0.00082942772    64.769362    64.834538    65.143276    39476.958 
20330000    -200773.4    1.6489136 0.0025257659    64.712965    64.791671    65.331635    39490.038 
20335000   -200825.07     1.582473 0.0040789792    64.756468    64.696316    65.037393    39503.157 
20340000   -200781.54    1.6168206 0.0041077622    64.886633     64.50416    65.241995    39516.209 
20345000   -200860.73    1.5940483 0.00033390846    65.041235    64.551536    65.136371    39529.265 
20350000   -200935.52    1.6310212 0.0025060646    65.015275    64.583955    64.929631    39542.377 
20355000   -201047.85    1.5577238 0.0043583296    64.739599    64.566551    64.774651     39555.46 
20360000   -200810.55    1.6743904 0.00029321381    64.902987     64.79561    64.654135    39568.558 
20365000   -200967.45    1.6127164 0.0015314391    64.407913    64.667842    64.958609     39581.61 
20370000   -200851.59    1.5842831 -0.0044646506    64.456166    64.745242    65.194447    39594.747 
20375000   -200640.13     1.610132 0.0018203035    64.322397    64.686575    65.325302    39607.865 
20380000   -200744.41    1.6198607 0.00095170982    64.441641    64.664097     65.09525    39621.011 
20385000   -200836.87    1.5823414 5.8345347e-06    64.490185    64.916191    65.034493     39634.11 
20390000   -200776.09    1.6405933 -0.0025870978    64.941176     64.51499    65.045893    39647.197 
20395000   -200655.18    1.6107259 -0.0018842965    64.933131    64.622315    65.215437    39660.299 
20400000   -200731.31    1.6195708 -0.00089569546    65.110055    64.550777    64.907689    39673.409 
20405000   -200756.99    1.6150953 0.00013671377    64.828809    64.680049    65.125823     39686.52 
20410000   -200740.79    1.6354745 0.0023115251    64.875673    64.286429    65.342642    39699.645 
20415000   -200861.81    1.5693134 0.0030753537    64.972168    64.416247    65.198491    39712.674 
20420000   -200841.62    1.6185268 -0.0013585391    65.017753    64.479694    65.162471    39725.742 
20425000   -200717.62    1.5608191 0.00085677406     64.90191    64.697795    65.158945    39738.833 
20430000   -200733.45    1.6121141 -0.00018939293    65.224983     64.77711    64.625708    39751.923 
20435000   -200740.01    1.6124619 0.00035854717    64.969978    64.844393    64.940869    39765.007 
20440000   -200632.52    1.6167739 0.0024713259    65.023854    65.135164    64.734106    39778.108 
20445000   -200909.52    1.6419891 0.0045425651    65.267359    64.814732    64.856456    39791.189 
20450000   -200792.58    1.5843315 0.0054754373    65.237291    64.847372    64.749364    39804.264 
20455000   -200725.75    1.5640427 0.0021946568    65.501246    64.853678    64.600514    39817.279 
20460000   -200603.05    1.5649242 -0.0013265476    65.433828    64.968827    64.710739    39830.337 
20465000   -200600.11    1.6621232 -0.0010314175    64.878324    65.013538    64.973016     39843.45 
20470000   -200756.78    1.5585231 0.00011903322    65.413328    64.686793    64.763581     39856.53 
20475000   -200788.71    1.6072183 0.0015202305    65.590558    64.138016    64.913268    39869.577 
20480000   -201064.64    1.5925126 -0.00017047984    65.126132     64.83665    64.633251    39882.595 
20485000   -200954.87    1.6029403 -0.00070797632     65.13248    64.696776    65.079507    39895.684 
20490000    -200919.2    1.6047419 -0.0017153793    65.092166    64.472022    65.278539    39908.724 
20495000   -200786.08    1.5998091 0.00033663396    65.226099    64.545758    64.957616    39921.804 
20500000   -200917.58    1.6333386 -0.0027539566    65.251104    64.666335    64.661692    39934.901 
20505000   -200770.59    1.6099416 -0.005519334    65.198187    64.902802    64.985743     39947.96 
20510000    -200832.9    1.5889461 -0.0015299336    65.021637    64.832723     65.01547     39961.07 
20515000   -200864.97    1.5742853 -0.0013845081     64.91924    64.687088    65.132374    39974.138 
20520000   -200967.66    1.6177552 0.0043493218    64.990872    64.518714    64.857102    39987.132 
20525000   -200931.98    1.6370447 0.0046021875    65.146541    64.354188    64.769362    40000.184 
20530000    -200877.9    1.5767314 0.0020685938    64.822854    64.397351    65.104957    40013.287 
20535000      -200859    1.5960647 0.0011354212    64.848982    64.538742    64.985206    40026.366 
20540000   -200902.42    1.6158231 0.00028538477     65.15885    64.867912    64.828624    40039.397 
20545000   -200790.17    1.5796217 0.0013588817    64.981732    64.838409    64.797642     40052.45 
20550000   -200966.69    1.5987719 0.00028965656    65.173303    64.825828    64.868032    40065.499 
20555000   -200693.72    1.6325053 -0.00061580213    65.006646    65.018516    64.854667    40078.483 
20560000   -201006.99    1.6018823 0.00092477868    65.039776    64.780733    64.816565    40091.531 
20565000    -200865.4    1.5699146 -0.0015295579    65.066584    64.660314    65.063531    40104.573 
20570000    -200971.8    1.5791545 0.0039386197    64.805355    64.884548    64.841304    40117.629 
20575000   -200980.72    1.6033012 0.0019072916    65.021476    64.565031    64.747608    40130.747 
20580000   -200935.31    1.5874177 0.00078746255    65.199286    64.467078    65.004074    40143.831 
20585000   -200811.56    1.6233486 0.0026010091    65.298966    64.704482    64.824589    40156.918 
20590000   -200967.85    1.6146892 0.0027762285    64.817327    64.808258    64.837496    40170.006 
20595000   -201025.62     1.604483 0.00022648705    64.910019    64.799114    64.798679    40183.096 
20600000    -200882.7    1.5992138 0.0026979755    64.882909    65.024544    64.534583      40196.2 
20605000   -200955.59    1.6107115 0.0030756019    64.883744    64.524774    65.148454    40209.296 
20610000   -200989.85    1.5947212 -0.00079643638    64.758269    64.729969    65.127717    40222.339 
20615000   -200971.96    1.6228565 0.00082883386    65.184646    64.475076    64.936426    40235.386 
20620000   -200898.54    1.6010127 -0.001169208    65.085819    64.618557    64.888192    40248.506 
20625000   -200833.66    1.5899339 0.0058752287    64.947998    64.631624    64.951503     40261.57 
20630000   -200872.49    1.5991205 -0.0053722909    64.704259    65.059941     65.13831    40274.597 
20635000   -200730.42    1.5646209 -0.0020786632    64.950751    64.824914    65.072599    40287.716 
20640000   -200974.61    1.5877918 0.00039498349    64.934359     64.60666    64.975116    40300.869 
20645000   -200950.28    1.6011129 -0.0015222345    64.873266    64.684973    64.894936    40313.904 
20650000   -200776.45    1.6009191 -0.0029623848    65.252686    64.448336    65.025036    40326.984 
20655000   -200831.11    1.6180724 -0.0012925344    65.199055    64.343702    64.897626    40340.109 
20660000    -200960.3    1.6131755 0.0019668559    65.038926    64.257797    65.108322    40353.209 
20665000   -200871.01     1.644671 0.0042108355    64.830199    64.329688    64.995947    40366.313 
20670000   -200819.54    1.5981404 0.0039101712    64.973901    64.421915     64.98619    40379.387 
20675000   -200967.87    1.5617195 0.00032451317    65.088628    64.575774    64.787227    40392.462 
20680000   -200870.95     1.621725 0.0010395877    65.126637    64.641777    64.775526    40405.555 
20685000   -200843.06    1.5791718 -0.0035495913    65.286229    64.939525    64.686187    40418.684 
20690000   -200815.88    1.6243169 0.0023670206    65.344924    64.731309    64.688342    40431.787 
20695000    -200947.3    1.6086186 0.0036479151    65.223595    64.579369    64.892552    40444.839 
20700000   -200801.04    1.5686085 0.0037671029    65.376209    64.905297    64.507125    40457.901 
20705000   -200781.76    1.5976436 -0.0010489022    65.513369    65.043403    64.294439    40470.966 
20710000   -200867.32    1.5986152 -0.0025873475     65.49534    64.605205    64.856462    40484.077 
20715000   -200815.57     1.611284 -0.0073769336    65.672811    64.893183    64.753166    40497.184 
20720000   -200847.23    1.6225836 -0.005115994    65.610318     64.50959     64.85075    40510.205 
20725000    -200923.3    1.5730427 -0.0033779236    65.589679    64.729644     64.63053    40523.282 
20730000   -200806.04    1.6446398 0.0026679512    65.238746    64.754651    64.741752    40536.451 
20735000   -200895.22    1.6307623 -0.0013491669     65.42327    64.688584    64.946559    40549.544 
20740000   -200744.84    1.5634765 7.5516716e-05    65.161194    64.873253    64.790197    40562.599 
20745000   -200799.82    1.5517816 -0.0035421366    65.480854    64.837329    64.788697    40575.619 
20750000   -200829.18    1.5872042 -0.0044194614    65.494604    64.736698    65.062919    40588.711 
20755000   -200961.13    1.6188711 0.0028515042    65.716111     64.59241     64.65661    40601.788 
20760000    -200977.5    1.6207577 -0.0052193192    65.353083    64.749287    65.136541     40614.88 
20765000   -200731.55    1.6317405 -0.001051878    65.380497    64.786969    64.979026    40627.908 
20770000   -200803.44      1.53852 0.00077225486    65.415615    64.784839    64.786516    40641.005 
20775000   -200914.88    1.6258319 -0.0017684729    65.012564    65.003429     64.91194    40654.116 
20780000   -200786.99    1.5476039 -0.0010701877    65.191527    65.180191    64.648077    40667.238 
20785000   -200778.22    1.6192305 0.0025323047    64.998116    64.799092    65.047397    40680.343 
20790000   -200870.01     1.633823 0.0024972252    65.366644    64.850432    64.522989      40693.4 
20795000   -200880.44    1.6137018 0.00035068595    65.299154    64.733799    64.874085     40706.48 
20800000   -200978.55    1.6108528 0.0066299581     64.94597    64.681728     65.01296    40719.575 
20805000   -200921.41     1.583022 -0.00069966821    65.345742    64.843326    64.953186    40732.614 
20810000   -200944.85    1.5977901 -0.00058533552     65.17081    65.010296    64.755467    40745.694 
20815000   -200951.31    1.6623688 -0.0012029534    64.976044    64.833804    64.998608     40758.75 
20820000   -200938.64    1.6104361 -0.0029757644    65.299916    65.159247    64.428266    40771.791 
20825000   -200923.33    1.6409322 -0.002296512    65.041118    65.197912    64.690436    40784.786 
20830000   -200917.46     1.568687 0.00019990412    64.792053    64.894398    64.867208    40797.853 
20835000   -200948.25    1.5848052 -0.0027311293    65.142633    64.816373    64.594855     40810.95 
20840000   -200842.65    1.5773688 -0.002303676    65.253101    64.791219     64.66593    40824.094 
20845000   -200840.01    1.5833928 0.00014833815    65.036734    64.893691    64.446465    40837.266 
20850000   -201009.46    1.5887275 0.0021307453    65.019145    64.746175    64.482197    40850.431 
20855000   -200898.64    1.6316313 0.0040268802    64.740324    64.658647    64.753333    40863.478 
20860000   -200924.02    1.5623097 -0.00041220343     65.16976    64.611444    64.545427    40876.568 
20865000   -200888.77    1.6151904 0.0026470765      65.2363    64.584517    64.515143    40889.597 
20870000    -200954.6     1.611052 0.0015470993    65.267504    64.738992    64.420247    40902.726 
20875000   -200917.62    1.5941846 0.0047407962    64.911964    64.853185    64.536724    40915.839 
20880000   -200925.01    1.5966145 -0.00034972593    64.998605    64.593677    64.838306    40928.867 
20885000   -200863.53    1.5897366 -0.0015155979    65.089415    64.801722    64.761818    40941.983 
20890000   -200953.96    1.6487208 -0.0045853564    65.177826    64.833145    64.630389    40955.063 
20895000   -201038.68    1.6156391 -0.00083217746    65.065795    64.696792    64.691138    40968.129 
20900000   -200951.08    1.6226383 0.0027475051    64.971069    64.798622     64.57128    40981.248 
20905000   -200753.54    1.6210995 0.0014097451    64.702503    64.789913       65.301    40994.351 
20910000    -201034.8    1.6069037 0.0035680733    64.884483    64.529237    65.153751    41007.489 
20915000   -201089.35    1.6257564 0.00051326126    65.275588    64.342296    65.022637    41020.562 
20920000   -201094.98    1.5950871 0.0008463475    64.919602    64.691153    65.116635    41033.667 
20925000   -200971.81    1.6279815 -0.0011570008    65.106285    64.813272    65.012199    41046.755 
20930000    -201010.3    1.6216701 -0.0027186552    65.367597    64.981238    64.891531    41059.801 
20935000   -201045.67    1.5663692 0.0040304676     65.13273    64.778249    64.582611    41072.858 
20940000   -200882.68    1.6080561 0.0033201791    65.252439    64.551814    64.797041    41085.923 
20945000   -200923.99    1.6154825 0.0044858969    64.992837    64.717737    64.894529    41099.015 
20950000   -200953.05    1.6143086 -0.00061687259    65.108023     64.76911    65.101282    41112.099 
20955000   -200879.31    1.5834434 -0.0027102483    65.345844    64.624353    65.183696    41125.206 
20960000   -200806.36     1.567487 0.0017794828    65.201423    64.354897    65.229334    41138.269 
20965000   -200707.96    1.5800734 0.0012358787    65.142643    64.736924      65.1151    41151.327 
20970000   -200828.87    1.5800368 0.0027696178    65.234038     64.56876    64.806841    41164.394 
20975000    -200759.8    1.5983764 0.0014775098    64.774154    65.008039    65.190429    41177.441 
20980000   -200877.39    1.5902502 0.0039496465    64.914721    64.895301    64.980447    41190.536 
20985000   -200727.33    1.6021212 0.0019191763    65.073532    64.854045    65.102009    41203.571 
20990000   -200674.86    1.5933169 0.0011100652    64.992235    64.778305    65.263554    41216.602 
20995000   -200608.33     1.570581 0.00024969041     65.13601    64.819073    65.309708    41229.615 
21000000   -200985.74    1.6073983 0.00017582456    64.860358    64.880242    65.235598    41242.663 
21005000   -200976.43    1.6117267 0.0048454199    65.044344    65.046753    64.732208    41255.744 
21010000   -200804.19     1.618656 -0.00011863405    65.316912     65.13022    64.633396    41268.804 
21015000   -200793.23    1.5736292 0.0059340013    65.328413    65.079787    64.512703    41281.812 
21020000   -200717.81    1.6180755 0.0046205286    65.485301    64.821922    64.906875    41294.835 
21025000   -200703.36    1.5745065 -0.0032850606     65.60612    64.982171    64.817094    41307.862 
21030000   -200865.77    1.6433538 -0.0013225908    65.234613    65.176216    65.089623    41320.865 
21035000   -200873.49    1.5986088 0.0034409635    65.246857    64.822215    64.932758     41333.96 
21040000   -200797.16    1.6487932 0.0012145896    65.154115    65.218807    64.752443    41347.047 
21045000   -201018.26    1.6213878 0.0023462767    64.756628    65.248958    64.757941    41360.085 
21050000   -200997.02    1.5757685 -0.00015567623    64.928952    65.275998    64.681627    41373.164 
21055000   -200984.56    1.6426447 -0.0013096025    64.949919    65.263232    64.739172    41386.189 
21060000   -200958.88    1.6134881 0.00015567396    64.792089    65.293754    64.925558    41399.259 
21065000   -200949.56     1.543803 0.00069882397    64.984495    65.222759    64.831965    41412.316 
21070000   -201001.17      1.63098 -0.0046991058    64.839618    65.476449    64.987023    41425.399 
21075000    -200933.2    1.6005767 -0.00035615681     64.70066    65.407488    65.023624    41438.426 
21080000    -200902.7    1.6473476 0.00065150635    65.169918    65.131524    64.956021    41451.459 
21085000   -200984.41    1.6276676 -0.00055694079    65.343405    65.100357    64.606298    41464.532 
21090000   -201038.84    1.6073758 -0.0039376135    65.651569    65.119062    64.406079    41477.529 
21095000   -200999.84    1.5722079 -0.0050985982    65.741051     65.33351    64.431291    41490.557 
21100000   -200939.16    1.5763373 -0.0015103142    65.498476    65.213242    64.754478     41503.54 
21105000   -200996.71    1.5894199 -0.0025616565    65.423373     65.11844    64.773682    41516.555 
21110000   -201010.67     1.620064 0.0016229384    65.130949    65.321585    64.808812    41529.599 
21115000   -201032.56    1.5785558 -2.4121817e-05    65.376085     65.39321    64.461046     41542.67 
21120000   -201031.28    1.6209595 0.00092634335    65.207055    65.320936    64.758263    41555.713 
21125000   -201049.23    1.6627243 -0.00064327822    64.932397    65.309388    64.762714    41568.738 
21130000   -200963.53    1.5947217 0.00066735472    65.212172    64.916141    64.835509    41581.786 
21135000   -200856.15    1.5823818 0.00019014852    64.913498    65.192703    65.050236    41594.844 
21140000   -200859.51    1.6056408 0.00047024694    65.038445    65.282133    64.959396    41607.943 
21145000   -200948.17    1.5848935 0.0013250586    64.818343    65.230164    64.964073    41621.022 
21150000   -200974.87    1.5983311   0.00499294    65.108794    64.931029     64.82389    41634.098 
21155000   -200911.61    1.6372465 0.0038895246    65.074069    65.108409    64.880431    41647.131 
21160000   -200957.61    1.6170349 -0.00075576853    65.308561    65.113744    64.914145    41660.172 
21165000   -200880.04    1.5788485 0.0015710162    65.473027    65.094887    64.732565    41673.224 
21170000   -200893.09    1.6169368 0.0026437868    65.227811    65.167235    64.916735    41686.266 
21175000   -200857.41    1.5441381 0.00059947218    65.253955    65.036733    65.176242    41699.285 
21180000   -200948.71    1.5783285 -4.0293781e-05    65.410641    65.053477    64.896878      41712.3 
21185000   -200823.67    1.5593511 0.0015027698    65.163644    65.086745    64.888571    41725.347 
21190000   -200867.83    1.6315221 -0.00038239923    65.531624    65.444618    64.396706    41738.366 
21195000   -200969.27    1.5485921 -0.0050938146    65.237685    65.839212    64.526426    41751.406 
21200000   -201100.63    1.6009604 -0.0070894002    65.325307    65.312443    64.804966    41764.465 
21205000   -201062.22    1.6611857 0.00084143667    64.999597     65.21698    64.779382    41777.564 
21210000   -200966.08    1.6606521 0.0023156094    64.958639    65.018595    65.106557    41790.671 
21215000   -201057.94     1.615304  0.001953136    64.924637    65.161871     65.07042    41803.688 
21220000   -200945.24    1.6470708 0.0017838793    65.004651     65.09028    65.189707    41816.732 
21225000   -200925.74    1.6568044  0.002336338    65.265342    65.054332    64.756968    41829.827 
21230000   -200920.11    1.6039485 -0.00018048936    65.541917     64.53392    65.232793    41842.931 
21235000   -201081.87    1.6042912 0.00050261023    65.198166    64.923168    65.044347    41855.964 
21240000   -201138.51    1.6487057 0.0025806943    65.402018    64.951929    64.656189    41868.985 
21245000   -201010.43    1.5981735 -0.00083321674    65.286123    64.989972    64.816094     41882.08 
21250000   -200868.37    1.5809732 0.0028799185    65.351898     64.97233    64.687685    41895.127 
21255000   -201051.06    1.6257284 -0.0040068135     65.27635    65.128035    64.947709      41908.2 
21260000   -200919.23    1.5826116 -5.1209756e-05    65.311684    64.963943    64.871048     41921.24 
21265000   -200991.65    1.6177481  0.004257283    65.267179    64.656104    64.968333    41934.259 
21270000   -201055.99    1.5805242 0.0030883539    64.988626    64.924426    64.933297     41947.25 
21275000   -201008.63    1.6107758 -0.00085729733    65.317654    65.048126    64.773958    41960.375 
21280000   -200980.75    1.6320418 0.0015456192    65.290487    64.624582    64.809651    41973.467 
21285000   -200956.42    1.5901445 0.00016616246    65.081936    64.802943     64.98194     41986.52 
21290000   -200981.54    1.6099472 0.00048987805    65.338636    64.861193    64.761389     41999.59 
21295000   -201073.44    1.5796268 0.0022388698    64.794168     64.82472    64.913628     42012.71 
21300000   -200960.56    1.5759822 -0.0010825812    65.313026    64.701149     64.77997    42025.761 
21305000   -200923.38    1.6098298 0.0019684847    65.279418    64.623762    64.829582    42038.836 
21310000   -200992.05    1.6301325 -0.00066775853    65.296151    64.964406    64.421368    42051.884 
21315000   -200818.67    1.5686694 0.0025037956    65.293092    65.012157    64.629585    42064.965 
21320000   -200843.28    1.5980638 0.0036683946    65.580542    64.917306    64.427154    42078.001 
21325000   -200985.84     1.664337 -0.00030807921    65.279636    65.337126    64.646578    42091.071 
21330000   -200871.05    1.5770152 -0.0042031022    65.477008    65.385156      64.8267    42104.092 
21335000   -200763.31    1.6304568 -0.0022550783    65.516514    65.311406     64.73994    42117.129 
21340000   -200758.67    1.5890841 0.00023021395    65.299786    65.172099    64.755293     42130.18 
21345000   -200675.89    1.5431652 0.0028952962    65.568137    64.859844    64.795578    42143.218 
21350000   -200776.74    1.6424572 -0.0011695923    65.355962    65.256874    64.854377    42156.227 
21355000   -200812.81    1.5707958 -0.00069635458    65.672765    64.591463    64.890948    42169.251 
21360000   -200834.31     1.597627 -0.0053971683    65.582352    65.079357    64.824011    42182.301 
21365000   -200868.24    1.5893944 0.00041420991    65.332381    64.955084    64.915511    42195.362 
21370000   -200816.42    1.5766873 0.00086585788    65.111468    65.256362    64.932202    42208.457 
21375000   -200847.24    1.6296642 0.00011818604    65.281819    65.157737    64.819884    42221.454 
21380000   -200892.63    1.6074752  0.001329093    65.365654    65.222589    64.776119      42234.5 
21385000   -200900.22     1.603284 -0.00094800659    65.313792    65.082745    65.039526    42247.526 
21390000   -200702.97    1.6079729 -0.0034719736    65.307627     65.16842    64.900084    42260.509 
21395000   -200823.11    1.5595903 -0.00022665151    65.706936    64.961744    64.458641     42273.53 
21400000   -200906.62    1.6026538 -0.0025066137    65.490419    64.976491    64.562006    42286.537 
21405000   -200844.94    1.6163037 -0.0038535741    65.652449    64.864778    64.689416    42299.642 
21410000   -200793.68    1.5673146 -0.0068907992    65.706515    64.744316    64.823035     42312.66 
21415000   -200676.58    1.6060632 -0.0012093023     65.55244    65.015598    64.695328    42325.689 
21420000   -200840.63    1.5868347 0.0013771214    65.272361    65.116703    64.707994     42338.76 
21425000   -200772.59    1.5966709    0.0012169    65.577994    65.043236     64.52653    42351.834 
21430000   -200648.03    1.6021552 -0.0032799733    65.870463     64.87369    64.697747    42364.829 
21435000   -200884.47    1.6121338 0.0028810821    65.715195    64.672716    64.534619    42377.952 
21440000    -200878.9    1.5797192 0.00061375501    65.538227    64.720354    64.904725    42391.031 
21445000   -200958.42    1.5734593 -0.00067808113    65.301114    64.792911    65.002935    42404.079 
21450000   -200957.32    1.5805124 -0.0013879815    65.560934    64.673134    64.871857    42417.113 
21455000   -200915.11    1.5686066 0.0033019177    64.710089    64.997625     64.99664     42430.12 
21460000    -200759.6    1.6374319 0.0033039265    65.113705    64.965066    64.707617    42443.153 
21465000   -200918.98    1.5973714 -0.00071847987    65.135401    64.799691    64.856594     42456.17 
21470000   -200864.24    1.6562066 -0.0011890197     64.86324    65.193477     64.95219    42469.235 
21475000   -201002.24    1.6064607 0.0015342575    65.114727    64.803763    64.494401    42482.347 
21480000   -200791.37    1.5816023 -0.00089298816    64.735097    64.949609    65.027402    42495.388 
21485000   -200781.24    1.6344617 -0.00096194465    65.225247    64.762701    64.739295    42508.465 
21490000   -200932.79    1.5878103 0.0012363318    64.717077    64.784153    64.813392    42521.508 
21495000   -200881.29    1.6601383 -0.0027694861    65.151663     64.89414    64.500541    42534.569 
21500000   -200988.59    1.5854146 -0.0030835535    64.920027    64.896826    64.970845    42547.666 
21505000   -201072.47    1.5650756 0.0020980546    64.575792     64.82493    64.837292     42560.73 
21510000   -200829.78    1.6126496 0.00055498548    64.982618    64.926576    64.569451    42573.764 
21515000   -200857.96    1.6074212 -0.00080432479    64.844032    64.873267    64.848178    42586.896 
21520000      -200956    1.5756572 -0.0025676494    64.860453    64.825289    64.705511    42600.023 
21525000    -200898.9    1.5909531 0.00052830199    64.742163    64.645812    64.789628    42613.097 
21530000    -200811.3    1.5638178 -0.0021518129    65.285625    64.360988    64.910483    42626.187 
21535000   -201012.54    1.5617748 0.0016613377    65.229851    64.645971    64.714651    42639.297 
21540000   -200922.21    1.6025639 0.0033579118    65.294168    64.576204    64.625655    42652.359 
21545000   -200882.26    1.5849811 0.0015114023    65.028593    64.889021    64.807981    42665.404 
21550000   -200999.73    1.6527308 0.00041211791    65.110167     64.76079    64.947646    42678.524 
21555000    -201112.4    1.5995221 -0.0034268661    65.362209    64.502938    64.900138      42691.6 
21560000   -200960.43    1.5738387 0.00084062035    64.789528    64.765673    64.869495    42704.662 
21565000   -200770.14    1.5781113 0.00055324366    64.922055    64.748322    65.115955    42717.743 
21570000   -200747.17    1.6254248 -9.4365146e-05    65.111188    64.833921    64.843092    42730.887 
21575000    -200811.6    1.6101354 -0.0011148612    65.183816    64.939939    64.633053    42743.905 
21580000   -200804.83    1.5942569 -0.00061416338    65.258351    64.535426    65.031446    42756.919 
21585000   -200773.14    1.5977924 -0.0024108225    65.210319    64.880052    64.822753    42769.952 
21590000   -200776.92    1.5594867 -0.006503227    65.340994     64.68319    65.212827    42783.059 
21595000   -200689.04    1.6255036 -0.0049628267    65.470223    64.635071    64.976009    42796.123 
21600000   -200792.83    1.5601254 -0.0027743616    65.143284    64.681473    65.163075    42809.233 
21605000   -200779.55     1.612961 -0.0013847637    65.146931      64.7598    65.199788    42822.345 
21610000   -200781.93    1.5992878 0.00099099623    65.180727     64.69565    64.993408    42835.446 
21615000   -200740.76     1.631288 0.00086592233    65.329754    64.738078    64.960381    42848.474 
21620000   -200776.65    1.6823092 0.00039956818    65.079302    65.092788    64.887088    42861.593 
21625000   -200737.63    1.5493621 0.00024519876    65.299468    64.975497    64.773056    42874.654 
21630000   -200797.25    1.6139278 0.0012898715    65.012472    64.880306    65.049611    42887.685 
21635000   -200694.57    1.6078905 -0.00060183132    64.821636    64.935682    65.321863    42900.752 
21640000   -200894.34    1.5991813 0.00024666321    65.100744    64.584626    65.037388    42913.865 
21645000   -201116.78    1.5929412 0.0019073702    64.682891    64.901853    64.913074    42926.945 
21650000   -200725.05    1.6395429 0.00078120729    65.134444    64.885598     64.90752    42940.026 
21655000   -200960.69    1.5981132 0.00061410447    65.030815    64.867418    64.859947    42953.158 
21660000   -200982.23    1.6272236 0.00035771293    65.077937    64.798649    64.905025    42966.277 
21665000   -200782.45     1.594696 0.0023675193    64.731319    64.836586    65.155373    42979.305 
21670000   -200909.75    1.5883307 0.0024475162    64.987092    64.602434    65.120014    42992.364 
21675000   -201104.29    1.6543244 -0.00073693316    65.179463    64.815473    65.027484    43005.475 
21680000   -201119.66    1.6060493 0.0015339474    64.983469    64.717592    65.178993    43018.504 
21685000   -200981.73    1.6174851 -0.0013849147    65.013877    64.644651    65.213694    43031.537 
21690000   -201061.18    1.5907443 -0.0014371186    64.986431    64.622456    65.360394    43044.554 
21695000   -201020.96    1.5947926 -0.0046545651    65.021657    64.958557    65.351094    43057.588 
21700000   -200885.48    1.5825114 0.00094615097    64.826032    65.199261    65.121165    43070.614 
21705000    -200945.7    1.6086941 -0.002831138    64.822864    65.350297    65.272786    43083.669 
21710000   -200843.11     1.643434 0.0032575387    65.137192    64.942222      65.2179    43096.674 
21715000   -201123.26    1.5984386 0.0026418995    64.869225    64.725376    65.438675    43109.711 
21720000   -200964.94    1.6132928 0.0033511682    64.835333     64.96905    65.241635    43122.733 
21725000   -201003.95    1.6184727  0.006287916    64.692422    64.674763     65.51774    43135.791 
21730000   -200920.69    1.5996409  0.001878163    64.959976    65.119775    65.074046    43148.798 
21735000   -200955.83    1.6309087 -1.2678503e-05    65.283529    64.592545     65.11555    43161.915 
21740000   -200889.51    1.6170353 0.0053448635    64.774889    64.858876    65.147827    43174.945 
21745000   -201069.76     1.572924 0.0070002395    64.732893    64.669372    65.018095    43187.957 
21750000   -201077.52    1.6371902 -0.007339932    64.783321    65.305454    64.830665     43200.97 
21755000   -201013.18    1.5816006 -0.0035325043    64.815302    65.043932    64.851674    43214.027 
21760000   -200975.29    1.6215275 -0.0011203744    64.888526    65.176504    64.635482    43227.037 
21765000   -201179.04    1.5544196 0.0061084729    64.907702    64.646342    64.662261    43240.069 
21770000   -201067.64     1.636109 -0.0001042672     64.92432    64.785448    65.054032    43253.133 
21775000   -200961.87    1.6203335 -0.0039358624    65.188593    64.780205    65.034545    43266.198 
21780000   -200983.61    1.6041615 -0.00072977856    64.894233     64.91927    65.052773    43279.302 
21785000      -200908     1.615859 0.0037459263     64.51044    65.370123    64.766669    43292.405 
21790000   -200806.85    1.6275946  0.001375491    65.043582    65.164847    64.673538     43305.56 
21795000   -200909.41    1.5887013 -6.6914671e-05    64.926718    64.991568    64.870933    43318.675 
21800000   -200945.53    1.5995171 0.0002827809    65.010933    65.136787    64.693746    43331.782 
21805000   -200960.32    1.5696799    0.0043781    64.819062    65.012752    64.599138     43344.86 
21810000   -200995.59    1.5805904 0.00089923035     65.15019    64.678395    64.982834    43357.958 
21815000   -200834.45    1.6187322 -0.0049072418    65.132388    65.029392    65.062144    43371.056 
21820000   -200946.54    1.5814408 -0.00035034361    64.983928    64.985426    64.636367    43384.184 
21825000    -201002.4    1.6129153 0.00012426813    65.120927    64.883278    64.514985    43397.248 
21830000   -200986.59    1.5930335 -0.003233036    64.976583    64.864311    64.701435    43410.322 
21835000   -200983.18    1.6154702 2.1770762e-05    64.761441    65.239785    64.726408    43423.391 
21840000   -200885.35    1.6078824   0.00269906    64.841022    64.932817     64.84508    43436.508 
21845000   -200893.95    1.5955575 0.0049209221    65.212026    64.976402    64.445741    43449.576 
21850000   -200928.51    1.6230024 0.0056743647     64.90037    65.082505    64.457568    43462.633 
21855000   -201045.15    1.6121986 0.0044371582    65.159997    64.746928    64.490927    43475.725 
21860000   -200975.57    1.6515556 -0.0020969516    65.082814    65.098426    64.477686     43488.79 
21865000    -200750.8     1.614866 -0.0010016224    65.282942    65.198621      64.4875    43501.892 
21870000   -200868.99    1.5449441 -0.0040827215    65.129831    65.142936    64.597361    43514.955 
21875000   -200831.08    1.5834748 -0.0016533381    64.852034    64.981804     64.76011    43528.094 
21880000   -200796.57    1.6241687 0.00070921172     64.95392    64.810554    64.814524    43541.185 
21885000   -200812.81    1.6193081 -0.0025795149    65.240578    65.054135    64.482371    43554.278 
21890000   -200751.62    1.5938634 0.0027772856     64.93914     65.22841    64.417241    43567.375 
21895000   -200773.14    1.6478439 0.0017679388     65.10018    65.153033    64.361806     43580.44 
21900000   -200617.87    1.6031753 -0.003271865    65.114391    65.301651    64.367045    43593.556 
21905000   -200722.96    1.6248724 0.0016447727    64.864231    65.235191     64.54835    43606.624 
21910000   -200946.36    1.5925428 0.0024768045    64.970189    65.113011    64.642422    43619.709 
21915000   -200917.61    1.6216176 0.0017316129    65.125614    65.054516    64.569926    43632.799 
21920000    -201204.9    1.6042501 0.00056942576    65.330306     64.74349     64.41539    43645.864 
21925000   -201110.41    1.6110832 0.0018711361    65.082543    64.857474    64.466071    43658.938 
21930000   -200889.11    1.5776595 0.00074297766    65.199665    64.720573    64.548268    43671.993 
21935000    -200850.5    1.6029911 -0.001251994    65.036922    64.810543     64.83397    43685.067 
21940000    -200738.1    1.6214684 -0.002710869    65.439563    64.894683    64.487666     43698.11 
21945000    -200750.5    1.6072506 -0.00081964458     65.59115    64.704947    64.596383    43711.181 
21950000   -200836.78    1.5789912 -0.002633884    65.571826    64.798043    64.415219    43724.234 
21955000   -200993.01    1.6118641 -0.0033404335    65.173051    65.011133    64.678286    43737.321 
21960000   -200997.21    1.5850194 -0.00094758059    65.046338    64.910018    64.757864    43750.384 
21965000   -200818.02    1.5754649 -0.0045195641    65.542273     64.72646    64.896655    43763.449 
21970000   -200851.65    1.5963458 -0.0013663407    65.481454    64.610867    65.029248    43776.527 
21975000   -200736.93    1.5943744 -0.0015921082    65.256659    64.809037    65.024627    43789.634 
21980000   -200903.93     1.604915 6.5620861e-05     65.20275    64.804938    64.730412     43802.65 
21985000   -200909.73    1.6015849 -0.0018335006    65.235392    64.687205    64.822708    43815.694 
21990000   -200943.43    1.6045901 0.00060751326    65.224524    64.826907    64.823238    43828.749 
21995000   -200954.18    1.5932099 -0.00063364389    65.357458     64.78556     64.48647    43841.799 
22000000   -200893.26    1.5881927 0.0030479651     65.16861    64.654222       64.613    43854.843 
22005000   -200877.48    1.5984235 0.0018528077    65.378299    64.709213    64.642886    43867.864 
22010000   -200848.91    1.5996643 -0.0018749467     65.29181    64.589533    64.842594    43880.878 
22015000   -200968.32     1.592684 0.0010146758    65.265925    64.434021    64.946124    43893.957 
22020000   -201014.06    1.5848427 -0.0020170563     65.44976    64.554829    65.040615     43907.08 
22025000   -200927.67    1.6046628 -0.0039254649    65.314362    64.473331    65.186096    43920.126 
22030000   -201104.05    1.5854342 0.0032352541    65.221924    64.379558    64.996601    43933.191 
22035000   -200864.25    1.6161837 -0.00072864058    65.374674    64.707375    65.092908    43946.265 
22040000   -200763.13    1.5806388 -0.0011538707    65.382318    64.863535    64.856455    43959.357 
22045000   -200847.73    1.5500984 0.00095745582    65.034102    65.022501    64.897597    43972.392 
22050000    -200810.3    1.6116818 0.0012298832    65.404722    64.954754    64.695022    43985.427 
22055000   -200887.72    1.5875477 -0.0032360369    65.242364    64.914786    64.934362    43998.484 
22060000   -200898.43    1.5555168 -0.00081783557    65.376871    64.744632     64.84678    44011.535 
22065000   -200781.59    1.6000199 -0.0030953979    65.190404    64.801681    65.071237    44024.669 
22070000    -200841.7    1.6103746 -0.0010652938    64.733881       64.779    65.346644    44037.731 
22075000   -201002.91    1.6174626 0.0023717109    65.101609    64.413711    65.248773    44050.793 
22080000   -200981.69    1.5959408 0.0026480896     65.08164    64.738409    64.812723    44063.844 
22085000   -200959.56    1.6584141 -0.00058429349    65.302502    64.777973    64.849722      44076.9 
22090000   -200747.83    1.6297231 -0.0015165076    65.165819    64.859266    64.749243    44089.997 
22095000   -200955.03    1.6234912 0.0039662901    64.902488    65.068118    64.419177    44103.131 
22100000   -200884.89    1.6520147 0.00054801578    65.125193    64.801731    64.748737    44116.218 
22105000   -201144.15    1.5940141 -5.9656801e-05    64.845368    64.991174    64.733694    44129.319 
22110000   -201037.11    1.6244306 -0.0024532522    65.077819    64.888117    64.673938    44142.438 
22115000    -200950.8    1.6012263 -0.0013929525    64.945112    64.827426     64.87422    44155.545 
22120000   -201039.58     1.642741 0.0039849491    65.049422    64.799579    64.750883    44168.612 
22125000   -200908.83    1.6143912 0.0021326628     65.05164    64.903704    64.495904    44181.664 
22130000   -200813.52    1.6200409 -0.0026943102    65.291123    65.034054    64.641457    44194.699 
22135000   -200794.77    1.5963789 -0.0025648489    65.411294    65.027976     64.60947    44207.759 
22140000   -200748.67    1.5785329 -0.0065117302    65.000936    65.140104      64.9337    44220.815 
22145000   -200930.99    1.6216908 0.0023118061    65.292123    64.748964    64.559841    44233.885 
22150000   -200834.05    1.5943159  0.003579792    65.221911    64.982126    64.563283     44246.92 
22155000   -200884.29    1.5941351 -0.0016029986    65.262972    65.046734    64.710383    44259.957 
22160000   -200933.44    1.5987793 -0.00039233851    64.968922     65.12716    64.620539    44273.109 
22165000   -200903.18    1.5999912 -0.00063615958    64.994418    65.246373    64.647492    44286.213 
22170000   -200902.22    1.5701979  0.004402028    64.836385       64.893    64.686633    44299.259 
22175000   -200979.65    1.5274883 0.0016362614    65.154431    65.050689    64.455352    44312.373 
22180000   -200924.83    1.6064497 0.0024416058    64.928572    65.041849    64.893374    44325.443 
22185000   -200842.81    1.6736668 -0.0019473579    64.891343    65.398874      64.7842    44338.524 
22190000   -200749.65    1.5710528 9.5049503e-05    65.000728    65.023718    64.893834    44351.633 
22195000   -200849.57    1.5565926 -0.0026936493     64.78135      65.4184    64.816025    44364.662 
22200000   -200743.71    1.5615704 0.00040963042    64.940535     65.25197    64.580097    44377.716 
22205000   -200816.56    1.5655515 -0.0036240885    64.892585    64.988226    64.843275    44390.842 
22210000   -200641.81    1.5988802 -0.0015819431    65.049948    64.898783    64.723386    44403.946 
22215000    -200752.2    1.5676805 0.0035878082    65.048125    64.582272    64.619079    44417.036 
22220000   -200908.08    1.6206973 0.00055083031    64.914647    64.868794    64.676456    44430.131 
22225000      -200822    1.6188761  0.002201659    64.965973    64.940493    64.761245    44443.286 
22230000   -200819.55    1.6077547 -0.0051246754    65.375823    64.983512    64.723261    44456.316 
22235000   -200722.77    1.6669335 -0.00045898344    64.929467    64.845786    64.890022    44469.423 
22240000   -200806.07    1.6079667 0.00027374044    65.120139      64.5525    64.956636    44482.519 
22245000   -200740.22    1.6076022 -0.0023894904    64.950236     65.06647     64.82049    44495.663 
22250000   -200756.89    1.6178589 -0.0013194725    65.317846    64.762996    65.086071    44508.726 
22255000   -200888.77    1.5550695 -0.0041965973    64.804149    65.035231    65.282567    44521.755 
22260000   -200684.41    1.5858715 -0.0018728632    65.300684    64.888176    65.139937    44534.793 
22265000   -200838.54    1.6115516 0.00079078012    64.879493    64.967162    64.902604    44547.874 
22270000   -200751.06    1.6057648 -0.0020582219    65.074694    64.707495    64.800739    44561.008 
22275000   -200972.35    1.6434362 -0.0023845112    64.920037    65.124234    64.804906    44574.109 
22280000   -200822.84    1.6028873 -0.0021151011    64.713452    64.997158    64.957287    44587.156 
22285000   -200750.24    1.5978759 0.0035111015    64.835235    64.689607    65.011884    44600.228 
22290000   -200750.07    1.5918684 0.0066531095    64.367806    64.894143    65.108059    44613.369 
22295000   -200677.64    1.5636592 0.0031724881    64.557503    65.017631    64.758784    44626.404 
22300000   -200749.58    1.6044055 -0.0026285972    64.973235    64.915295    64.715424     44639.48 
22305000   -200771.82    1.5832868 -0.0022116538    64.916908    65.178417    64.560011    44652.579 
22310000   -200835.74    1.6001295 4.1894423e-05     64.54311    65.293834    64.803354    44665.674 
22315000   -200773.83    1.5534626 -0.0014552478    64.800515    65.260269    64.750797    44678.751 
22320000   -200827.43    1.6020315 0.0011576491     64.67674    65.067184    64.897074    44691.886 
22325000   -200849.15    1.5659684 0.00099236681    65.036879    64.854421    64.979977    44704.982 
22330000   -200870.79    1.5858741 -0.00090315447    65.042319    64.799845    64.916811     44718.09 
22335000   -200947.55    1.6244918 -0.00060469273     64.91038    64.676507    65.078205    44731.176 
22340000   -200870.66    1.6156338  0.006215145    64.480439    65.108627    64.878726    44744.293 
22345000    -200966.1    1.5815808 0.0031129217    64.706818     65.31781     64.21182    44757.361 
22350000   -200900.94    1.6290217 0.0048312003    64.952427    64.879547    64.542268    44770.439 
22355000   -200974.09     1.569122 -0.0037703828    64.622239    65.281381     64.84451    44783.569 
22360000   -200992.35    1.6110808 0.0032245492    65.165092    64.744762    64.771717     44796.66 
22365000   -200814.38    1.5967965 0.0053180795    64.834339    64.851655     65.03656    44809.747 
22370000   -200945.22    1.6024924 0.0022641934    65.077799    64.766515    64.718618     44822.84 
22375000   -200864.08    1.5738322 0.0070118261    64.842474    64.931034    64.595789    44835.897 
22380000   -200897.39    1.6369793 0.0054915932    65.093853    64.873268    64.283539    44849.005 
22385000    -200906.9     1.581109 0.0022321635    65.245019    64.840258    64.267527    44862.086 
22390000   -200685.18    1.5881387 -0.0002611793    65.328655    64.582376    64.668212    44875.179 
22395000    -200807.2    1.5727446 -0.004302875    65.238807    64.629006    64.970179    44888.283 
22400000   -200827.13    1.5621853 -0.0012633375    65.036701    64.895315    64.803443     44901.39 
22405000   -200894.97     1.577831 0.0013104907    65.197153    64.691892     64.64714    44914.494 
22410000   -200580.22    1.6616963 -0.00092287549    65.090417      64.9104    64.553547    44927.599 
22415000   -200767.45    1.6529074 0.00028880782    65.029936    64.680558     64.68574    44940.768 
22420000   -200782.08    1.5744276 0.00016169637    64.997984    65.050787    64.504626    44953.904 
22425000   -200893.13    1.5959853 -0.00040275363    65.225676     64.49159    64.544456    44967.061 
22430000   -200876.75    1.6397358 0.00021589836     64.99493    64.485768    64.552556    44980.176 
22435000   -200801.49    1.5682882 -0.0049963209    64.862757    64.506007    65.004511     44993.29 
22440000   -200766.13    1.6350868 -0.003595053    65.015552    64.462406    64.662486     45006.42 
22445000   -200825.34    1.5669413 0.0054691754    64.732018    64.722668    64.318891    45019.518 
22450000   -200692.24    1.5914633 -0.0035005763    65.013539     64.81483    64.493891    45032.681 
22455000    -200866.3    1.5734968 0.0017183769    64.754846    64.779109    64.361916    45045.785 
22460000   -200798.11    1.6120018 0.0042302554    64.736373    64.803149    64.512591    45058.939 
22465000   -200733.01    1.5575685 0.0014463284    65.051684    64.932757     64.45007    45072.006 
22470000   -200874.72    1.6026841 0.0024982219    65.080947    64.906436    64.275124    45085.052 
22475000   -200996.98    1.6131502 0.0013880039    64.789749    64.671878    64.660155    45098.128 
22480000   -200869.37    1.5942509 -0.0029688975    64.843849    64.669728    64.779192     45111.27 
22485000   -200721.86     1.635475 -0.0033678793    65.007817    64.887986    64.591074    45124.407 
22490000   -200981.87    1.5844223 -0.0021441932    64.950267    64.904251    64.436305    45137.524 
22495000    -200915.5    1.6182918 -0.0052458507    65.005601     64.76379    64.682483    45150.632 
22500000   -201011.42    1.5790996 0.0033109481    64.831834    64.533752    64.574318    45163.778 
22505000   -200868.79    1.6323436 -0.0016324903    64.915526    64.452766    64.951026    45176.886 
22510000   -201086.73    1.6340847 0.0029838815    64.648407    64.402235    64.735525    45190.009 
22515000   -201017.12    1.6172196 0.0027134067    64.750208    64.602641    64.565627    45203.154 
22520000   -200942.43     1.555805 -0.00086709907    64.538452    64.778086    64.503534    45216.214 
22525000   -200940.52    1.6245044 -0.0021834505    64.970818    64.669345    64.593109    45229.334 
22530000   -200992.97    1.5856448 -0.00085430303    64.838016    64.732853     64.41919    45242.466 
22535000   -200882.31    1.5916399 -0.0039151573    64.894681    64.784919    64.432831     45255.61 
22540000   -200917.82     1.617017 -0.0025638174    64.899897    64.848083    64.436339    45268.688 
22545000   -200905.74    1.6154461 -0.0013553259    64.996793    64.459168     64.90664    45281.773 
22550000   -200879.49    1.6364137 -0.0015917174    64.580512    64.669482     65.04511    45294.859 
22555000    -200812.9    1.5411675  -0.00372637    64.715054    64.854561    64.847697    45307.951 
22560000   -200748.83    1.6015945 -0.0052372438    64.956531    64.858099    64.625581    45321.062 
22565000   -200896.15    1.6479051 -0.0037616132    64.528051    65.072352    64.633716     45334.19 
22570000   -200707.61    1.5901845 -0.0024895801     64.76458    65.115797    64.521009    45347.295 
22575000   -200728.12    1.6306005 -2.2795011e-05    64.797064    65.043246    64.633381    45360.446 
22580000   -200616.33    1.5853769 0.00044564145    65.036816    64.735096    64.716119      45373.5 
22585000   -200760.22    1.5825677 -0.0032975845    64.864599    65.144793    64.771141    45386.525 
22590000   -200775.22     1.618978 0.0001390568    64.816451    65.058171    64.855179    45399.572 
22595000   -200781.13    1.5856643 -0.0032774343    64.797037    64.987329    65.081766     45412.66 
22600000   -200778.55    1.6120547 -0.0023889201      64.8386    65.153476    64.804118    45425.724 
22605000    -200727.5    1.6068921 -0.0010651001    64.594038    65.251396    64.858341    45438.781 
22610000   -200682.98    1.6107853 0.00032228239    64.800399    64.976968    64.830625    45451.883 
22615000   -200691.04    1.6070733 0.00011981902    64.999945    65.043286    64.847024    45464.957 
22620000   -200754.26    1.5814333  0.004051098    64.972555    64.903712    64.790711    45477.993 
22625000   -200741.05    1.6192034 0.0018982237    64.865329    64.721974    65.129746    45491.041 
22630000   -200602.31    1.6367254 -0.0030393145    64.490786    65.135058    65.392324    45504.065 
22635000   -200668.24    1.6415143 -0.0029000321    64.662759    65.112426    65.311376    45517.146 
22640000    -200605.1    1.5923534 -0.0027461364    64.769064    65.029606    65.080543    45530.133 
22645000   -200744.59    1.5694012 -0.0020253198     64.70818    65.024859    65.162622    45543.186 
22650000   -200870.16    1.5781044 0.00025031295     64.45361    65.089712    65.232828    45556.243 
22655000   -200916.93    1.6097324  0.001167598    64.733682    64.832088    64.947832    45569.315 
22660000   -200705.94    1.5816747 -0.00062313806    64.581456    65.174648    65.145669    45582.415 
22665000   -200740.79    1.5455032 -0.0050512006    64.783585    65.027755    65.303512    45595.511 
22670000   -200704.31    1.5861505 4.3813285e-05    64.998326    64.798943    65.015173    45608.555 
22675000   -200715.42    1.5849555 -0.0012594141    65.122229    64.871475    64.846812    45621.601 
22680000   -200715.48    1.6132357 -0.0022119812     65.31919    64.672765    64.715208    45634.658 
22685000   -200692.19    1.6270656 -0.005274083    65.099923    65.202656     64.71373    45647.758 
22690000   -200813.94    1.5756026 -0.0012211254    65.192627    64.745672    64.618476    45660.834 
22695000   -200952.46    1.5883753 0.0018849463    64.751984     64.94241    64.696437    45673.912 
22700000   -200949.92    1.6117343 -0.0021177831    65.093016    64.758505    64.775963    45687.019 
22705000   -200942.57    1.6101001 -0.0012386687    65.003514    65.261001    64.395424    45700.058 
22710000   -200732.79    1.5570599 -0.00046094277    65.298293    64.938378    64.829068    45713.086 
22715000    -200875.9    1.6110884 -0.00066100636    64.952874    64.663202    65.240284    45726.124 
22720000   -200822.52    1.5919843 -0.0010456428    65.435516    64.688144    64.785388    45739.209 
22725000   -200894.69    1.5863571 -0.00072015779     65.01021    64.979981    64.738988    45752.255 
22730000   -200849.58    1.5725014 -0.0017378478    65.063155    64.776494    64.818785    45765.355 
22735000   -200635.02     1.579291 -0.0023713476    65.079941    64.847262    65.029189    45778.512 
22740000   -200720.84    1.5965977 0.0025023461    65.052689    64.774627    64.885487     45791.54 
22745000   -200722.61    1.6452995 0.00073956072    64.663208    64.618613    65.327143    45804.558 
22750000   -200899.28    1.6657163 0.0011704475    65.009799    64.641564    65.261125     45817.65 
22755000   -200710.72    1.6316162 0.00028263407     65.18174    64.612252    65.234656    45830.689 
22760000   -200886.74    1.5362096 0.0017664903    65.179286    64.321449    65.052449    45843.764 
22765000   -200667.94    1.6160003 0.0012928464     64.98095    64.622059    65.185583    45856.839 
22770000    -200786.8    1.6245417 0.0045654449    64.912713    64.722464     65.05705    45869.921 
22775000   -200910.65    1.5811842 0.0028879103    64.804822    64.827301    64.993851    45883.011 
22780000    -200855.9     1.597021 0.00036781806    64.762392     64.79383    65.034033    45896.098 
22785000   -200871.92    1.5894302 -0.00058182371     64.77365      64.8327    65.044444    45909.212 
22790000   -200893.24    1.6051063 0.0021421236    65.021174    64.677568    64.788501    45922.311 
22795000   -200901.86    1.5802585 -0.0012028561    65.044204     64.70908    64.913308    45935.395 
22800000   -200762.25    1.6724333 -0.0044804115    64.828484    64.905766    65.291261     45948.49 
22805000   -200871.91    1.5544668 -0.0012429329    65.060204    64.633692    65.099264    45961.566 
22810000    -200830.7     1.592497 0.00013453814    65.144523    64.783072    64.853653     45974.62 
22815000   -201010.02    1.6039601 -0.00035340212    65.373418    64.681557    64.557426    45987.719 
22820000   -201038.69    1.6239316 -0.0007178362    65.097535    64.992843     64.70981    46000.767 
22825000   -200962.76    1.5513697 -0.0017175201    65.321265    64.547295    65.057739    46013.884 
22830000   -200934.86    1.6013572 -0.0047660779    65.223868    64.553953    65.107623    46026.973 
22835000   -200996.63    1.6167978 -0.004211641    65.248616    64.791017     64.85978     46040.03 
22840000   -200950.02    1.6217853 -0.0033384538    65.177853    64.758523    64.887481    46053.112 
22845000    -201016.6    1.5773428 -0.0017655886    65.179413    64.511358    64.848897    46066.252 
22850000   -201117.45    1.5725206 0.00083622291    65.204559    64.304604    64.901755    46079.349 
22855000   -201070.86    1.6261325 0.0017384407    65.230409    64.336214    64.882614    46092.399 
22860000   -200936.89    1.5971345 0.00038391708    65.170815     64.63904    65.008877    46105.418 
22865000    -200975.7    1.6044187 0.00012832005    65.380651    64.507894    64.898928    46118.515 
22870000   -201135.55    1.5699637 0.0010624718    65.312173    64.334327    64.913417    46131.588 
22875000   -200870.52    1.6217083 0.0038175964    65.105352     64.76955    64.739823    46144.638 
22880000   -201088.53    1.5844139 0.00073354395    65.301346    64.552044    64.696241    46157.643 
22885000    -200963.9    1.6047946  0.003768726    65.264286    64.468224    64.913543    46170.731 
22890000   -200888.67    1.6156143 0.0035837042    65.050493     64.35703    65.122751    46183.808 
22895000   -200824.42    1.6241584  0.000753494    64.750819    64.796882    64.990651    46196.937 
22900000   -200803.77     1.623575 -0.0025439486    65.271945    64.695414    64.616854    46210.045 
22905000   -201025.47    1.5668111 0.0014140173    65.179147     64.29801    64.937806    46223.129 
22910000    -200819.6    1.5505172 0.00072769934    64.772242    64.802127    65.055778    46236.299 
22915000   -200928.21    1.5707495 -0.00041810708     65.10241    64.694351    64.835457    46249.437 
22920000   -200855.86     1.642877 -0.00064184299    64.956583    64.668571    65.048857    46262.498 
22925000   -201001.31    1.6317161 -0.0033458064    65.155754    64.733497    64.858607    46275.551 
22930000   -201110.24    1.5586693 -0.0036281058    65.089008    64.622789    65.046277    46288.614 
22935000   -200984.29    1.5940037 0.0043090149    64.831754    64.301946    65.093056    46301.674 
22940000   -200996.48     1.601409 0.0049456185    65.365429    64.080081    64.900687    46314.793 
22945000   -200916.85    1.5680826 0.0023081139    64.751023    64.913996    65.013229    46327.837 
22950000   -200899.55    1.6088031 -0.0030626854    65.216786    64.889922     64.69892     46340.93 
22955000   -200675.09    1.6151946 -0.0055596743     65.60219    64.880644    64.634556    46353.999 
22960000   -200711.62    1.6269842 -0.0020776906    65.238876    64.676641    64.925243    46367.048 
22965000    -201000.2    1.5966658 0.0018155124    64.943256    64.484209    65.079425    46380.129 
22970000   -200923.31    1.5637814 0.0045867728    64.860385    64.641432    64.975891    46393.207 
22975000   -201051.72    1.6224463 0.00017286036     65.18695    64.578539    65.006515    46406.277 
22980000    -200968.6     1.561059 0.0017737061    65.257731     64.65396    64.692753    46419.378 
22985000   -200872.78    1.6147066 -0.0017738943    65.356784    64.650933    64.934546    46432.433 
22990000   -200917.59    1.5780766 0.0036280417    65.402386    64.568131    64.746134    46445.489 
22995000   -200847.71    1.6218688   0.00567051    65.228908    64.238746    65.068188    46458.551 
23000000    -200887.5     1.599324 -0.0012574888    65.052736    64.570836     65.28413    46471.605 
23005000   -200776.84    1.5878609 0.0024920161    65.374895    64.558834    64.985129    46484.646 
23010000   -200826.89    1.5444743 -0.0046527512    65.578674    64.450496    65.161232    46497.665 
23015000   -200614.23    1.6050394 -0.001326459     65.39768    64.710866    64.969582    46510.778 
23020000   -200633.34    1.5963204 0.0059742912    65.128515    64.853658    64.743229    46523.892 
23025000   -200710.64    1.6018947 0.0039567324     65.57232    64.201504    65.006116    46536.899 
23030000   -200756.11    1.5974487 0.00056966099    65.515616    64.301727    64.979404    46549.955 
23035000    -200681.5    1.6328484 0.0037944175     65.07364    64.592616    64.934354    46562.985 
23040000   -200754.84    1.5449583 0.0022364648    64.971629    64.548103    65.349119    46576.017 
23045000   -200788.19     1.582671 0.0024646069    64.976519     64.61713    64.980431    46589.048 
23050000   -200897.69    1.6054454 -0.002420505     65.06328    64.593816     64.94933    46602.185 
23055000   -200734.05    1.6088636 -0.0011989747      65.3419    64.547275      64.8503    46615.307 
23060000   -200689.22    1.6243759 0.0004436182    65.350335    64.465062     65.08811    46628.318 
23065000   -200659.64    1.5858049 -0.0044804589     65.12477    64.698118    65.155675    46641.379 
23070000   -200620.76    1.5804656 -0.003090028    65.248663    64.752087    65.102222    46654.408 
23075000   -200688.82    1.6122861 -0.0025526174    65.136891    64.791421    65.007056    46667.461 
23080000   -200822.66    1.5940914 -0.00074774542    65.100456    64.485429    64.848329     46680.53 
23085000   -200944.61    1.5556869 -0.0013009388    65.081831    64.764748     64.64354    46693.615 
23090000   -200886.15     1.629666 -0.006670878    65.143066    64.928188    64.865002    46706.636 
23095000   -200863.04     1.639204 -0.00082056927    65.164133    64.583513    64.764293    46719.661 
23100000   -200935.31    1.5604322 -0.0029491658    64.965031    64.630127     64.92301    46732.722 
23105000   -200901.09    1.5721274 -0.0013699587    65.095793    64.824035    64.459314    46745.761 
23110000   -201012.72     1.596101 -0.0040106255    65.414068    64.613203     64.60894    46758.848 
23115000   -200890.07    1.5965396 -0.0022669625    65.324279    64.654192    64.743129    46771.916 
23120000   -200902.22    1.6358078 -0.0028419431    65.048262     64.72498    64.881895    46785.031 
23125000   -200936.76    1.6116609 -0.0017126758    65.082407    64.752232    64.644188     46798.13 
23130000   -200802.04    1.6262679 0.0028703299    65.079245    64.404816    64.840105    46811.226 
23135000   -200913.03    1.6437959 -0.0034866369    65.060424     65.04168     64.65838    46824.393 
23140000   -200840.65    1.4963222   -0.0035177    65.272399    64.562772    64.953963    46837.501 
23145000   -200979.28    1.6164133 0.0024858609    65.087879    64.476953    64.793311    46850.581 
23150000   -200733.68     1.567291 0.0041600789    65.515562    64.403129    64.677556    46863.644 
23155000   -200894.73    1.6263987 -0.0017372555    65.609033    64.586129    64.397248    46876.733 
23160000   -200725.47    1.6027682 0.0055808113    65.346225    64.613319    64.444476    46889.795 
23165000   -200780.98    1.6040644 0.00088055946    65.328949    64.732237     64.42382    46902.861 
23170000   -200849.78    1.5898046 -0.00018829535    65.124409    64.586103    64.626414    46915.959 
23175000   -201013.72    1.5786023 -0.0024368421    65.190844    64.294815    64.693514    46929.059 
23180000   -200861.12    1.6008715 -0.0004739186     65.00452     64.43959    64.814698    46942.165 
23185000   -201106.87    1.5622293 0.00070908211    65.101096    64.604661    64.620612    46955.215 
23190000   -201107.58    1.6026599 -0.0026973903    65.111122    64.932624    64.530559    46968.313 
23195000   -201013.64    1.6363252 -0.0012039763    65.237375    65.031532    64.391004    46981.432 
23200000   -201017.31    1.5352414 -0.0035010425    65.455265    64.680048    64.736122    46994.498 
23205000   -200863.05    1.5796242 0.00039817195    65.274188    65.001832    64.618395    47007.607 
23210000   -200972.83    1.6187556 -0.001133525    65.313731    65.177413    64.457433    47020.721 
23215000   -200858.94    1.5948536 -0.00011541943    64.953793    65.327302    64.726801    47033.804 
23220000   -201064.45    1.6255655 0.0056430707    65.027543    64.828155    64.879333    47046.846 
23225000   -201052.23       1.5982 0.0061671962    65.005146     64.93613    64.594394    47059.852 
23230000   -201033.14    1.6421002 0.0049965878    65.082834    65.041015    64.733958    47072.903 
23235000   -200956.04     1.627237 0.00083468611    64.850289     65.23507    64.860263    47085.941 
23240000   -200897.72    1.6072218 0.0014914685    64.897127    65.191228    64.796747    47098.998 
23245000    -200937.7    1.5773637 -0.0038477241    65.093628    65.226422    64.536383    47112.031 
23250000   -200915.88    1.6239685 -0.0037537406    64.745416    65.332179    64.766192    47125.124 
23255000   -200986.69    1.5758448 -0.0006931845    64.844148    65.151511    64.649972     47138.19 
23260000   -200899.79    1.5849748 -0.0047892145    65.329068    65.293053    64.278069    47151.245 
23265000   -200827.42    1.6112216 -0.0018549935    64.846256    65.130024    64.935055    47164.349 
23270000   -200923.67    1.5955712 0.00041125297    65.172616    64.831193    64.766793    47177.471 
23275000   -200813.23    1.6047632 9.8620526e-05    65.019919    65.072826    64.885781    47190.562 
23280000   -200843.65      1.65319 0.00039313793      65.1839    64.854344    64.891237    47203.638 
23285000   -200921.69    1.5889513 -0.0038452754    65.202105    65.014455    64.895662     47216.69 
23290000   -200955.66    1.5713039 0.0004023795    65.235539    64.949068    64.653335    47229.738 
23295000   -200900.21    1.5872072 -0.00032104465    64.998975    65.281785    64.694772    47242.777 
23300000   -200779.29    1.6030273 -0.0014389529    65.085953    65.106527    64.873202    47255.889 
23305000   -200814.76    1.5771405 0.0012880005    65.143708    65.040081    64.741544    47268.919 
23310000   -200916.31    1.6031391 0.0011184769    65.182343    65.024384    64.660916    47281.983 
23315000   -200908.25    1.6068459 -0.0011262169    65.142267    65.188176    64.720573    47295.055 
23320000   -200928.24    1.6331344 -0.004767083    65.106625    64.837651     65.04004    47308.089 
23325000    -200712.4     1.578828 -0.0052532515    65.377096     65.19395    64.831254    47321.124 
23330000   -200730.86     1.572449 -0.0014150801    65.383637    65.214685    64.564929    47334.215 
23335000    -200804.1    1.6152893 -0.00097790103    65.014784    64.823977    65.064209    47347.285 
23340000   -200843.16     1.596967 -0.0010407277    65.147737    64.990262    64.844467    47360.332 
23345000   -200721.86    1.5891346 0.0024176315    64.879741    64.863527    64.997828    47373.405 
23350000   -200721.45    1.6085517 -0.0018594486    64.975399    65.162903    65.034803    47386.577 
23355000   -200693.29    1.6042283 0.0031526466    65.149066    65.023536    64.873975    47399.684 
23360000   -200750.19     1.550995 0.0018520871     65.09412     65.05735    64.990296    47412.769 
23365000   -200876.57    1.5882523 -0.0021236151    65.145611    65.156376     64.89454    47425.816 
23370000   -200711.77    1.6049793 0.0029367291    65.503635    64.893454    64.620398    47438.874 
23375000   -200776.48    1.5904896 0.0035599109    64.917012     64.79176    65.139278    47451.938 
23380000    -200715.2    1.6469749 0.0032163321    65.070284    65.117802    64.674857    47465.036 
23385000   -200797.83     1.560243 0.0022449807    64.987367    65.098872    64.768166     47478.05 
23390000   -200859.69    1.5665417 -0.0022069712     65.35835    64.945139    64.750606    47491.111 
23395000   -200840.92    1.6226866 0.0035252811    64.951167    64.925327    64.726293    47504.229 
23400000   -200747.44    1.6225758 -0.00014823399    65.246149    64.788689    64.768749    47517.266 
23405000   -200880.41    1.6174407 0.0037703531    65.281228    64.752693    64.681953    47530.368 
23410000   -200791.97    1.5782607 0.0024650038    64.984403    64.936916    64.863042    47543.462 
23415000   -200911.99    1.5535669 0.0021099393    64.664537    64.887071    65.234494     47556.53 
23420000   -201143.79    1.5980659 0.0035022531     64.90576    64.868711    64.568448     47569.58 
23425000   -200952.74     1.601501 0.0016710215    65.198776    64.624394    64.790149     47582.67 
23430000   -201009.03    1.6254856 -0.0017745077    65.273406    64.679584    65.036124    47595.762 
23435000    -201136.9    1.5907741 0.00041094029    65.215979    64.721207    64.768942    47608.825 
23440000   -200885.61    1.6137295 -0.00036627248    64.916074     64.87857     65.08306    47621.891 
23445000   -200919.11    1.6287615 0.00076266753    65.085105    65.104139    64.754581    47634.949 
23450000   -201060.37    1.6402555 -0.0044720993    65.012506    65.070746    64.963034    47647.976 
23455000   -201101.25    1.6026823 -0.0025095864    64.961602    64.997165    64.775194    47661.068 
23460000   -200938.44    1.5628781 -0.0024265559    64.880757    65.398181    64.809189    47674.129 
23465000   -201066.04    1.5713724 -0.0012866647    64.976071    65.318939    64.827573    47687.234 
23470000   -200973.23    1.6136702 -0.0061621044    65.177523    65.167275     64.97545    47700.305 
23475000   -200873.36    1.6300662 -0.00080072581    65.014433     65.04148     65.32438    47713.381 
23480000   -200864.77    1.5772235 -0.0024276742     65.01307    65.268898    65.231365    47726.515 
23485000   -200950.48    1.5969097 -0.0013228949    64.954681    65.278958     65.25495    47739.553 
23490000   -200930.62    1.6475705 3.0069858e-05    64.910989    65.312922    65.031879    47752.635 
23495000   -200838.87    1.6255765 -0.0012588195    65.315449    64.883629    65.174135     47765.66 
23500000   -200958.57    1.5577076 0.00071688198    64.970229    64.954922    65.314073    47778.746 
23505000   -200811.07    1.5932778 -0.0015997964    65.222566    65.161924    65.271281     47791.79 
23510000   -201115.27    1.6260345 -0.00015926088    64.967412    65.032027    65.279459    47804.873 
23515000   -200830.59    1.5707735 -0.001908244    65.378425    64.685455    65.432625    47817.879 
23520000   -200730.14    1.5623942 0.0028436066    65.420959    64.777806    65.229164    47830.925 
23525000   -201030.12     1.604062  -0.00147301    65.296361    65.125569    65.063332    47843.943 
23530000   -200944.36    1.5898577 -0.0035012908    65.300707    65.090641    65.077672    47856.974 
23535000   -200973.81    1.5991988 -0.0039073875    65.274627    65.052598    65.093536    47869.969 
23540000    -200943.8    1.5855023 -0.00079955657    65.408004    64.650287    65.122073    47882.995 
23545000    -200966.5    1.5634154 0.0040164106    64.984938     64.71616    65.225621    47896.053 
23550000   -200915.23    1.6183506 0.0042073192    65.153216    64.592901    65.460457    47909.085 
23555000   -200916.58    1.6013013 -0.0036252764    65.190894    64.808768     65.58592    47922.118 
23560000   -200844.57    1.6027915 -0.0019000871    65.467557     64.63189    65.264436    47935.148 
23565000    -200879.1    1.5919828 -0.00082425211    64.997026    64.821982    65.505473    47948.161 
23570000   -200840.54     1.615217 -0.0021127004     65.28284    64.806701    65.087598    47961.251 
23575000   -200866.47    1.6330583 0.0020472128    64.908637    64.479977    65.579128    47974.301 
23580000   -200822.26    1.6329966 0.0016488731    65.371231    64.554064     65.02833    47987.356 
23585000   -200941.34    1.6393016 0.0024014946    65.333563     64.50159     65.09768    48000.374 
23590000   -200910.44    1.5728676 0.00092372136    65.367654    64.684864    64.878531    48013.419 
23595000   -200908.89    1.5734068 0.0022748177    65.186058    64.715625    64.918986    48026.507 
23600000   -201007.83    1.6293104 0.0022593397    65.188867    64.518831    64.858328    48039.583 
23605000   -200961.32    1.5759022 0.0021933682    65.121052    64.489377    64.946323     48052.63 
23610000    -200913.9    1.6288649 0.0027469011     65.14749    64.371102    64.979482     48065.68 
23615000   -200945.73    1.5970376  0.003053012    65.199987    64.458347     64.99389    48078.772 
23620000   -201017.47     1.580884 -0.00042714552    65.399766    64.545648    65.137332    48091.877 
23625000   -200900.66    1.5907016 0.00093252769    65.166251    64.544235    65.124746    48104.873 
23630000    -200906.2    1.6344446 0.0036733321    65.255095    64.523962    65.038362    48117.934 
23635000   -200882.15    1.6230068 0.0021377658     65.05288    64.922151    65.018694    48131.011 
23640000   -200844.21    1.5906725 0.0041383756     65.08612    64.860384     64.89843     48144.04 
23645000   -200962.45     1.611988 0.0022224698    64.901673    65.196303    64.723677    48157.043 
23650000   -201041.89    1.5798272 -0.0011498421    65.292642    65.058417    64.641779     48170.07 
23655000   -200898.09    1.5834522 0.0027187965     64.93109    65.169731    64.886878      48183.1 
23660000   -201022.98      1.57085 0.0029167891    64.938906    64.902999    64.937916    48196.115 
23665000   -200869.16    1.5605004 0.0035736594    65.093454    64.734771    64.946532    48209.125 
23670000    -200824.5    1.5636155 0.0040337459    64.715486    64.874724    65.208024    48222.168 
23675000    -201039.3    1.5682148 0.00076287112    64.676124     64.88256    65.099597    48235.231 
23680000   -200940.01    1.6034945 -0.0005300152    64.814397    65.125705    64.898605    48248.329 
23685000   -201008.85    1.6160512 -0.0010410349    65.079408    64.814191     64.80334    48261.432 
23690000   -200840.14     1.593212 0.0024925806    64.978158    64.713529    64.788449    48274.539 
23695000   -200962.99    1.5961864 0.00023281113    65.007103    64.687032    64.616407    48287.619 
23700000   -200930.02    1.5698927 -0.0014791841    64.932947     64.92803    64.639511    48300.746 
23705000   -200986.29    1.5600521 -0.0020820469    65.022519    64.796283    64.472541    48313.812 
23710000   -201060.65    1.6258746 0.0021749296    64.341818    64.811352    65.055984     48326.91 
23715000   -201030.57     1.565454 0.00044779102    64.894922    64.662214    64.625332    48340.004 
23720000   -200983.39    1.5816085 -0.0022242766    65.176528    64.684603    64.839665    48353.122 
23725000   -200947.88    1.6254331 0.0038380956    64.570304     64.61927    65.198438    48366.182 
23730000   -201050.46    1.5720049 0.00054970618    64.992094    64.775007    64.705985    48379.231 
23735000   -201050.04    1.5829712 0.0019844781    65.057704    64.719698    64.881155    48392.279 
23740000   -200728.37    1.6309198 0.0011446689    65.223983    64.845316     64.82868    48405.343 
23745000   -200800.75    1.6201544 0.0023377342     65.35005    64.671769    64.688197    48418.399 
23750000   -200920.23    1.6185449 -0.0050577664    65.109584    64.836797    65.077493    48431.406 
23755000   -200825.33    1.6104283 -0.002752926    64.952761    64.945126    65.133743    48444.464 
23760000   -200867.62    1.5986818 -0.00080945461     64.95987    64.773249    65.091095      48457.5 
23765000   -200954.66    1.6150301 0.0026082581    64.894185    64.793629     65.03151    48470.557 
23770000   -200852.23    1.5753239 0.0026782116    64.904704    64.934749    64.927339    48483.565 
23775000   -200840.42    1.5469486 -0.0049362543    65.523205    65.095562    64.644861    48496.632 
23780000   -200840.17    1.6114179 -0.003064949    65.268043    65.178093    64.935789    48509.707 
23785000   -200856.39    1.5629298 0.00076953124    65.424095    64.762487    64.901543    48522.738 
23790000   -200849.98     1.581677 -0.0010999694    65.407442    64.920217    64.901676    48535.765 
23795000    -200893.9    1.5825311 0.0031005544    65.470945    64.808025    64.934483    48548.806 
23800000   -200827.54    1.5774131 0.0017283158    65.332982    65.070951    65.061735    48561.928 
23805000   -200834.26    1.6064152 0.0054608646     65.65384    64.897568    64.685077    48574.992 
23810000   -200978.93    1.5934408 0.00038484291    65.658564    64.920481    65.021718    48588.022 
23815000   -200901.04    1.5898499 0.00094970684    65.422382    65.087785    65.016634    48601.074 
23820000   -200933.99    1.6021993   0.00120809    65.740738      64.8918    64.700733    48614.123 
23825000   -200809.35    1.6248414 0.0025820969    65.875453    64.868391    64.656868    48627.129 
23830000   -200793.48    1.6371786 -0.00099863193    65.706807    64.778414    65.004931    48640.174 
23835000   -200898.83    1.6251036 -0.0012837166    65.953486    64.838127    64.642668    48653.237 
23840000   -200803.56    1.6106139 -0.0023005463    65.679924    65.012217    64.866604    48666.297 
23845000   -200898.17    1.6149473 -0.0036756946    65.693048    64.795071    65.173988    48679.372 
23850000   -201024.92    1.5873504 0.00029549281    65.367638    65.118018    64.786371    48692.436 
23855000    -201036.4      1.63539 0.00035913131    65.598804    65.022898    64.721478    48705.519 
23860000   -200856.36    1.6228525 -0.0015663856    65.654525    65.329772    64.533526    48718.576 
23865000   -200931.09    1.5793411 0.0017954282    65.096978    65.175208    64.862979    48731.631 
23870000   -200947.76    1.6008444 -0.0043294156    65.654077    65.156138    64.811113    48744.708 
23875000   -200909.37    1.6473984 0.0013375335    65.425222    65.387706    64.670524    48757.723 
23880000   -200831.29    1.6379161 -0.00020727884     65.63863    65.473469    64.590794    48770.695 
23885000   -200924.42    1.6166788 0.0031522765    65.281882     65.37761    64.865988     48783.67 
23890000   -200899.37     1.651134 0.0065175923     64.99182    65.417584     64.88174     48796.69 
23895000   -200756.37    1.5813803 0.00066829379    65.421854    65.396753    64.907623    48809.705 
23900000    -200890.5    1.5923384 0.0018715353    65.246032    65.567935    64.807151     48822.71 
23905000   -200962.83    1.5967873 0.00049844499    65.211683    65.451739    64.822967    48835.725 
23910000   -200860.34     1.608276 0.0014495417    64.835751    65.298595    64.965457    48848.776 
23915000   -200873.57    1.5645842 0.0019429286    65.020731     65.51624    64.657889    48861.806 
23920000   -200782.19    1.5545721 -0.0031554986    64.954751     65.54764    64.800985    48874.903 
23925000   -200892.65    1.5565527 4.9870553e-05    65.083188    65.251452    64.912647     48887.97 
23930000   -201004.21    1.6018826 -0.001535154    64.872483    65.259686    65.002338    48901.163 
23935000   -200882.59    1.5507042 -0.0030292069    64.985696    65.408007    65.089095    48914.214 
23940000   -200850.23    1.5785817 0.0001317638    65.290609    65.317344    64.778377    48927.265 
23945000    -200999.5    1.6237299 0.0048016273    64.967851    65.064434    65.035374    48940.305 
23950000   -200839.97    1.6120881 -0.0019614655    64.981593    65.465194    65.094745    48953.333 
23955000   -200832.43    1.6067564 0.0023678896    64.964328      65.4043    64.995986    48966.373 
23960000   -200795.72    1.6231795 0.0021019681    65.117684    65.100097    65.184774    48979.401 
23965000   -200860.44    1.5458164 0.00060990629    65.155279    65.074268    65.107835    48992.441 
23970000   -200759.79    1.5847624 0.00033389975    65.396111    65.096738    64.963506    49005.465 
23975000   -200895.41     1.593363 0.0023090626    65.130923    65.072541    65.068717    49018.485 
23980000   -201031.89    1.5956004 0.0027787037    65.387636      64.8756    64.874537    49031.494 
23985000   -200923.96    1.6043781 -0.00072280633    65.106333     65.08485    64.960152    49044.528 
23990000   -200935.14    1.6193601   -0.0012662    65.210599      64.7238     65.16454    49057.536 
23995000   -200922.17    1.5862369 0.0046647801    65.180051    64.466449    65.335029    49070.584 
24000000   -200793.96    1.5652372 0.0035902347    65.249771     64.70927    65.005813    49083.663 
24005000    -200859.1    1.5860618 0.0019832483    64.821258    64.845055    65.431771    49096.692 
24010000   -200930.86    1.5757687 0.00043198818    65.042775    64.699537    65.270179     49109.72 
24015000   -200938.97    1.5793321 -0.00099824981    64.888028    65.029624     65.19419    49122.797 
24020000   -200891.91    1.6422374 -0.0019007621    64.737995    64.970127    65.552768    49135.891 
24025000   -200755.91    1.6048226 -0.0023600893    64.867568    65.137615    65.402029     49148.97 
24030000   -200763.03    1.5735144 -0.0052364783    64.817255    64.844419    65.671621    49162.025 
24035000   -200841.57    1.5663885 -0.0025658376    65.017616    64.958327    65.220917    49175.104 
24040000   -200895.26    1.6234465 -4.7526067e-05    65.092782    64.896575      65.1642      49188.1 
24045000   -200849.11    1.6134239 0.00072382816    65.074299    64.851356    64.921506     49201.17 
24050000   -201144.81    1.5960395 0.0028283923    65.072029    64.792254      64.7892     49214.28 
24055000   -200953.61    1.5998907 0.0038558742    65.155228    65.108174    64.585438    49227.363 
24060000   -200911.76    1.6176291 -0.0010107841     64.93412    65.432387    64.872967    49240.424 
24065000   -200919.51    1.6372781 -0.00047952471    64.972755    64.840429    65.179728     49253.46 
24070000   -200976.14    1.6039298 -0.0053966401    65.290957    65.309115    64.667004    49266.474 
24075000   -200957.92    1.5814139 -0.00025744926    65.434325    64.777509    64.567235    49279.486 
24080000   -200913.45    1.5308671 0.0019977325    65.065907    64.591346     65.19681    49292.517 
24085000   -200979.78    1.6312949 -0.00087476691     65.23472    64.879428    64.948658    49305.549 
24090000   -200897.89    1.5904025 0.00010240801    65.192715    64.651255    65.054496    49318.631 
24095000   -201010.97    1.5714631 0.0019759172    65.149732    64.577792    64.902047      49331.7 
24100000   -200967.15    1.6376697 -0.00098675184    64.970398    64.998305    64.565654    49344.778 
24105000    -200871.4    1.6354726 -0.00096100204    65.178706    64.822052    64.821995    49357.846 
24110000   -200944.76    1.5843898 0.00021354978    64.956616    64.569556    65.299494    49370.877 
24115000   -200892.42    1.6032252 -9.6728121e-06    65.224462     64.64247    64.937589     49384.01 
24120000   -200852.44    1.5918532 -0.0033161955    65.262936    64.672311    65.183786    49397.102 
24125000   -200906.16    1.5817298 -0.0033924744    64.998561     64.60812    65.388826    49410.124 
24130000   -200877.81    1.5669528 -0.0044848111    65.254205    64.542874    65.077524    49423.212 
24135000   -200934.65    1.6004426 -0.0029870069    65.055717    64.920359    64.910268    49436.234 
24140000      -200840    1.5552973 0.0015997375    64.913211    64.926333    64.964981    49449.271 
24145000   -200910.21    1.6106755 -0.0018139516    64.860835    64.745567    65.282012    49462.359 
24150000    -200843.1    1.6108495 -0.0043394837    65.142559    64.860492    64.999812    49475.451 
24155000   -201075.21    1.5689782 -0.0026707771    65.084626    64.930306    64.706268    49488.492 
24160000   -200788.95    1.5669305 0.00033252561    65.150607      64.8461    64.740132    49501.597 
24165000   -200784.87    1.5791907 -0.0042475571    65.233157    64.976945    64.974098    49514.658 
24170000   -200701.55    1.5646554 -0.0019289174    65.269849    64.971019    65.098169    49527.737 
24175000   -200770.41    1.5901421 0.00090054826    64.838043     65.29095    64.766627    49540.778 
24180000   -200907.42    1.5828449 0.0041245768    64.984207    64.724834    64.951101    49553.833 
24185000   -200833.78    1.6009325 0.0008231405    65.026365    65.290543    64.690187    49566.839 
24190000   -200867.67    1.5696602 0.0012958651    65.309373    65.067262    64.698842    49579.878 
24195000   -200853.62    1.5747262 0.00062961731    65.184697    64.985111    64.868493    49592.897 
24200000   -200857.95     1.643489 0.0026466654    65.539641    64.724906    64.751424    49605.937 
24205000   -200900.82    1.5964061 0.0022945327    64.965197    65.324135    64.658227    49618.987 
24210000   -200788.03    1.5776974 -0.0047544108    65.030805    65.267957    65.011411    49632.104 
24215000   -200905.57    1.5756366 0.0027141634    65.022025    64.898127    64.826811    49645.173 
24220000      -200861     1.594995 0.0021268799     65.46818    64.910509    64.498367    49658.278 
24225000    -200806.3    1.5831227 0.0035512864    64.998603    65.071807     64.63235    49671.321 
24230000    -200883.3    1.6053071 0.0021914703    65.258953    65.083848    64.522242    49684.435 
24235000   -200886.54    1.5823171 0.00018627882    64.882891     64.99473    64.966177    49697.554 
24240000   -200926.38    1.6056788 0.0026251679    64.886684    64.856887     65.02656    49710.637 
24245000   -200950.51    1.6117336 0.0035201253    64.931174    64.824434    65.006806    49723.716 
24250000   -200849.82    1.5930352 0.0019606236    65.017434    65.247302    64.769025    49736.797 
24255000   -200881.02    1.6226808 0.0027611718    64.995126    65.015993    64.974261    49749.832 
24260000   -200850.63    1.5849733 0.0015732359    65.253337    64.923031    64.798318    49762.947 
24265000   -200835.73    1.5701423 7.649815e-05    65.306272    65.096747    64.640171    49776.026 
24270000   -201027.74    1.5645184 -0.0053752369    65.198498    65.062892    64.854606    49789.056 
24275000   -200961.66     1.622064 -0.00073987249     65.17817     65.04376    64.715782    49802.179 
24280000   -201173.18    1.5929213 -0.00076132995     64.76018    65.144628    64.994936    49815.271 
24285000   -200980.06     1.590403 0.00071261422    64.770488    64.973215    65.108004     49828.29 
24290000   -200893.59    1.6222013 0.0018768379    65.198192    64.561843    65.268796     49841.38 
24295000   -200923.48    1.5751631 0.0031717164    64.939524    64.795895      64.8679    49854.459 
24300000   -200917.52    1.5967369 0.0013668573    64.911333    64.714218    65.090642    49867.496 
24305000   -200799.93    1.5629964 0.0019364846     65.07853    64.583493    65.062337    49880.566 
24310000   -200829.91     1.585255 -0.001922575     64.95426    64.991363    65.021677    49893.653 
24315000   -200799.64    1.6141954 -0.0033824608    65.097551    64.900129    64.967027    49906.758 
24320000   -200960.54    1.6394984 0.0037181073    64.898159    64.569953    65.219063    49919.808 
24325000   -200773.66    1.5735745 -0.0060280394    65.405301    64.737305    64.795874     49932.89 
24330000   -200945.97    1.5967155 0.0024333328    65.521189    64.796605    64.593993    49945.925 
24335000   -200819.74    1.6602832 -0.0057417303    65.692878    64.796879    64.782541    49959.027 
24340000   -200900.23    1.6498284 -0.0035136994    65.138697    65.074828    64.830508    49972.062 
24345000    -200878.9    1.6116343 -0.0014830797    64.907604    65.346081    64.750656    49985.109 
24350000    -200865.5    1.6241385 0.0019291196    65.040978    64.937744    64.638077    49998.166 
24355000   -200975.75    1.6128753 -0.00088294494    65.209607    64.878936    64.674304    50011.209 
24360000   -200746.93    1.5811335 0.00075488806    65.373832    64.966066     64.42696    50024.254 
24365000   -200867.69    1.5938009 -0.0021114021    65.055644    64.841701    64.886329    50037.322 
24370000   -200926.89    1.6222744 -0.0029587214    64.621806    65.133965    65.156532    50050.447 
24375000   -200910.58    1.6378068 -0.002756054    64.936752    65.167824    64.824936     50063.55 
24380000   -200733.52    1.6002104 0.00043980313    64.806586    64.761102    65.288504    50076.598 
24385000   -200904.43    1.5808248 0.0038238974    64.864352    65.126594    64.916837    50089.657 
24390000   -200983.63    1.6277954 -0.00055482363    64.682844    65.340156    64.955756    50102.783 
24395000   -200982.74    1.5920192 0.0019762014    65.081943    64.943942    64.602326    50115.867 
24400000   -200996.83    1.5852908 -0.0027954382    65.025916     65.29196    64.601245    50128.951 
24405000   -201001.39    1.5969939 0.0019699297    64.993318    65.054594    64.671937    50142.011 
24410000    -201046.3     1.576785 0.0038458824    64.784489    65.102031    64.805306    50155.087 
24415000   -200999.53    1.6116586 0.0015302208    64.869694    65.137243    64.980936    50168.151 
24420000   -200966.99    1.5529762 0.0028118757    64.874893    65.175288    64.771884    50181.205 
24425000   -201055.97    1.5639244 -0.00030895602    64.925306    65.023243     64.66784    50194.272 
24430000    -200983.4    1.6085777 -0.0029810079    65.303166    64.795427    64.674345     50207.39 
24435000    -201054.8    1.5948435 -0.0017890923    65.108531    64.885978    64.651974    50220.511 
24440000   -201033.33    1.5716042 -0.00035342475    65.216481    65.109127    64.358956    50233.666 
24445000   -201014.15     1.574724 0.00029888856    65.295472    64.671144    64.500517    50246.793 
24450000   -200919.31    1.5875896 -0.0036496229    65.094136     64.92691    64.547912    50259.821 
24455000    -200891.4    1.6039741 -0.0057178079    65.230206    64.962669    64.591197     50272.91 
24460000   -200751.44    1.6044644 -0.0031310591    65.018013    64.908779    64.688212    50285.984 
24465000   -200868.18    1.6581165 0.0012698991    65.165323    64.919327    64.233761    50299.094 
24470000   -201004.21     1.573994 -0.00082120613    65.059258    64.944132    64.473452    50312.224 
24475000   -200808.06    1.6037745 -0.0039507099     65.26291    64.900373    64.519782     50325.31 
24480000   -200960.98    1.5974816 -0.0021386118    65.140241    64.861404     64.42381    50338.459 
24485000   -200723.11    1.6190513 0.0022314892    65.525997    64.867298    64.396968    50351.533 
24490000   -200748.59    1.6215756 0.0027428036    65.288345    64.789139    64.744304    50364.615 
24495000   -200707.57    1.6060867 0.00027937003    65.323428    64.806972     64.75157    50377.715 
24500000   -201025.82    1.6150546 -0.0021964866       65.172    64.690112    64.796628    50390.844 
24505000   -200995.78    1.5827964 0.0018205988    65.175124    64.815082    64.633889    50403.928 
24510000   -200910.99    1.5361994 -0.0053109724    65.351802     64.70413    64.782705    50417.014 
24515000   -200952.57    1.5261237 0.00016400745    65.400466    64.452234    64.733347    50430.122 
24520000   -200892.47    1.5935741 0.0010608875    65.260035    64.584775     65.10549    50443.262 
24525000   -200960.08    1.6338993 0.0010302692    65.302759    64.622802    65.046241    50456.357 
24530000   -200997.81    1.5806958 -0.0010745984    65.193359    65.116238    64.642682    50469.465 
24535000   -200845.38    1.6125999 3.5340269e-05    65.458769    64.981347     64.52282    50482.532 
24540000   -200928.66    1.6087703 0.0017951154    65.367429    64.769553     64.76257    50495.653 
24545000   -200901.28    1.6003913 -0.0020118732    65.219905    65.253651    64.794077    50508.667 
24550000    -200953.1    1.5921536 0.00030525222    65.234696    65.025692    64.839394    50521.705 
24555000   -201099.18    1.6699852 -0.002698555    65.247255    65.145831    64.698788    50534.822 
24560000   -201048.84    1.6540561 0.00084562092      65.2555    65.154714     64.48324    50547.894 
24565000   -200974.93    1.6200209 0.0031901038    65.394714    64.807412    64.587354    50560.965 
24570000   -200950.97    1.5459256  0.003081183    65.104057    64.760883    64.940429    50574.104 
24575000   -200843.59    1.5466364 -0.0018127465    65.253037    65.065206    64.750603    50587.161 
24580000   -200845.76    1.5939447 -0.0018261948    65.584003    65.036224    64.469819    50600.203 
24585000   -200848.62    1.6735974 -0.0001395962    65.226465    65.090224    64.675501    50613.223 
24590000   -201001.44    1.6315188 0.0021877037     65.36979    64.748793    64.740436     50626.29 
24595000   -200865.73    1.6057411 9.3024804e-05    65.347542    65.002017    64.692357    50639.297 
24600000   -200893.22    1.6214908 0.00082492484    65.319311    64.779044    64.741855    50652.394 
24605000   -200865.54    1.6348277 0.00084639868    65.229804    64.624071    64.863576    50665.423 
24610000   -200873.07    1.6472661 -0.0014393644    65.217559    64.705851     65.00852    50678.477 
24615000      -200964    1.6273962 -0.0010980837    65.112098    64.925852    64.690884    50691.584 
24620000   -200968.65    1.5800274 -0.0014094168    65.118763    64.722109    64.818621    50704.678 
24625000   -200983.49    1.6073402 0.0029131261    65.139275    64.634162    64.645732    50717.725 
24630000   -200707.86    1.5739212 0.0048783297    64.982724    64.659023    64.807717    50730.783 
24635000   -200789.97     1.626963 0.0052181237    64.860881    64.941284    64.472064    50743.791 
24640000   -200989.65    1.5792967 0.0016291426     64.90677    65.022448     64.51337    50756.852 
24645000   -200907.42    1.5535121 -0.0027273824    65.459673    65.147529    64.122034     50769.99 
24650000   -200901.34    1.6147973 4.0618342e-05     65.09314    64.988007    64.759473    50783.106 
24655000   -200877.06    1.6255145 0.0015398036    64.797789    65.249921    64.706838    50796.132 
24660000   -200829.87     1.624236 -0.00060736725    65.127846    65.120781    64.578214    50809.249 
24665000   -200686.53    1.5942004  0.002061032    65.060767    65.059898    64.795559    50822.358 
24670000   -200864.42    1.6002598 -0.0015422985     64.73108    65.104194    64.728609    50835.461 
24675000   -200935.49    1.5981815 -0.0025415192    64.630268    65.087065      64.8492    50848.496 
24680000   -200845.96    1.5852575 -0.002763481    64.706328    64.902344    64.860186    50861.525 
24685000   -200886.06    1.6363314 0.0039082777    64.604371    65.225181    64.741564    50874.611 
24690000   -200887.41     1.602792 0.0021393456    64.643719    65.123681    64.672684    50887.722 
24695000   -200847.89    1.5881922 0.00023083848    64.565576     65.12647    64.876421    50900.822 
24700000   -200888.69    1.6305413 0.0050231125    64.234887      65.0244    64.858845    50913.841 
24705000   -201085.12    1.6161926 0.0014533294    64.814113    64.879801    64.524035    50926.898 
24710000   -200944.32    1.5937555 -0.0037375045    64.562195    65.095006    64.833138    50939.959 
24715000   -200990.83    1.6010163 -0.0014165947    64.691234    65.282283     64.33211    50953.014 
24720000   -201038.27    1.5647455 0.00076527347    64.401429    65.092776    64.514558    50966.124 
24725000   -200797.65    1.5755142 -0.0026934512    64.161186    65.410032    64.690347    50979.267 
24730000   -200852.76    1.5766172 -0.0041686609    64.375509    65.384736    64.736737    50992.357 
24735000   -200893.08    1.6235047 -0.0046849498    64.587498    65.239099    64.734882    51005.438 
24740000   -200901.74    1.6824966 -0.00057596484    64.752043    65.182608    64.713493    51018.509 
24745000   -201048.72    1.6231689 -0.00087766211    64.661664    65.084195    64.893463    51031.545 
24750000   -200913.63    1.5875675 0.0023648663     64.62476    65.151324    64.836846    51044.641 
24755000   -201045.95    1.6346383 0.0009433171    64.465409    65.475989    64.763496    51057.739 
24760000   -201039.63    1.6244158 -0.00023329474    64.728325    65.144313    64.898807    51070.849 
24765000   -201020.04    1.6182705 -0.0043989475    64.885614    65.006508    64.909112    51083.908 
24770000   -201060.55    1.6160927 -0.00048714349    64.462101    65.108158    65.039257    51096.989 
24775000   -200987.37    1.6138133 0.0020838058    64.557376     65.04201    64.895484    51110.088 
24780000    -200861.1    1.5820611 0.00084549362    64.642162    65.073114    65.033953    51123.228 
24785000   -200924.31    1.5834942 0.0052312334    64.733478    64.650017    65.077243    51136.257 
24790000   -200784.06    1.6229548 0.0040480653    65.199887    64.696227    64.654497    51149.341 
24795000   -200948.41    1.5745688 0.0021890562    64.657972    64.831851    64.914106    51162.369 
24800000   -200972.45    1.6390076 0.0013739291    64.903201    64.714337    64.906375    51175.428 
24805000   -200998.02    1.5970143 -0.0002169472    65.014514    64.725443    64.992443    51188.521 
24810000   -200973.09    1.6154859 0.0012982528    64.955242    64.771621    64.864142    51201.608 
24815000    -200966.8    1.5876359 8.9458397e-05    64.814177    64.656514     65.03972    51214.632 
24820000    -201049.4    1.5251239 0.0027513853    65.002816    64.449018    64.820028    51227.694 
24825000   -200805.04    1.5887624  0.002570108    64.898701    64.880402    64.794443    51240.716 
24830000    -200973.5     1.596868  0.005217218    64.820743    64.779839    64.582031    51253.801 
24835000   -201050.37    1.6108703 0.0038843209    64.665175    64.716634    64.685064    51266.838 
24840000   -201109.97     1.599426 -0.0055592408    64.930776    64.646301    64.862584    51279.902 
24845000    -201190.6    1.5710265 -0.00084390903    65.113086    64.613045    64.637102     51292.95 
24850000   -201087.47    1.6157903 -0.0007465183    64.787288    64.777748    64.884474    51306.063 
24855000   -200991.22    1.6038219 -0.0010285894    64.860009    64.959532    64.885131    51319.101 
24860000   -200979.33     1.645966 -0.0011832009    65.099165     64.55141    65.077929    51332.217 
24865000   -200950.82    1.6073701 6.6675311e-05     65.12067    64.721018    64.859528    51345.295 
24870000   -201042.44    1.6197888 0.0014562893    65.149417    64.604642    64.901505    51358.367 
24875000    -200942.5    1.5625347 -0.0039763588    65.318369    64.960221    64.595732    51371.422 
24880000   -200989.77    1.6148157 -0.0054979826    65.176491    65.249707     64.70462    51384.503 
24885000   -200949.71    1.6544333 0.0021604866    65.314183    65.011418    64.685173    51397.536 
24890000   -201050.73    1.6047935 0.0011432693    65.263331    64.925085    64.817791    51410.593 
24895000   -200844.13    1.5688363 0.0014744864    65.348566    64.908081    64.852693    51423.592 
24900000   -201038.99    1.5939718 0.0029052033    65.186049    64.807763    64.941854    51436.637 
24905000    -200971.8    1.6392977 0.0040224788     65.31736    64.873616    64.808916    51449.637 
24910000   -200854.36    1.5580169  0.003844995    65.382659    65.025499    64.723326    51462.649 
24915000   -200894.72    1.5645523 -0.0008296603    65.389117    65.047272    64.996402    51475.664 
24920000   -201000.44     1.604475 0.00054260256    65.060739    64.985439     64.92388    51488.689 
24925000   -200736.17    1.5770315  -0.00129944    64.960465    64.993264    65.227222    51501.746 
24930000   -200873.53    1.5910545 -0.0038665039    64.954775    65.045925     65.17045    51514.861 
24935000   -200910.78    1.6268768 -0.0048938284    65.155681    65.249933    64.679158    51527.893 
24940000   -200837.83    1.5722871 -0.0040660796    65.169903    65.061616    64.887851     51540.95 
24945000   -200870.02    1.5896834 0.00012243311    65.079855    64.966948    64.956851    51554.015 
24950000    -200988.6    1.6069774 0.0074038516     64.88279    64.929171    64.530168    51567.127 
24955000   -200965.06    1.5748246 0.0037650502     64.76001    64.692807    64.838035    51580.167 
24960000   -201014.71    1.5835113 0.0026026496     65.10478    64.804288    64.566643    51593.276 
24965000    -201133.1    1.5790634 0.00045195401    64.743208    64.615395    65.216316    51606.356 
24970000   -201081.03    1.6089459 0.0016987824     65.11584    64.641476     64.91872    51619.414 
24975000   -200984.44    1.6248418 0.0031498194    65.078984    64.505317    64.878757    51632.442 
24980000   -200862.95     1.682486 0.00072347286    64.828158    65.062412    64.802809    51645.557 
24985000    -200940.5    1.6302285 0.0001986658    65.048944    64.623237    65.078252    51658.599 
24990000   -200916.36    1.5574384 0.0023050473    64.713077    64.844697    64.980949    51671.645 
24995000   -200838.62    1.6034033 0.0005274782    65.121298    64.821744    64.960021    51684.669 
25000000    -200930.7    1.5328623 0.0019491546    65.055774    64.664538    64.754882    51697.703 
25005000   -200983.11    1.6076772 -0.0023123938    65.291365     64.90032    64.714027    51710.711 
25010000   -200937.93    1.6073083 0.0027830842    65.407111    64.652779    64.683674    51723.751 
25015000    -200870.5    1.6094109 0.0041795096    65.049587    64.526282    64.980109    51736.819 
25020000   -200975.14    1.6263906  0.003688847    65.017888    64.683455    64.736336    51749.881 
25025000   -200946.02     1.568029 0.0054072474    64.756826    64.618719    65.085888    51762.953 
25030000   -200817.14    1.5655792 0.0061883981    65.371097    64.460423    64.760285    51776.005 
25035000   -200860.45    1.5799363 0.00038325557    64.998461    64.841944    64.809644    51789.032 
25040000   -200898.78     1.650243 -0.0015392967    65.107511    64.770389    65.022502    51802.092 
25045000   -200775.95      1.61964 0.0015678023    65.399803    64.520073    64.924157     51815.18 
25050000   -200693.21    1.6787003 0.00034462225    65.435515    64.584225    64.944856    51828.269 
25055000   -200802.68    1.5612842 0.0043607228    65.583953    64.493421    64.739926    51841.296 
25060000   -200778.36    1.6136146 0.0011167898    65.275508    64.704015    65.004613    51854.334 
25065000      -200896     1.604452 -0.0012678794     64.94565    65.047929    65.134526    51867.439 
25070000   -200952.32    1.5916468  -0.00143144    65.060463    65.073774    65.059157    51880.498 
25075000   -200986.05    1.6214187 0.0005945809    64.907116     65.05538    64.994429    51893.573 
25080000   -200896.91    1.5625841 -0.00034264193    65.270473    64.506925    65.143109    51906.625 
25085000   -201010.13    1.5674731 0.0019284317    65.340576    64.565655    64.921522    51919.666 
25090000   -200848.35    1.5753345 0.00021615709     65.18618    64.705419    64.959992    51932.767 
25095000   -201028.08    1.5984878 0.0019179416    64.938811    64.770201    64.985851    51945.805 
25100000    -200942.5    1.5712425 0.0016016322    64.893668    64.978149     64.97859    51958.847 
25105000   -200841.26    1.5538121 0.0048471691    64.642832    64.938825    65.216517    51971.953 
25110000   -201021.01    1.5780569 0.00048311636    65.383461    64.767525    64.863523    51985.014 
25115000   -200955.59    1.5929867 -0.0025473192    65.561019    64.898236    64.607647    51998.033 
25120000    -200835.1    1.6046361 7.1104424e-05    65.302641    64.841602    64.828661     52011.03 
25125000   -200833.31    1.6086682 0.0004079006    65.391445    64.864191    64.761972    52024.035 
25130000   -200607.77    1.6401651 -0.00011357256     65.49138    65.123566    64.811266    52037.175 
25135000   -200825.65    1.6207514 0.0038512283    65.244227    65.031257    64.522647    52050.256 
25140000   -200882.52    1.6838471 0.00034982559    64.967983    65.105815    64.803071    52063.301 
25145000   -200672.99    1.5597338 -0.0013634041    65.487187    64.808185    64.855218    52076.331 
25150000   -200648.33    1.5778962 -0.0011018902    65.277755    64.891674     64.94559    52089.384 
25155000   -200768.45    1.5919493 -0.0041842754     65.12695    65.183166     64.96668      52102.4 
25160000   -200825.71     1.627976 -0.0032757472    65.263064    65.042236    64.988483    52115.525 
25165000   -200715.61    1.6158846 0.0018804874    65.193712    65.105225    64.838161    52128.582 
25170000   -200731.27     1.620559 0.0039603616    65.052281    65.025989    64.854609      52141.6 
25175000   -200875.01    1.6054246 7.5714487e-05    64.875079    65.102495     65.32848    52154.629 
25180000   -200941.77    1.5744979 -0.0010522026    65.264268    64.775627    65.120481    52167.646 
25185000   -200957.88    1.6096264 0.0031335285    65.321606    65.058913    64.628976     52180.74 
25190000   -201086.11    1.6058821 0.0025215688    65.070334    65.308892    64.622056    52193.816 
25195000   -201043.78     1.641583 0.0010532187     65.28438    64.931521    64.655874    52206.849 
25200000   -200989.89    1.5990096 0.0024980156    65.172015    64.776577    64.785266    52219.937 
25205000   -200860.77    1.6076283 0.0016617708     65.00854    64.689225    65.048053    52233.008 
25210000   -200948.11    1.6210759 -0.00096951314    65.191052    64.545263    64.982544    52246.047 
25215000   -200885.18    1.5939803 -0.0028372427    65.097699    64.904056    64.683845     52259.14 
25220000   -200996.84    1.6050267 -0.0010878627    65.036806    64.997484    64.396955    52272.231 
25225000   -201129.94    1.5480915 -0.0014871444    64.900925    64.938129    64.384218    52285.276 
25230000   -200987.76     1.615243 -0.0011692797    64.943636    64.844581    64.701919    52298.378 
25235000   -200890.67    1.5670508 0.0020409033    64.950123    64.793094    64.687001    52311.454 
25240000    -200917.8     1.572265 -0.00068095762    64.815884    64.984921    64.633784    52324.532 
25245000   -200953.82    1.6025954 0.0025981193    64.840279    64.997755    64.570087    52337.625 
25250000   -200858.89    1.6088485  0.002799992    64.818698    64.921308    64.767207    52350.761 
25255000   -200962.89    1.5706274 0.0036732443    64.857862    64.942423    64.600702    52363.853 
25260000   -200968.88    1.5401061 -0.0016188388    64.886683    65.106577    64.598365    52376.911 
25265000   -201035.58    1.6117731 -0.00019977656    64.895824    64.640364     64.83981    52390.023 
25270000   -201130.15     1.578624 -0.0027426269    64.923582    64.676028    64.727586    52403.112 
25275000   -200899.86    1.5616699 -0.0026057532    65.128351    64.810061    64.713571     52416.17 
25280000    -200782.7    1.5968744 -0.0075064206    64.935134     64.97424    64.994071    52429.262 
25285000   -200925.44    1.6309953 -0.0032415721    64.741118    65.124003    64.664462      52442.3 
25290000   -200807.79    1.6043518 -0.0036165544    65.207131    64.696077    64.793422    52455.371 
25295000    -200859.6    1.5690633 -0.0048293853    65.060819    64.819885    64.754786     52468.45 
25300000   -201013.13    1.6061479 -0.00018764075    65.334015    64.846404     64.40785    52481.563 
25305000   -200953.83    1.5598161 -0.00086802007    65.198364    64.717046    64.640654    52494.678 
25310000   -200910.79    1.5782452 -0.0018468374     65.17221    64.739167    64.607868    52507.719 
25315000   -201081.51    1.5805838 0.0013182761    65.265348    64.714825    64.334893    52520.828 
25320000   -201035.44    1.6128348 -0.0028718096    65.058351    64.858176    64.586247    52533.928 
25325000   -201090.22    1.5935394 0.0015494202    64.748447    64.778396    64.776015    52546.959 
25330000   -200732.83    1.6385978 0.0011814081    65.100686    65.015261    64.482933    52560.038 
25335000   -200825.25    1.5874936 -0.0025927303    65.258485     64.86937      64.5231    52573.112 
25340000   -200846.59    1.6012029 -1.0113249e-05    65.534046    64.730854    64.164684    52586.181 
25345000   -200879.95    1.5739531 -0.0022742583     65.29935    64.679492    64.594456    52599.256 
25350000    -201021.9    1.5890343 0.0014189358    65.290606    64.727609    64.594145    52612.349 
25355000    -200886.1    1.6039109 -0.0025637303    65.044253    64.827995    64.967717    52625.443 
25360000   -201009.38    1.5646761 0.0033442658    65.174081     64.57877    64.743645    52638.483 
25365000   -201035.92    1.5666074 0.0014866438    65.403313    64.637518    64.523231    52651.525 
25370000   -200748.96    1.6072598 0.00044876868    65.645125    64.836937    64.419089    52664.609 
25375000   -200830.68    1.5890192 0.0010747254    65.342642    64.986635    64.725146    52677.676 
25380000   -200915.19    1.6297506 0.0015748262    65.441349    64.859273    64.683864    52690.718 
25385000   -200887.16    1.6473541 -0.00040638614     65.30033    64.971655    64.943077     52703.78 
25390000   -200770.02    1.6117445   0.00147137    65.638255    64.768464    64.783637    52716.835 
25395000   -200756.77     1.573406 -0.0032514606    65.575511     64.83584    65.102099    52729.867 
25400000   -200871.22    1.6120048 -0.0015629493    65.304552    65.071102    65.054217     52742.91 
25405000   -200871.38    1.6460764 -0.0013422382    65.565011    65.197463    64.568932    52755.933 
25410000   -200938.91    1.5731406 0.0014473452    65.237514    64.799325    64.980117    52768.969 
25415000   -201006.46    1.6307429 -0.0022464518     65.62681    64.480499     64.77891     52781.99 
25420000   -200950.48    1.6241634 0.0032693803    65.613162    64.651639    64.618656    52795.065 
25425000   -200784.05    1.6411007 0.0014829093    65.548556    64.681959     64.91587    52808.144 
25430000   -200869.84    1.5974767 0.0045917059     65.17665    64.984804    64.844732    52821.234 
25435000    -200906.8    1.6102507  0.001673902    65.210494     65.03131    64.906612    52834.306 
25440000   -200783.79    1.5526249 -0.0022088774    65.489937    65.071255    64.864107    52847.369 
25445000   -200824.03    1.6421491 -0.0055096333    65.432609    65.253863    65.021818    52860.396 
25450000   -200928.64    1.6120805 0.0044434476    65.419773    64.734208    65.118497    52873.402 
25455000    -200996.4    1.5420983 0.0071647826    65.136205    64.812803     64.91616    52886.425 
25460000      -200903    1.6283162 0.0049455016    65.460698    64.833311    64.923512    52899.481 
25465000   -200822.96    1.6091566 0.0027618134    65.724745    64.770723    64.734782    52912.495 
25470000    -200953.6    1.5913171 0.00012712047    65.506248    65.034672    64.860787    52925.528 
25475000   -200797.42    1.5966458 -0.00077990999    65.620559    65.305518    64.821337    52938.521 
25480000   -200870.52    1.6277407 0.0014175747    65.253489    64.874601    65.172713    52951.548 
25485000   -200807.37    1.5600593 -0.00040357228    65.454177    64.969941    65.147941    52964.594 
25490000   -200714.65    1.5990884  0.002433977       65.677    64.875525    64.969631    52977.608 
25495000   -201004.81     1.634349 0.0028792453    65.245037    65.079227    65.058055    52990.678 
25500000   -200861.22    1.6119143 0.0034308301     65.15457    65.003661    65.321141      53003.7 
25505000   -200816.15    1.6141012 -0.0032535557    65.462232    64.995433    65.311332    53016.707 
25510000   -200745.79    1.6023149 -0.0042464406    65.135474    65.103193    65.690285    53029.732 
25515000    -200843.9    1.5680598 -8.0784369e-06    64.893919    65.313958    65.444354    53042.751 
25520000   -200858.53    1.6692891 -0.0015465378    65.225282    65.035087    65.335911    53055.801 
25525000   -200729.32    1.5445575 0.00090452678    65.099786    65.015827    65.277814    53068.857 
25530000   -200763.13     1.623288 0.00015506817    64.944092    65.107838    65.695601    53081.869 
25535000   -200657.51    1.5879295 -0.00046228111    65.281262     65.07351    65.372215    53094.889 
25540000   -200964.18    1.6067225 0.00091258619    65.138212    65.043764    65.304354    53107.913 
25545000   -200870.38    1.5988115 -0.00027114858    64.947687    65.160167     65.45606    53120.953 
25550000   -200979.83    1.5878808 -0.0036684647    65.202281    65.123855    65.224211    53133.986 
25555000   -200953.65    1.5819572 -0.0024319264    64.761128    65.157248    65.644426    53147.015 
25560000   -200839.85    1.5693505 0.0010189191     64.64758    64.895823    65.980588    53160.037 
25565000   -200988.05    1.5724391 -0.0013954051      64.9466    64.814938    65.645872    53173.042 
25570000   -200951.46    1.5871809 -0.0040464105    65.066957    65.012172    65.375151    53186.003 
25575000   -200945.09    1.6224026 0.0034415243    65.288039    64.831081    65.052758     53199.03 
25580000   -200816.26    1.6485927 0.0013347112    65.526637    64.737988    64.993915    53212.105 
25585000   -200930.36    1.5461691 -0.0017843324    65.233093    65.157851     64.89001    53225.132 
25590000   -200800.98    1.5975211 0.0020713894    65.137325    64.985622    65.204197    53238.173 
25595000   -200825.08    1.6288913 0.0016546142    65.513245     64.63373    65.252475    53251.184 
25600000   -200851.22    1.6198412 -0.0038218983    65.262613    65.141712    65.236906    53264.232 
25605000   -200991.01    1.6399816 0.0079384382    64.754314    64.868411    65.140053    53277.234 
25610000   -200998.38    1.6096325 0.0049600454    65.030615    65.101301    64.887168    53290.239 
25615000   -200995.27    1.5595813 0.0053848996    64.916359    65.185891    64.576885     53303.26 
25620000   -200903.44    1.6065914 0.0046314889    64.839246    64.842808    65.169005    53316.264 
25625000   -200869.35    1.5865363 0.00096422429    65.152094    64.682006    65.098036    53329.276 
25630000   -200954.25    1.5761809 0.0010654127    64.748525    64.822201    65.057239    53342.299 
25635000   -200848.97    1.6178986 0.0024074217    64.710158     65.22567    65.073175    53355.344 
25640000   -200907.66    1.6043516 -0.004868991    65.179174    65.083332    64.907524    53368.448 
25645000   -200812.82    1.5942009 -0.00062759846    64.990301    65.151897    64.965581    53381.516 
25650000   -200721.05    1.5395215 0.00021115647    64.967763    65.338338    64.890248    53394.597 
25655000   -200711.13    1.5762563 -0.0030043639    65.116699    65.276508     64.88281    53407.719 
25660000   -200813.44    1.6053646 -0.00028323853    64.849607    65.357962    64.925189    53420.802 
25665000   -200714.82    1.5799798 0.0032819544    64.768116    65.206977    65.006766    53433.822 
25670000   -200795.46    1.6196502 -0.00079232595     65.06954    65.075441    65.087725    53446.861 
25675000   -200780.48    1.5719709 -0.002865943    64.771138    65.676643    65.052179    53459.876 
25680000   -200800.35    1.5990049 0.0036565837     65.22937    65.008579    64.955892    53472.859 
25685000   -200844.45    1.5715764 0.0010255539    65.131523    65.239871    64.807634    53485.891 
25690000   -200825.84    1.6464162 0.0026528405    65.223958    65.056554    64.727174    53498.929 
25695000    -200850.7    1.5721456 0.0029944905    64.996631    65.043996    64.924858    53511.952 
25700000   -200820.58    1.6686559 0.0016881896    64.959575    65.154525    64.947521    53525.004 
25705000   -200995.54    1.6020122 -0.0015813588    65.057014    65.033236    65.105424    53538.059 
25710000    -200958.7     1.644721 0.0013122762    65.211041    64.851813    65.098747    53551.085 
25715000   -200651.45    1.6052997 0.0010567609    65.045566     65.17358    65.075502    53564.103 
25720000   -200727.95    1.5710274 -0.0012979748    65.464359    64.932017    65.216206    53577.147 
25725000    -200776.2    1.5846362 0.00051902735    65.695412    64.534349    65.087013    53590.232 
25730000   -200808.34    1.6185936 0.0069536819    65.111195     64.77862    64.984034    53603.298 
25735000   -200670.35    1.6159666 -0.0041841433    65.323406    65.278787    65.041372    53616.351 
25740000   -200758.63    1.6295172 -0.0062205903    65.602914     64.88825    64.983881    53629.366 
25745000   -200569.07    1.6235072 -0.0057062658     65.63972     65.18114    64.904271    53642.356 
25750000   -200678.57    1.5981713 -0.0044512789    65.645443    65.339717    64.596494    53655.363 
25755000   -200707.25    1.5525483 -0.0026808107    65.470338    65.194484     64.77412    53668.346 
25760000   -200747.94    1.6145513 -0.00045535809    65.554065    65.072646    64.908926     53681.32 
25765000   -200765.85    1.5827171  0.002129865    65.496989    65.138412    64.804457    53694.367 
25770000   -200729.76    1.5718447 -0.00026682603    65.330805     65.22211    65.032385    53707.417 
25775000   -200720.68    1.5661804 -0.0026606679    65.393167    65.086085    64.989487    53720.475 
25780000   -200681.25    1.5269594 0.00013702638    65.398002    64.646545    65.217265     53733.48 
25785000   -200761.73    1.5579918 -0.0015690714    65.205126     64.85767    65.234492    53746.474 
25790000   -200836.89    1.5890472 -0.0034632699    65.095192    64.959342    65.035324    53759.465 
25795000   -200908.79    1.6068272 0.0017486524    65.338111    64.817817    64.872533    53772.493 
25800000   -200967.93    1.6226117 -0.00071792879    65.154002    64.894676    64.804288    53785.496 
25805000   -200707.67    1.6029321 -0.0041667578    65.178812    65.088017    64.914234    53798.574 
25810000   -200889.23    1.6130093 -0.0067886879     65.30437     64.87799    65.077583    53811.616 
25815000   -200813.75     1.606078 -0.0046636036     65.28307    64.982259    65.085332    53824.633 
25820000   -200939.43     1.602049 -0.0044577569    65.299852    64.804994    64.827236    53837.746 
25825000   -200860.61     1.583319 -2.0204552e-05    65.366286    64.620533    64.726295    53850.786 
25830000   -200823.54    1.5903103 0.00015764893    65.413187    64.661307    64.805443    53863.852 
25835000   -200924.36    1.6144832 0.00011025891    65.425152    64.538817    65.120055    53876.869 
25840000   -200912.22     1.627246 0.00061518305    65.510909     64.79183    64.701118    53889.844 
25845000   -200926.99    1.6283386 0.00065831757    65.324903    65.027377    64.641584    53902.896 
25850000   -200903.82    1.5914719 4.4350872e-05    65.300668    64.684955    65.126361    53915.947 
25855000   -200995.33    1.6347331 5.2078793e-06    65.258647    64.996204    64.712595    53929.002 
25860000   -200944.24    1.6203415  0.001755289     65.26208    65.039762    64.927456    53942.057 
25865000   -201067.88    1.5545911 0.0017015832    65.200835    65.038094    65.004697    53955.133 
25870000   -200993.71    1.6089335 0.0018913292    65.177127    65.140059    64.670106    53968.238 
25875000   -200840.95    1.5946951 0.0015147166    65.053931    65.018558    64.944608    53981.265 
25880000   -200818.05    1.6566099 0.0020965271    65.052322     65.24149    64.714318    53994.325 
25885000   -200840.64    1.5713677 0.0012621758     65.26601    65.032588    64.755642    54007.379 
25890000   -200764.73    1.5676381 0.0015519532    65.030449    65.274564      64.7922    54020.404 
25895000   -200823.99    1.5946245 0.0012294862     64.74635    65.241295    65.088183    54033.428 
25900000   -200814.03     1.658726 0.0047086501    64.655557    65.372287    64.746585    54046.478 
25905000    -200869.2    1.6167745 0.0055007958    64.930091    64.963451    64.673143    54059.545 
25910000   -200960.59    1.5887407 0.0075052656    64.953071    64.889727    64.833178    54072.555 
25915000   -200805.61    1.5725706 -0.0037811815    65.231329    64.955521    65.183098    54085.561 
25920000   -200915.58    1.5768594 0.00022281378    65.110539    65.057178    64.960988    54098.643 
25925000   -200852.89    1.5884345 -0.00041924012    64.926811    65.246471    64.891341     54111.76 
25930000   -200988.83    1.5990248 -0.0027236386    64.984822    65.229131     64.98088    54124.879 
25935000   -200931.58    1.6112372 -0.00091224374    65.064314    64.929161    65.188489    54137.954 
25940000   -200885.49    1.5999952 0.0049623385    65.046244    65.014763    64.882195    54150.934 
25945000   -200989.17    1.6137776 0.0013764553    64.910381    65.311281    64.924937    54163.918 
25950000    -200866.8    1.6258613 -0.00052677354    65.193355    65.127944    65.019292    54176.965 
25955000   -200808.74    1.6236374 -0.0024111858    65.266172    65.202417    65.160459    54190.011 
25960000   -200847.64    1.6135617 -0.00033070181     65.13827    65.462497    65.080231    54203.084 
25965000   -200756.11    1.6328629 -0.0035188501    65.243111    65.305054    65.177204    54216.092 
25970000   -200888.93    1.5626915 -0.0044429983    65.417266    65.266844    65.022333    54229.075 
25975000   -200838.59    1.6020458 -0.0010257078    65.221967    65.050974    65.180208    54242.091 
25980000   -200806.13      1.60448 0.0014346078     65.24456    65.150253     65.08263    54255.134 
25985000   -200856.08    1.6301929 0.00077587578    65.031259    65.358839    65.041092    54268.196 
25990000   -200861.87    1.6214903 0.0017904377    65.041578    65.569385    64.843297     54281.25 
25995000   -200769.21    1.5746452 0.0019725973    65.471115    65.374375    64.744319    54294.296 
26000000   -200854.17    1.5782776 0.00061253445    65.283281     65.24772    64.933546    54307.367 
26005000   -200758.14    1.5495665 0.00020442596    64.943617    65.357464    65.263948    54320.427 
26010000   -200885.88     1.605283 -0.0019874799    65.330816    65.045848    65.068225    54333.501 
26015000   -200983.42    1.6706862 0.0033306886    65.386202    64.848915    65.021583    54346.557 
26020000   -200896.84    1.6359723 0.0030759997     65.46293    64.920313     64.83156    54359.583 
26025000   -200930.05     1.616329 -0.0036895362    65.387039    65.129063     65.01123    54372.595 
26030000   -200926.95    1.5890447 -0.002222368    64.995812    65.281684    65.191258    54385.562 
26035000   -200949.58    1.5822505 0.00047815506     64.98216    65.184403    65.069093    54398.613 
26040000   -200717.26    1.5878336 -0.00028526964    65.321849    65.022749    65.078608    54411.683 
26045000   -200783.86    1.5878124 -0.0027763277    64.953931    65.263078    65.097417    54424.739 
26050000   -200870.63    1.6017949 0.0023310394    65.067441     64.98083    65.109552    54437.744 
26055000   -200677.92    1.6002442 0.0010871376    64.773889      65.4139    64.967189    54450.796 
26060000    -200708.4    1.5727125 -0.001702459    64.727504     65.39316    65.067694    54463.921 
26065000   -200795.67    1.5970542 -0.0033230523    64.773908    65.356284    64.888338    54476.949 
26070000   -200797.83    1.6719208 0.00043780387    64.806066    65.297686    65.021345    54489.967 
26075000   -200996.31    1.5767842 -0.0017919798    64.701263    65.313758    65.162568     54503.03 
26080000   -201024.82    1.5912844 0.00044448209    64.428805    65.324116    64.833812    54516.082 
26085000   -200983.96    1.6538161 0.0028750353    64.505932    65.386029    64.807059    54529.133 
26090000   -200951.37    1.5979228  0.006492095    64.445674    65.342275    64.649479    54542.202 
26095000   -200930.94    1.6437163 0.0018506345     64.41745    65.491131    64.824606    54555.244 
26100000   -200937.12    1.5657145 0.00086546077    64.233687    65.344215    65.048741    54568.398 
26105000   -201058.71    1.6176733 -0.00050968484    64.793845    65.014258    64.703161    54581.478 
26110000   -200890.76    1.6279591 -0.00028824638    64.500755    64.898903    65.114021    54594.596 
26115000   -200769.19    1.6034538 0.0044076345    64.469562    64.903403    64.889736    54607.686 
26120000    -200794.2    1.6093664 0.0031386755    64.461725     65.03623    64.782397    54620.794 
26125000   -200677.68     1.586599 0.0031248591    64.471196    65.023365    64.853219    54633.944 
26130000   -200889.25     1.580958 0.0032791967     64.39489    65.176768    64.858217    54647.047 
26135000   -200847.72    1.6019589 0.00040361813    64.523408    65.061945    64.986275    54660.167 
26140000   -200892.18    1.5919434 -0.0034192295    64.540421    64.986152    65.155421    54673.242 
26145000   -200836.71    1.5684517 -0.0052036983    64.798934    65.041527    65.148622    54686.391 
26150000   -200911.91     1.580394 -0.001395978    64.737668    65.081071     64.78121     54699.49 
26155000   -200761.89    1.6028284 -0.0011631796    64.947541     65.20206     64.54281    54712.627 
26160000   -200755.38    1.6558932 0.00062306678    64.960518     64.92232    64.649758     54725.76 
26165000   -200684.64    1.6153153 0.0041053861    64.673486    64.916742    64.825516    54738.871 
26170000   -200764.89    1.5934018 0.0036947154    64.887562    64.878771    64.785161    54751.949 
26175000   -200974.75    1.6220549 -0.0038868468    64.926523    65.015341    64.946987    54765.079 
26180000   -200797.84    1.5850392 -0.0012936162    64.877598    65.278193    64.728914    54778.165 
26185000   -200955.28    1.6367263 -0.00062096981    64.849811    65.125104     64.84281    54791.228 
26190000   -200942.37    1.5763507 -0.00059467375    64.555482      65.2348    64.810335    54804.325 
26195000   -200952.76    1.6126269 0.00029913319    64.558922    64.884931    65.230494     54817.46 
26200000   -200882.99    1.6057568 0.0012144281    64.890545    64.949673    64.771532    54830.523 
26205000   -200797.97    1.5858462 -0.0006443661    64.763633    64.932342    65.084384    54843.596 
26210000   -200797.19    1.5649621 -0.0024851467    65.008693    65.139353    64.984611    54856.632 
26215000   -200958.76    1.6261248 -0.0010556317    65.233081    65.238989    64.807221    54869.704 
26220000   -201024.36    1.5627882 0.00025410809    65.216813    65.137858    64.771734    54882.796 
26225000   -200912.85    1.6389656 0.0013108026    65.073983    65.219398    64.639354    54895.933 
26230000   -200732.82      1.61333 0.0012347424     64.96921    65.249829    64.816081    54909.013 
26235000   -200722.98    1.5832824 0.00092881837    65.160949    65.141679     64.64437    54922.093 
26240000   -200717.13    1.6062982 0.00086682092    65.069437     65.24199    64.748888     54935.16 
26245000   -200694.34    1.6370649 0.0047736135    65.176503    65.291799    64.527035    54948.185 
26250000   -200649.43    1.6291394 -0.0012334962    65.112748    65.070899    65.060416    54961.261 
26255000   -200722.24    1.6010915 -0.0018553866    65.437291     64.63565    65.200204    54974.303 
26260000    -200631.2    1.5902771 -0.0043997377    65.460304    64.783055    65.165513    54987.324 
26265000   -200588.51    1.5962501 -0.00061792994    65.212118    64.811575    64.937674    55000.397 
26270000   -200838.91     1.576879 0.0029976329     64.99373    64.317847    65.200593    55013.517 
26275000   -200909.56     1.628648 0.00031759146    64.935855    64.661236     65.02159    55026.587 
26280000   -200882.91     1.611359 -0.00089360126    65.369113    64.597068    64.755534    55039.711 
26285000   -200977.06     1.569071 -0.0010890238    65.097367    64.645555    64.848717    55052.809 
26290000   -200811.92    1.6122327 -0.0056224482     65.05176    64.674071    65.288341    55065.901 
26295000   -200607.37    1.6176875 -0.00094446695    64.687079    64.592104    65.277657    55078.942 
26300000   -200809.73    1.5950669 -9.3430316e-05    64.743201    64.579493    65.104185    55092.064 
26305000   -200920.06    1.5480818 -0.0049696719    65.103933    64.476167    65.006982    55105.156 
26310000   -200857.35    1.6617319 -0.0019484715       65.062    64.445682    65.027397    55118.235 
26315000   -201012.73    1.5682687 0.0034748897    64.679646    64.607278     64.77686    55131.371 
26320000   -200803.89    1.5843542  0.003144813    64.615916    64.529373    65.161595    55144.568 
26325000   -200920.69     1.627524 0.0028520906    64.979946    64.502572    64.909367    55157.666 
26330000   -200936.19    1.6102219 0.0055318326    64.749772    64.399159    64.974313    55170.748 
26335000   -200922.05    1.6417984 0.0017402128    65.190483    64.574177      64.5456    55183.791 
26340000    -200789.6    1.6203338 -0.00072621785    64.992116    64.753598    64.639304    55196.892 
26345000   -200880.92    1.5775345 0.0032678704    65.111522    64.843429    64.447178    55209.977 
26350000   -200999.68    1.6266409 0.00038771433    65.086686    65.052718    64.513862    55223.056 
26355000   -200956.55     1.651688 0.0033616288    65.013377    64.879152    64.568093    55236.127 
26360000   -200894.81    1.6581387 0.0058470069     64.87818    64.728215    64.697063     55249.22 
26365000   -200941.59    1.6155351  0.002528342      64.9682    64.687893    64.643693    55262.285 
26370000   -200975.57    1.5918204 -0.0045590024    65.237655    64.901022    64.500037    55275.394 
26375000   -200896.08    1.6036607 0.0051164267     64.84445    64.652902    64.880459    55288.438 
26380000   -200956.87     1.630166 0.0039024649    65.027993    64.750627    64.760244    55301.512 
26385000   -200806.03    1.5560684 0.00039805436    65.312187    64.797912    64.792548    55314.549 
26390000    -200913.2    1.6043797 0.00061673136    65.035496    65.045038    64.713481    55327.644 
26395000    -200815.2    1.6007243 -0.0015092277    65.234994    64.963277    64.538597    55340.719 
26400000      -200849    1.6060235 -0.0022303687    65.252872    64.794534    64.816053    55353.827 
26405000   -200924.67    1.6063091 -0.00081472857    65.260843    64.610869    64.843634    55366.975 
26410000   -201029.72    1.5945156 0.0020649814    65.082252    64.860929    64.636966    55380.028 
26415000   -200978.22    1.5690106 -0.0027670206    65.268176    65.055159    64.798499     55393.15 
26420000   -200853.15    1.5944167 -0.0013913748    65.290006     64.69784    65.048712    55406.185 
26425000   -200981.65    1.5687327 -0.0033935818    65.293907    64.676021    64.972955    55419.262 
26430000   -201116.62    1.6319218 -0.0016293621    64.882674    64.856537    65.055062    55432.342 
26435000   -200943.67    1.6450645 0.0016365362     65.14329    64.711685    65.050699    55445.432 
26440000   -200991.64    1.6048196 0.00054285573    65.282925    64.843925    64.707137    55458.501 
26445000    -200855.5    1.5523614 -0.001816374    65.451507     64.73455     64.99406    55471.578 
26450000   -200762.14    1.6090056 0.00054086291    65.407298    64.759831     65.14402    55484.612 
26455000   -200801.21    1.5940151 0.0013332696    65.269775    65.092216    64.833982    55497.684 
26460000   -200752.62    1.5647012 -0.0043881993    65.385846    64.932092    65.040305    55510.714 
26465000   -200766.92    1.5970438 -0.002141991    65.030031    65.135176    65.398961    55523.813 
26470000   -200799.36    1.5889007 -0.0045274297    65.153137    65.408534     65.13464    55536.838 
26475000   -200891.03    1.6503423 0.00045307185    65.606192     65.02556    64.726027    55549.844 
26480000   -200867.98    1.5674265 -0.0019199453    65.074924    65.151376    65.079942     55562.88 
26485000   -200900.84    1.5658541 -0.0072459368    64.873453    65.227698    65.417656    55575.902 
26490000   -200824.95    1.5911882 -0.0011006056    64.925212    65.208793    65.052223    55588.996 
26495000   -201034.64     1.597008 0.00086559252    65.229778    64.821939    64.939868    55602.046 
26500000   -200903.85    1.6266016 -0.0058885249    64.849425    65.216705    65.487487    55615.142 
26505000   -200814.52    1.6307345 -0.001366379    64.864938    65.229944      65.3575    55628.199 
26510000   -200996.65    1.6141141 0.0019905773    65.203192    64.966917    64.942802    55641.239 
26515000   -200767.13    1.6044015 -0.00080746538    65.385671    64.893362    64.962752    55654.274 
26520000   -200701.06    1.6060138 -0.0022061152    65.037378    65.128287    65.284134    55667.342 
26525000   -200895.29    1.5504452 0.00048265813     65.18384    64.683397    65.193878    55680.409 
26530000   -201012.19    1.5661606 0.0025687917    65.257179    64.378867    65.243277    55693.481 
26535000   -201137.88    1.5819297 0.0034401432    65.367955    64.394733    65.065545    55706.504 
26540000   -201107.62    1.5983484 -0.00010923963    65.007766    64.968416    65.090957    55719.578 
26545000   -200826.16    1.6208576 -0.0064493703    65.567304    64.903062    64.998741    55732.593 
26550000   -200957.26    1.6353579 -0.0032839819    65.350392    64.745534     64.85581     55745.64 
26555000   -200996.88    1.5879741 -0.0026970219    64.930684    64.892138    65.108164    55758.748 
26560000   -201084.17    1.6391715 0.0052160039    64.962391     64.77246    64.677912    55771.857 
26565000   -200982.22    1.6041331 0.0014779354    65.493585    64.742701    64.304959    55784.994 
26570000   -201099.83    1.5866059 0.0035168942    65.184789     64.95066    64.322403    55798.127 
26575000    -200963.6    1.6264251 -0.00085816507    65.047569    65.080156    64.551717    55811.238 
26580000   -200944.89    1.6213465 -0.00038330721    64.715351    65.108695    64.811259    55824.333 
26585000    -201057.1    1.6370895 0.0012030562    65.134038    64.924535      64.5629    55837.386 
26590000    -201168.7    1.5353374 2.4065927e-05    64.838533    64.857096     64.72936     55850.41 
26595000   -201139.11    1.6331971 -0.00069420885    64.753455    65.292191    64.702245    55863.442 
26600000   -200986.49     1.604063 -0.0018397911    65.193505    64.907872    64.757107    55876.509 
26605000   -201008.02    1.6406397 -0.0005330438    65.254629    64.657966    65.001746    55889.566 
26610000   -200936.82    1.6152917 -0.0014207539    65.181529     64.89698    64.928709    55902.673 
26615000   -200920.07    1.5868776 -0.0028406352    65.086024     64.98547     64.96126    55915.733 
26620000   -200854.24    1.6121753 0.00093452665    65.419454    64.663117    65.056157     55928.77 
26625000   -201040.58    1.5802761 0.0036726234     65.30758    64.791931    64.697592    55941.839 
26630000   -201041.28    1.5613066 -0.0054093515    65.145148    64.929739     65.08278    55954.913 
26635000   -201012.37    1.6431683 -0.0030379967    65.358502    64.985062    65.014711    55967.966 
26640000   -200893.84    1.5639784 0.0017921057    65.521153    64.791628    64.694266    55981.042 
26645000   -200869.36    1.5851583 -0.0014656483    65.318251    64.913449    64.779922     55994.06 
26650000   -200998.68    1.6394513 -0.0038031394    65.212621    64.830598    65.135539    56007.127 
26655000   -200824.17    1.5779132 0.00033101509    65.342723    64.824737    64.827584    56020.124 
26660000   -200851.63    1.5676826 -0.0018369561    65.200914    65.231533    64.586723    56033.245 
26665000   -200791.14    1.5641174 -0.0022206518    65.409116     65.02016    64.660146    56046.342 
26670000   -200809.89    1.5831298 0.0011750839    64.886177     65.43705    64.425036    56059.436 
26675000   -200846.02    1.6202312 -0.0044346628    64.977231    65.044926      65.0551     56072.49 
26680000   -200890.82    1.5626818 -0.0026561882    65.194296    65.086522    64.714563    56085.566 
26685000   -200776.12    1.5972923 -0.0017381347    65.372683    64.918575    64.622287    56098.609 
26690000   -200712.36    1.5740495 0.00035137736    65.068308    64.949493    64.857157    56111.755 
26695000   -200728.18     1.609992 0.0020174094    65.308773    64.538597    64.764636    56124.889 
26700000   -200796.44    1.5734345 -0.0027239495     65.22992     64.70717    64.950487    56137.997 
26705000   -200662.13    1.5769853 -0.0046002024    65.475321    65.140382    64.611958    56151.077 
26710000   -200600.71    1.6118879 -0.00012917562    65.269972    64.901437     64.75896    56164.105 
26715000    -200797.4    1.5420591 -0.0011155273    65.645425    64.820515    64.487936    56177.208 
26720000    -200833.8    1.6301423 -0.0010098069     65.45196    65.022244    64.496424    56190.311 
26725000   -200731.95    1.6047134 -0.00010704137    65.282398    64.955629    64.645351    56203.456 
26730000   -200803.25    1.6102437 0.0035518626    65.297314    64.948295    64.555734    56216.543 
26735000    -200795.7    1.6094936 0.0053758541    65.334538    64.935758    64.570152    56229.615 
26740000   -200631.16    1.6115425 0.0003560404    65.558188     64.58587    65.125284    56242.672 
26745000   -200840.05    1.5897175 0.0017552017    64.959756    64.891196    65.037722    56255.693 
26750000   -200715.06    1.6188108 0.0015121716    65.175994    64.993566    64.808477    56268.792 
26755000   -200773.53    1.6194291 -0.0037335401    65.331947    64.934029    64.890511    56281.831 
26760000   -200694.18    1.6053779 -0.0041204017    65.239679    65.152034    64.859671    56294.833 
26765000   -200687.38     1.624625 0.0017244046    65.179204    65.316511    64.620926    56307.915 
26770000    -200630.5    1.6335268 0.0031749494    65.297512    65.432557    64.568978    56320.901 
26775000   -200738.18     1.620472  0.001106749     65.33377    65.248999    64.720422    56333.917 
26780000    -200783.8    1.6202135 0.0039096269    65.306291    65.080693    64.791583    56346.962 
26785000   -200912.04    1.6229767 0.0017789084    65.292643    65.066432    64.811682     56360.01 
26790000   -200801.53    1.6433623 -2.1048477e-05    65.355312    64.728272     65.01963    56373.069 
26795000   -200747.02     1.643748 -0.0019438393     65.26395    64.960119    64.935942    56386.076 
26800000   -200936.15    1.6095865 0.0033649619     65.19375     64.50448    64.852941     56399.09 
26805000   -200945.06    1.5857336  0.001035649    64.989568    64.931498    64.659084    56412.099 
26810000   -200918.09    1.5977786 -0.00021998338    64.701537     65.31519     64.63473    56425.154 
26815000   -200795.28    1.5538311 -0.00060341012     64.63642    65.305029    64.651998    56438.226 
26820000   -200836.64    1.5935197 0.0062815092    64.825928    65.205622    64.311996    56451.284 
26825000   -200746.76    1.5912219 0.0047592021    64.952595    64.937515    64.694967    56464.298 
26830000   -200772.59    1.6108459 0.0024998689    64.801233    64.917083    64.832109    56477.361 
26835000   -200790.19    1.5821208 -0.00024812022    64.913504      64.9976    64.784861    56490.416 
26840000   -200751.95    1.5818654 0.00045015181    65.010463     65.18863    64.459304    56503.479 
26845000    -200798.1     1.595992 -0.0018932454    64.794126    65.452437    64.740336    56516.544 
26850000   -200835.11    1.5781106 -0.0015739694    64.976369    65.075805    64.691814    56529.627 
26855000   -200807.66    1.5988338 -0.00049828964    65.124134      64.9936    64.760651    56542.716 
26860000   -200916.06    1.5884716 -0.0012593469    65.242796    65.109782    64.423463     56555.78 
26865000   -200884.08    1.6037071  -0.00362452    65.245077    64.912679    64.681676    56568.877 
26870000   -200880.01    1.5819263 -0.0025154223    65.520857    65.011964    64.288356    56581.994 
26875000    -200805.1    1.5841828 -0.0011218775    65.321296    65.089347    64.527544    56595.039 
26880000   -200851.07    1.5738675 -0.0020628718    65.238645    64.969115    64.611266    56608.094 
26885000   -200886.99    1.5853259 -0.0023245329    65.188465    64.717091    64.842748    56621.214 
26890000   -200824.31    1.5912531 -0.003076738    64.948846    64.791586    65.066861    56634.363 
26895000   -200740.81    1.5595395 -0.0038581203    64.887828    64.827748    65.150414    56647.433 
26900000   -200774.18     1.629779 0.0030958654    64.909805    64.779638    64.862953    56660.538 
26905000   -200840.61    1.6188377 0.0024022938    64.955426    65.069753    64.868546    56673.656 
26910000   -200901.39    1.5962062 0.00043958315    64.686082    65.057999    65.206191    56686.751 
26915000   -200903.22    1.6013742 -0.0036713531    65.256957    64.825388    65.132502    56699.831 
26920000   -200762.97     1.643549 -0.00062433937    65.077009    64.954655    65.017821    56712.898 
26925000   -200812.17    1.5784177 0.00015674412    64.815715    64.820424    65.354725    56725.931 
26930000   -200874.06    1.6250813 -0.0035222279    64.859395    65.147188    65.145614    56739.009 
26935000   -200820.14    1.5914505 -0.00060388408    64.607374    65.086292    65.110258     56752.11 
26940000   -201023.68    1.6264989 -0.001253631     64.93119    65.115995    64.624732    56765.189 
26945000   -200932.28     1.577226 0.0037538681    65.025103    64.875346    64.688598    56778.268 
26950000    -201029.8    1.5715218 0.0029208915    65.240352     65.03705    64.513521    56791.349 
26955000   -200968.52    1.5769138 0.00089879014    65.025695     64.99729    64.705696    56804.391 
26960000    -200991.9    1.6216193 0.0011685046    65.174525    64.681189    65.127495    56817.407 
26965000   -200862.13    1.6267261 -0.0021473672    65.590888    64.701794    65.066105    56830.461 
26970000   -201048.69    1.5838448 -0.001705977    65.560478    64.845864    64.815254    56843.488 
26975000   -200840.24    1.6430057 -0.00018089615    65.437657    65.232982    64.800248    56856.513 
26980000   -200879.64    1.6000539 -0.0016815599    65.368855     65.15138    64.936956    56869.519 
26985000      -200849    1.6228456 -0.0060693217    65.462366     65.51845    64.786122    56882.509 
26990000   -200974.89    1.5373589 -0.0026237429    65.686495    64.929667    64.931171     56895.51 
26995000    -201004.8    1.5735024 0.0014403035    65.479124    64.792859    64.849941    56908.512 
27000000   -200924.97    1.5845976 -0.0030248617    65.311556    64.778029    65.282892    56921.536 
27005000   -200904.34     1.582913 -0.0046530688    65.197208    65.054528    65.101833    56934.572 
27010000    -200888.2    1.6206173 -0.0018632629    65.589864    64.866575     64.85074    56947.599 
27015000   -200984.75    1.6397253 0.0015843437    65.200021     64.76902     64.89833    56960.645 
27020000   -200736.22    1.5702634  0.001274759    64.966168    64.980396    65.259317    56973.657 
27025000   -200896.38    1.6743896 0.0026891585    65.056908     64.90032    64.940408    56986.725 
27030000    -200976.9    1.6088886 -0.00076061593     65.21282    64.791122    65.159324    56999.773 
27035000   -200936.97    1.6003544 -0.0014867423    65.174019    64.937573    64.986744     57012.84 
27040000   -200873.04    1.6511103 6.9437272e-05    65.331687    64.945324    64.814461     57025.89 
27045000   -201017.76    1.5772037 -0.00059095908    64.891465    65.191891    64.855667    57038.922 
27050000   -200783.36    1.6275231 0.00064500739    65.181348    65.228325     64.71457     57051.92 
27055000   -201007.03    1.6273802 -0.0013588431    65.560683    64.914739    64.755189    57064.951 
27060000    -200781.6    1.5995359 0.0013382012    65.313755    64.945331    64.750393    57078.042 
27065000   -200834.28    1.5067514 -0.00034397567    65.219325    64.851659    64.874451    57091.094 
27070000   -200632.65    1.5995324  0.002671524    65.190282    64.807987    64.975671    57104.136 
27075000   -200732.78    1.5679551 -5.5001356e-05    65.188608    64.601594    65.244511    57117.163 
27080000   -200955.62    1.5966854 0.0011168027    65.487786    64.586865    64.885587    57130.205 
27085000   -200943.18    1.6454733 -0.00013052218    65.075508     64.80345    65.221536    57143.219 
27090000   -201129.62     1.652824 -0.00088158219    65.305455    64.717944    64.876955    57156.269 
27095000    -201083.1    1.5989344 -0.0035053707    64.990579    65.164682    64.966903    57169.292 
27100000   -201114.06    1.5908087 -6.3186402e-05    64.961559    65.210319    64.805496    57182.359 
27105000   -201028.23    1.5721032  -0.00506861    64.889492    65.414245     65.18594    57195.382 
27110000   -200948.01    1.5936681 -0.0051227141    64.912768    65.524321    65.050358    57208.412 
27115000   -201025.86     1.560691 -0.0024812284    65.019141    65.345422    64.941504    57221.428 
27120000   -200943.53    1.6150093 0.0028705524    65.086305    65.019208    65.020726    57234.479 
27125000   -201179.84    1.5896574 -0.00069573948    65.309877    64.774902    64.959089    57247.514 
27130000   -200976.41    1.5520656 -0.0029000293    65.237046    64.999798    65.058957    57260.587 
27135000      -200763     1.597317 -0.0011385731    65.296086    64.834653    65.117793    57273.574 
27140000   -200926.83    1.5477255 0.0018855268    65.083208    65.111838    64.805938    57286.588 
27145000   -200904.13    1.5739371 0.0017142864      64.9561    65.205765    64.641451    57299.607 
27150000   -200967.97    1.6193962 -0.0012952157    65.268625    64.914663    64.707516    57312.641 
27155000   -200829.71    1.5710073 -0.006053824    65.049048    65.179754    65.125087    57325.721 
27160000   -200923.34    1.5922209 0.0019024526    64.955176    64.994496    65.002959    57338.758 
27165000   -200873.14    1.5703723  0.002911206    65.029588    64.788673     64.94335    57351.767 
27170000    -200838.2    1.5795856 0.0015870972    64.944132    64.779394     65.13139     57364.86 
27175000   -200962.17    1.6165126 0.0020592177     65.14019    64.475979    65.050829    57377.908 
27180000   -200871.21    1.5877231 0.0040102863    64.835827    64.864142    64.720103    57390.956 
27185000   -200892.45    1.5864697 0.0015452909    65.313994    64.654256     64.70964    57404.014 
27190000   -200738.85    1.5561089 0.00063521435    65.197946    64.622506    64.738368    57417.044 
27195000   -200762.42    1.6193713 0.0014890928    65.110358    64.533353    64.900483    57430.165 
27200000   -200830.68    1.6019718 0.0022034109    65.261594    64.418401    64.761016    57443.179 
27205000   -200904.29     1.578487 -0.00067244006    65.011833     64.68602    64.784274    57456.243 
27210000   -200847.94     1.578741 0.0015579745    64.556023    64.819331    64.821218    57469.313 
27215000   -200888.68    1.6219959 0.0011073982    64.994123    64.446266    64.842858      57482.4 
27220000    -200975.9       1.5871 -0.003821908    65.101491    64.481087    64.849219    57495.518 
27225000   -200936.94    1.6285408 -0.0042844733    64.970539    64.752555    64.727036    57508.601 
27230000    -200733.6    1.6009107 -0.0029092555    64.817065    64.819743    65.025824    57521.675 
27235000   -200942.77    1.6175385 -0.0019448479    65.150846    64.377068     64.89699    57534.759 
27240000   -200908.45    1.5889872 0.0010003911    65.105009    64.692426    64.637424    57547.888 
27245000    -200907.3    1.6117782 0.0018147624    65.230651    64.691558    64.551597    57560.955 
27250000   -200866.19    1.6184827 0.0031467513    65.450191    64.372573    64.488836    57574.092 
27255000   -200839.85    1.5635031 -0.0013739501    65.236565    64.517707    64.699429    57587.201 
27260000   -200890.05    1.5865163 -0.0011851215    64.999184    64.754872    64.712287    57600.274 
27265000   -200899.79    1.6223744 0.0032155474    64.891002    64.595256    64.688891    57613.373 
27270000   -200918.95     1.584507 0.0004622637    64.915346    64.630465    64.805792    57626.534 
27275000   -200944.97      1.61557 6.9061433e-05    65.208527    64.269647    64.929022    57639.634 
27280000   -201034.33    1.6011052 -0.0038112218    65.355954    64.496399    64.836037    57652.785 
27285000   -200788.18    1.5584294 0.0015940092    65.248028    64.415482     64.99964     57665.87 
27290000   -201011.27    1.5949009 -5.663293e-05    64.923966    64.649579    65.123013    57678.936 
27295000    -200998.1    1.5794613 -0.00024704273    65.259257    64.383232    64.786196    57692.045 
27300000   -200948.01    1.5764853 -0.0024362134    65.025294    64.385276    65.027056    57705.229 
27305000   -200941.87    1.6206103 0.0021853053    64.723308    64.605465    65.072144    57718.307 
27310000    -201069.4    1.5702191 0.0018973778    65.449764    64.235769     64.75897    57731.419 
27315000   -201234.65    1.6214261 0.0011997685    65.090024    64.425338    64.919474    57744.548 
27320000   -201046.05    1.5807433 0.0030187894    65.302096    64.332323    64.821207    57757.672 
27325000    -201177.7    1.6543087 0.0010181294    65.301484    64.437326    64.988696    57770.737 
27330000   -200882.25    1.5815448 0.00083861708    65.191577    64.665173    64.857301    57783.764 
27335000   -200702.54    1.5854034 0.00028349608     65.13037    64.650285    65.081828    57796.755 
27340000   -200575.86    1.5662621 -0.0052860388    65.517474    64.754852    64.901978    57809.804 
27345000   -200705.56    1.6407409 -0.0013595501    65.512827    64.708666    64.725562    57822.884 
27350000   -200962.46    1.5938101 0.0017651932    65.191621    64.737413    64.792146    57835.939 
27355000   -200869.25    1.6097892 -0.00032459141    65.384622    64.692547    64.832527    57849.019 
27360000    -200858.1    1.5922993    0.0103701    64.842411    64.445926    65.122001    57862.023 
27365000   -200740.98    1.5985573 5.3254397e-05    65.381031     64.74219    64.846799    57875.053 
27370000   -201019.38    1.6562152 0.0015906941    65.437881    64.721475    64.818505    57888.157 
27375000   -200844.88    1.5871872 0.0010573428    65.651216    64.714029    64.746538    57901.217 
27380000    -200790.1    1.5908255 -0.0054915144    65.697403    64.954268    64.995549    57914.223 
27385000   -200910.38    1.6148045 -0.0024319594    65.356848    64.702353    65.063361    57927.243 
27390000   -200966.84    1.5836852 0.00042338895    65.096906    64.692495    65.039978    57940.358 
27395000   -200858.85    1.5637897 0.0026996774    64.958914    65.008009    64.981268    57953.446 
27400000   -201030.65    1.6092748 0.0011251656    65.114682    64.884186    64.916924    57966.549 
27405000   -201169.61    1.6369203 0.0003283791    64.957522    64.684204    65.032305    57979.592 
27410000   -200976.06    1.6579471  -0.00166873    65.227893    64.717971    64.936859    57992.634 
27415000   -201145.96    1.6083498 -0.00019715906    64.794327    64.753055    65.097282    58005.744 
27420000   -201015.94    1.6089988 0.00072834039    65.138206    64.957091    64.978066    58018.794 
27425000   -200971.31     1.605382 0.0027922397    64.986306    64.942481     64.94181    58031.849 
27430000    -200819.7    1.5737385 0.0033125056    64.878099    64.883798    65.209855    58044.876 
27435000   -200929.06    1.6250553  0.001292189    64.923822    65.056538    65.103742    58057.925 
27440000   -200928.46    1.6311548 0.00059231099    65.037079    64.980693    65.122815    58070.973 
27445000    -201058.9    1.5921832 0.00066976435    65.002277     65.00579     64.78054    58084.058 
27450000   -200955.21    1.5997122 -0.00041181501    65.080364    64.943735    64.922819     58097.13 
27455000   -200839.75    1.6094423 0.00080779724    64.747525    65.115342    65.069722    58110.231 
27460000   -200939.61    1.6307324 -0.0010777126    64.718034    65.085803    65.103122    58123.348 
27465000    -200811.5    1.6079901 -0.0027959611    64.947344    64.868189    65.219694    58136.412 
27470000   -201023.71    1.6245028 -0.0023358369     65.01774    64.663124    65.014142    58149.474 
27475000   -201060.76    1.6064895 0.0023759368    64.841447    64.578003    65.037957    58162.504 
27480000   -200893.02    1.5718554 -0.0018156573    65.220023    64.517445    64.833458    58175.598 
27485000    -200992.2    1.6070611 -0.0019934221    64.953528    64.708481    64.989998    58188.682 
27490000   -200790.89    1.6265227 0.00043304186     64.70014    64.621004     65.46143    58201.778 
27495000   -200807.36    1.6156906 -0.0015228851    64.924387    64.920815    65.062498    58214.823 
27500000   -200808.29    1.5811962 0.0037723011    64.861442    64.595879    65.034887    58227.892 
27505000   -200761.85    1.5794496 -0.0025777143    65.027494    64.665083    65.108362    58240.977 
27510000   -200892.41    1.5876511 -0.0026024989    64.952002    64.515341    65.107032    58254.047 
27515000   -200833.33    1.6402583 -0.0028281009    65.222725    64.841674    64.894769     58267.13 
27520000   -200897.22    1.5598043 0.0022872617    64.913502    64.534593    64.906597    58280.221 
27525000   -200886.01    1.5756774 0.0019157054    64.969001    64.596686    65.062721    58293.301 
27530000   -200857.11    1.6489926 0.0005945789    65.008363    64.613586    65.071223    58306.349 
27535000   -200936.22    1.6146225 0.0059076156    64.910773    64.532135    64.827084    58319.424 
27540000   -201144.39    1.5747255 0.0044495829    65.020087    64.363291    64.792328    58332.457 
27545000   -200942.92     1.552071 0.0023989009    65.185183    64.579126    64.550255     58345.55 
27550000   -200935.64    1.5821789 -0.0010252854    65.225117    64.388184    64.961457    58358.665 
27555000   -201037.09    1.6252021 -0.00050334239     65.29855    64.719755    64.785842    58371.728 
27560000    -201112.6    1.6057904 0.0020032667     64.99809    64.741995    64.982512    58384.831 
27565000   -201006.49     1.638112  0.005796765    65.059321    64.477572    64.958076    58397.888 
27570000   -201054.25    1.6362426 0.0048528767    64.937031    64.592146    64.919014    58410.988 
27575000   -201152.84    1.5880362 0.0030949187    65.039038    64.551661    65.106348    58424.012 
27580000   -200883.53    1.5657248 0.0017918817    65.299511    64.975812    64.766783    58437.069 
27585000   -201116.86    1.5889224 0.00063806581    65.439572    64.697924    64.769549    58450.172 
27590000   -201002.58    1.5806449 0.0012713899    65.351678    64.661114    64.774662    58463.241 
27595000   -200882.55    1.5803008 0.0012677339    65.170099    64.694111    64.970077    58476.275 
27600000   -200949.27    1.6314555 0.00019791697    65.413056    64.849782    64.492471    58489.354 
27605000   -200936.89    1.5961716 -0.0037139891    65.172355     64.82276    64.826254    58502.422 
27610000   -201040.46    1.5945408 0.0022964251    65.250496    64.726454     64.51667    58515.491 
27615000   -201018.66    1.5803051 0.0045516362    65.086326    64.864965    64.517336    58528.581 
27620000   -200897.14    1.6005489 -0.0024540129    65.327642    64.804783    65.104491     58541.61 
27625000   -200931.97    1.6348157 -0.0017069386    65.240735     64.81664    64.976884    58554.701 
27630000   -201002.93    1.5826665 -0.0005218366    65.220155    64.808425    64.902025    58567.748 
27635000   -200937.86    1.6306264 0.0065980738    65.345201    64.773286    64.526936    58580.821 
27640000   -200902.76    1.6249025 0.0058582904    65.241844    64.796386    64.500091    58593.869 
27645000   -200947.04    1.6176204 0.0019338192    65.242024     64.76026    64.535197    58606.936 
27650000   -200865.84    1.5661518 -0.004192283    65.308983    64.781662      64.9411    58620.001 
27655000   -200895.09    1.5784569 -0.0043269493    65.190381     64.83713    64.937206    58633.092 
27660000    -201094.9     1.615388 -0.003350431    64.951466    65.024802    64.779024    58646.237 
27665000   -201172.38    1.6093978 0.00093739902    65.114144    64.506507    64.900944    58659.307 
27670000   -200963.68    1.6542175 -2.4630305e-05    65.113938    64.880795    64.878985      58672.4 
27675000   -200961.82    1.6475981 4.7461348e-05    64.953772    64.954479    64.847712    58685.478 
27680000   -201023.86    1.6191214 -0.001702455    64.957362    64.859907    64.972265      58698.6 
27685000   -200978.91    1.6045778 0.00065857679    65.122314     65.02509    64.641439    58711.612 
27690000   -200918.56    1.6333016 1.4429864e-06    64.862926    65.151781    65.066272    58724.668 
27695000   -200996.58      1.61149 0.0015990447    64.856849    65.028978    64.821889    58737.676 
27700000   -200972.44    1.6407692 0.0062873065    64.701095    64.913218    64.855745    58750.724 
27705000   -201113.12    1.6375403 0.0013244509    64.708911     64.65458    65.161774    58763.792 
27710000   -200978.43    1.6382585 -0.00025626153    64.817024    64.814359    64.936502    58776.938 
27715000   -201005.01    1.5615879 0.00075110155    64.733552    64.540765    65.112895    58790.004 
27720000   -201107.26    1.5211956 -0.00060477075    65.198678    64.639932     64.66116    58803.125 
27725000   -201011.38    1.6437996 0.0019416574    65.050204    64.379046    64.978299    58816.256 
27730000   -201078.68    1.5941978 0.0038423387    65.034291    64.767074    64.470299    58829.357 
27735000   -201031.34    1.6163433 0.0043466885    64.978668    64.642379    64.648438    58842.479 
27740000   -200894.04    1.5625937 0.00048982396    65.049758    64.636133    64.744202    58855.599 
27745000   -200856.32     1.616453 0.0023097712    64.991729    64.819715    64.800213    58868.687 
27750000   -200779.68    1.6108769 -0.0041053424    65.067534    64.939686    65.005204     58881.76 
27755000   -200946.54      1.63792 -0.0011299945    65.522371     64.68946    64.732217    58894.818 
27760000   -200984.74     1.631482 -0.00025032956    65.430537    64.742344    64.892108    58907.864 
27765000   -200947.95    1.6282756 -0.0024992888    65.383623     64.60516    64.943732    58920.896 
27770000   -200956.76    1.6500165 -0.00049707475    65.340572    64.778497     64.63487    58934.064 
27775000   -200770.92      1.60874 -0.0010247713    65.516246     64.84773    64.582474    58947.116 
27780000   -200877.81    1.5957517 1.1183597e-05    65.196963    64.947889     64.71727    58960.152 
27785000   -200847.67    1.6357833 -0.0026126613    65.099896     65.08647    64.883277    58973.182 
27790000   -200879.93    1.5605189 -0.0024017557    65.050534    65.000761    65.105325    58986.216 
27795000   -200859.54    1.5447148 -0.0017337242    65.349016    64.785725    64.866643    58999.246 
27800000   -200680.28    1.6023271 0.00017956746    65.538561    64.956954    64.891618    59012.277 
27805000   -200744.37    1.6339486 0.0020987124    65.349309    64.823832    64.797415    59025.292 
27810000   -200816.17    1.6287127  0.002473421    65.003841    65.006044    64.745603    59038.437 
27815000   -200759.93    1.6200665 0.0034436534    65.001022    64.931088    64.933519    59051.504 
27820000   -200860.51    1.5786981 -0.00039022889    64.961618    64.782191    64.989782    59064.506 
27825000   -200864.33    1.5652438 0.0032152174    65.116436     64.45917    65.218202    59077.587 
27830000   -200840.75    1.5713327 0.0041760126    65.105701    64.795395    64.949856    59090.682 
27835000   -200906.04    1.6562404 0.0038195679    65.016226    64.571455    65.177528    59103.794 
27840000   -200876.84    1.5632471 0.0031843912    65.241992    64.666442    64.934626    59116.856 
27845000   -200887.92    1.5985095 0.0043366031    65.224916    64.511026    64.902815      59129.9 
27850000   -200987.25      1.62292 7.8574675e-05    65.123832    64.711597    64.984595    59143.009 
27855000   -201098.32    1.5866813 -0.0002448691    64.862692    64.714335    65.170108     59156.09 
27860000   -201002.88    1.5651382 -0.0019214337    65.013569    64.649179    65.117127    59169.179 
27865000   -200869.65    1.5918739 -0.00019531652    65.319166    64.659747    64.915987    59182.243 
27870000   -201001.99    1.6546562 0.0038116054    65.227269    64.649487     64.84796    59195.265 
27875000   -201160.73    1.6107875 0.0040269867    65.094881    64.614588    64.908126    59208.354 
27880000   -201156.65    1.5907715 0.0012393953    64.721702    64.902857    65.258711    59221.423 
27885000   -200965.48    1.5505667 0.0020782729    65.056351    65.062701    64.802319    59234.414 
27890000   -200967.22    1.6369605 -0.00079464593    65.242391    65.169052    64.688179    59247.472 
27895000   -201018.95    1.5956772 0.00092343209    64.951676    64.808578    65.191922    59260.495 
27900000   -201106.17    1.5936254 -0.0027234186    64.674853    64.917567    65.299368    59273.575 
27905000   -200864.24    1.5762092 -0.0047957057    64.728613    64.828143    65.403029     59286.66 
27910000   -200816.04    1.5947183 -0.0029732478    64.710849    65.122793    65.246147    59299.763 
27915000   -200772.44     1.612492 -0.00061120373    65.158309    64.963189    64.842079    59312.874 
27920000   -200719.26    1.6121021 -0.0038529274    65.041859    65.121485    65.008068    59325.941 
27925000   -200742.74    1.5547616 -0.0010511906    65.323484    65.107856    64.722549    59338.971 
27930000   -200762.38    1.6050202 -0.0035839536    65.318287    64.969553     65.04529     59352.01 
27935000   -200696.18    1.6475989 -0.0067924468    65.617945    65.216911    65.001976    59365.032 
27940000   -200774.61    1.6060547 -0.0027191826    65.030364    65.220378    65.168817    59378.035 
27945000   -200870.43    1.6169235  -0.00209225    65.006604    64.987274    65.359958    59391.058 
27950000   -200831.77    1.5761408 -0.0068070516    65.149171    64.603747    65.588571    59404.058 
27955000   -200915.63    1.6002426 0.0079228681    64.644074    64.902351    64.988488    59417.049 
27960000   -200757.98    1.5496387 8.315452e-05    65.058663    64.953582    65.075605    59430.055 
27965000   -200870.15    1.5937523 0.0042809892     65.07285    65.038183    64.900108    59443.122 
27970000    -200916.7    1.6166756 0.0018575188    64.774768    65.024158    65.212642    59456.166 
27975000   -200756.61    1.6278686 0.0018352056    65.089173    64.745922    65.185211    59469.244 
27980000      -200875    1.6280792 -0.001656069     65.10828    64.776169    65.124522    59482.359 
27985000   -200828.69    1.5964261 5.2026362e-06     65.06802    65.107746     64.74838    59495.402 
27990000   -200900.36    1.5893224 -0.00069419911    65.046738    64.991577    64.979713    59508.495 
27995000   -200970.81    1.6480179 -0.0035003839    65.101895     64.62164    65.129067    59521.535 
28000000   -200819.49    1.5776441 -0.0015206665    64.905366    65.121051    64.877474    59534.594 
28005000   -200976.61    1.6175121 0.0019335393    64.905904    64.882995    64.810378     59547.63 
28010000   -200847.32    1.6069398 0.0013303599    64.989093    64.862918    64.898856    59560.626 
28015000   -200931.23    1.5968615 -0.0054230786    64.951653    64.655165    65.157404    59573.717 
28020000    -200903.9    1.5742465 -0.0025288563    64.789015    64.833322    65.062299    59586.746 
28025000   -200799.09    1.6254588 0.0014630956    64.730113    64.792596    65.082017    59599.814 
28030000   -200840.83    1.6120234 0.0074945272    65.051166    64.510593    64.900484     59612.85 
28035000   -200829.26    1.5723238 0.00035836214    64.982719    64.608514     65.38811    59625.864 
28040000   -200860.86    1.6243546 0.0013680299    64.834259     64.75469    65.052814    59638.926 
28045000   -200925.73    1.6016555 -0.0041561877    65.052731    64.682365    65.080696    59651.948 
28050000   -200815.93    1.5809894 -0.0041981233    64.819266    64.886319    65.108644    59665.002 
28055000   -200938.34    1.6325569 -0.0035436813    65.171816    64.770301    64.977928    59678.131 
28060000   -200869.67    1.6263488 -0.0028784381    65.288539    64.980614    64.714648    59691.204 
28065000   -200863.19    1.6385196 -0.00043106315    64.761008    65.064092    65.064966    59704.279 
28070000   -200834.83    1.6499294 -0.00036820441    65.078612    64.907539    64.964872    59717.342 
28075000   -200894.96    1.6266254  -0.00153311    64.898426    64.866233    65.385844    59730.434 
28080000   -200937.43    1.6698573 -0.00085731894    64.641344    64.939043    65.525173    59743.482 
28085000   -200835.71    1.6166536 0.00031057695     65.26364    64.851595    65.069773    59756.531 
28090000   -201002.04    1.5761919 6.4078399e-05    65.539463    64.426492    64.948549    59769.621 
28095000   -200861.57     1.598515 0.0028934481     65.13723    64.991224     64.55838    59782.701 
28100000   -200897.14    1.6042633 0.0027367576    64.874534    64.870002    64.870703    59795.765 
28105000   -200896.71    1.6208951 0.0026518714    64.853504    64.374445    65.247377    59808.804 
28110000   -200871.67    1.5758225 0.0038189057    64.772493    64.789023    64.977226    59821.884 
28115000   -200810.74    1.6197065 -0.0012722491    65.286901     64.82229    64.760614    59834.953 
28120000   -200926.42    1.5992514 0.00089270919    65.177168    64.336852     64.91371    59848.087 
28125000   -200867.57    1.6071391 -0.0050870826    65.368755    64.686683    64.661856    59861.175 
28130000   -200945.67    1.6289251 0.0012029414    65.207815    64.380348    64.816031    59874.322 
28135000    -200782.5    1.5934842 -0.0044137263    65.569239    64.814872     64.63598    59887.364 
28140000   -200975.97    1.5884562 -0.00087114286     65.30852    64.487175    64.996473    59900.438 
28145000   -200710.62    1.6239124 -0.00023291587    65.421045    64.750917    64.937242    59913.539 
28150000    -200798.6    1.5499956 -0.0045736719    65.156518    65.016358    64.926438    59926.573 
28155000   -200917.75    1.5888875 6.4436019e-05    65.300396    64.632807    64.678713    59939.632 
28160000   -200906.05    1.5591223 0.00087916449    65.254979    64.391286    64.887177    59952.678 
28165000   -200874.12    1.6179932 -0.0029455391    65.578537    64.614299    64.646204    59965.726 
28170000   -200935.84    1.6049552 -0.00080934255    65.459572    64.443015    64.669748    59978.767 
28175000   -201002.01    1.5629393 -7.4164149e-05    65.177837    64.670442    64.746515    59991.848 
28180000   -201110.57    1.5760892 -0.0017168877     65.23773    64.762068    64.745786    60004.961 
28185000   -200993.83    1.5653999 0.0010341353    65.310955    64.338192    65.227225    60018.046 
28190000   -201125.73    1.5954294 -0.0024977662     65.28676    64.612501    64.923362    60031.058 
28195000   -201054.65    1.5779849 -0.003269518     64.86249    65.018827    65.001688    60044.127 
28200000   -201019.41    1.6006258 -0.0023931078    65.287281    64.512636    65.075949    60057.222 
28205000   -201065.76    1.5859404 -0.0037876402    65.148796    64.614104      65.0835    60070.268 
28210000   -200880.45    1.5633728 -0.0031906002    64.995247    64.783626    65.040919    60083.328 
28215000   -200985.55    1.6329975 -0.0022891454    65.353037    64.595577    64.997967     60096.38 
28220000   -200758.34    1.5960993 -0.0019079232    65.226147    64.801806    65.167632    60109.451 
28225000   -200929.37    1.6148195 -0.0011018621    65.022877    64.937861    64.886235    60122.529 
28230000   -200957.05    1.6115081 -0.0039533525    64.767087     65.11931    65.197657    60135.611 
28235000   -200935.35    1.5981083 -0.0022776664    65.437951     64.53791    64.808116    60148.664 
28240000   -200830.13    1.6022555 -0.0021871183    65.388824    64.833188     64.95202    60161.734 
28245000   -200740.69    1.6182547 0.0036030285    64.958003    64.915424    65.068107    60174.807 
28250000   -200985.46    1.5556539 0.00011267914    65.062025     64.64806    65.200969    60187.877 
28255000   -200778.85    1.6033147 -0.0026128289    65.130353    64.897708    65.292974    60200.899 
28260000   -200760.27    1.5568694  0.000272211    65.422581    64.804235    64.922482    60213.964 
28265000   -200776.93    1.6279423 0.00044455016    65.214734    64.884525    64.955545    60226.974 
28270000   -200799.47    1.5513943 0.0023783578    65.034453    64.897762    64.854072    60240.079 
28275000   -200935.45    1.6051643 0.0025766166    65.159229    64.636899    64.843102    60253.195 
28280000   -200873.79    1.6119536 0.0011328587    65.116508    64.794793    64.829912    60266.279 
28285000   -200778.17    1.6027016 0.0007009737    64.877583     65.01709    64.852785    60279.358 
28290000   -200728.05    1.6581943 -9.9865717e-05    64.948316    65.020317    64.890988    60292.459 
28295000   -200735.08    1.6106513 0.0025037535    65.099391    64.870678    64.826833    60305.529 
28300000   -200663.87    1.6193404 0.0052252083    65.428335    64.367118      64.9807    60318.574 
28305000   -200870.93     1.600175 -0.0014899138    65.208305    64.814806    64.969828    60331.618 
28310000   -200879.61    1.6279877 0.0025062008    64.775676    64.984324    64.903727    60344.683 
28315000   -200942.71    1.6158533 0.0015732001    64.897858    64.945235    64.901367    60357.818 
28320000   -200883.69    1.5934319 -0.00081214283    64.987622    64.617151    65.100205    60370.893 
28325000   -200837.09    1.5966015 -0.00028043356    65.188122     64.79914    64.811489    60383.902 
28330000   -200887.33    1.6052898 0.0015972881    64.978609    65.004079    64.747441    60397.029 
28335000   -200914.71    1.6080419 -0.0011774448    64.769107    65.026298     64.97182    60410.137 
28340000   -200951.05     1.592543 0.0013538714    65.162748    64.789752    64.730426    60423.253 
28345000   -200902.43    1.6483439 0.0019301042    65.011118    64.959764    64.677192    60436.306 
28350000   -200921.15     1.574731 0.00088827567    65.295967    64.719152    64.498113    60449.428 
28355000   -200747.57    1.5723975 -0.003860572    64.979602    65.000957    64.793559    60462.459 
28360000   -200788.99     1.663421 -9.0480782e-05    65.009372    65.244055    64.501782    60475.557 
28365000   -200787.85    1.5794219 0.00082263489    64.976543    64.910823     64.62113    60488.645 
28370000   -200768.32    1.5965207 0.0014198138    65.003208    64.861105    64.678769    60501.711 
28375000   -200861.71     1.609354 -0.00042940499    65.473478     64.63069     64.50737    60514.792 
28380000   -200780.91    1.6308437 0.0017464165    65.218137    64.868251    64.569373    60527.854 
28385000   -200914.02     1.515368 0.0028253075    64.953877    64.983424    64.394149     60540.92 
28390000   -200949.31    1.6028476 0.0042122969    65.363665    64.761791     64.29588    60553.963 
28395000   -200928.28    1.6305093  0.004556864    65.172769    64.936399    64.464847    60566.979 
28400000   -200728.01    1.5845933 -0.0025947048    65.552857    65.127589    64.305656    60580.046 
28405000   -200837.82    1.6501548 -0.0020363252    65.306105    65.235459    64.425039    60593.102 
28410000   -200930.13    1.6098311 -0.0042452659    64.968253    65.496623    64.637233    60606.181 
28415000   -200967.52    1.6311156 -0.0042433281    64.996064    65.448595    64.653077    60619.238 
28420000   -200934.37    1.6171303 -0.0020886353    65.229971    65.147672    64.585648    60632.306 
28425000   -201059.66     1.589167 -0.0035354544    65.099415     65.19278    64.729639    60645.422 
28430000   -200997.78    1.5918749 -0.0060085307    65.405817    65.104028    64.702929    60658.406 
28435000   -201076.02    1.6308296 -0.0042340903     65.26805     65.14761    64.677973    60671.423 
28440000   -200918.79     1.590172 -0.0026421909    65.294601    65.136784     64.77074     60684.46 
28445000   -200894.37    1.5882627 -0.0049548881    64.785828    65.613967     64.65735    60697.537 
28450000   -200953.04    1.5673882 -0.0035639631    65.048532    65.250517    64.764162    60710.612 
28455000   -200930.19    1.5718846 -0.00090873908    65.194867    65.257759    64.570057    60723.709 
28460000   -200926.66    1.5584192 -0.00011876302    65.309239    65.001985      64.7621    60736.821 
28465000   -200906.52    1.5942265 -0.00065473746    65.199735    64.962908    64.654003    60749.896 
28470000   -200970.95    1.5944477 0.0063577181    65.121416    65.002426    64.382638    60762.959 
28475000   -200987.24    1.6459668 0.0041509737    64.972349    65.170016    64.463236    60775.984 
28480000   -200999.85    1.5882631 0.0023350604     65.13195    65.047435    64.558246    60789.062 
28485000   -200841.12    1.5511818 0.00076995466    65.182854    64.798785    65.118309    60802.119 
28490000   -200810.95    1.5909754 0.00012624326    65.078136    65.017165    64.955968    60815.212 
28495000   -200862.13     1.658892 0.0032321335    64.743934    65.171654    64.921558    60828.325 
28500000   -200924.36    1.6420856 0.00016397219    65.173782    64.883593    64.923533    60841.423 
28505000   -200891.49    1.5980056 -0.00010573976    65.198565    65.081821    64.758341    60854.456 
28510000   -200901.51    1.5865062 -0.0013731975      64.7629    65.090686    64.903275    60867.568 
28515000    -200941.4    1.6038436 -0.00022521812    65.085632    64.885016     64.99144    60880.652 
28520000   -201011.98    1.6412381 -0.0045212951    64.840905     65.17235    65.130177    60893.763 
28525000    -201008.1     1.567036 -0.0033623105     65.22742    65.130522    64.883384     60906.84 
28530000   -200765.06    1.6067767 -0.0019549667    64.824938    65.369841    65.169997    60919.948 
28535000   -200876.37    1.5785869 -0.0005642239    64.793451    65.087624    65.026436    60933.037 
28540000   -200700.47    1.6046301 0.0009207902    65.015508     65.03773    64.992463    60946.134 
28545000   -200870.57    1.6310854 0.0013654201    64.911632    64.876144    65.110666    60959.237 
28550000   -200848.48    1.5909034 0.0044243492    64.988365    64.954594    64.920177    60972.297 
28555000   -201113.36    1.6016205 -0.0010599863    65.266297    64.667735    64.965415    60985.362 
28560000   -200951.04    1.6212669 0.0001073772    65.033776    64.816067    65.168237    60998.473 
28565000    -201029.3    1.6506592 -0.00079921151    65.151644    64.812274    64.963954    61011.597 
28570000   -200997.91    1.6046339 -0.00023728712    65.203948    64.670305    65.139583    61024.668 
28575000   -200807.69    1.6054232 -0.00097099493    65.216422    65.021271    65.097382    61037.767 
28580000   -200908.14    1.6051336 -0.0021622449    65.003396     64.94102    65.150696    61050.843 
28585000   -200979.34    1.6209791 -0.0032697914    65.362981    64.779107    64.868242    61063.893 
28590000      -200747    1.6323949 -0.0022461875    65.603027    64.677012    64.799845     61076.92 
28595000   -200870.28    1.5982453 -0.005127591    65.414719    64.927162    64.872898    61089.988 
28600000   -200815.83    1.6214715 -0.00012549095    65.453529    64.770502    64.810964    61103.052 
28605000   -200793.34    1.5774454 -0.002299564    65.274418    65.269347    64.754673    61116.052 
28610000   -200975.34    1.5828466 -0.0007393207    65.213368    65.218886    64.750974    61129.049 
28615000      -200951    1.6222813 -0.0050730918    65.192467    65.258352    64.884354    61142.084 
28620000   -200694.64    1.5918709 -0.0084528722    65.399204     65.27265    64.972631    61155.098 
28625000    -200872.2    1.6016341 -0.0026972316     65.06062    65.065162    65.043081    61168.124 
28630000   -200886.39    1.5799935 0.0018006867    65.087503    64.842931     65.05227    61181.198 
28635000   -200898.34    1.6291991 -0.0021013517    65.091836    64.900529    65.015931    61194.247 
28640000   -200870.14    1.6960285 -0.0033079572    65.065859    65.096326    64.786116    61207.306 
28645000   -200916.92    1.6083364 -0.0025434658     65.01824    64.986175    64.837354    61220.379 
28650000   -200836.31    1.5605883 0.00041225939    64.936428    64.927055    64.991055    61233.489 
28655000   -200982.75    1.6074897 -0.0023706257    65.327379    64.682779    65.011273    61246.539 
28660000   -200954.78    1.6854152 -0.002427766    65.123247    64.922437    64.857262    61259.633 
28665000   -200986.31    1.5937214 -0.001061309    65.166385    64.682706    65.048964    61272.672 
28670000   -201004.18    1.5909599 0.0022824883    65.169441    64.530608    65.147496    61285.724 
28675000   -200938.14    1.6005085 0.0015314838    65.287628    64.460193    65.135816    61298.836 
28680000   -200902.59     1.578512 1.2516449e-06    65.028091    64.778834    65.126017    61311.844 
28685000   -200842.21    1.6292468 -0.0025560888    65.122441    64.830398    65.210661     61324.92 
28690000   -200820.77    1.5790547  0.001978399    65.458838    64.869321    64.832366    61337.951 
28695000   -200907.46    1.6231535 0.0025970978    65.131054    64.835943    65.064046    61351.009 
28700000   -200846.15    1.6159795 0.0049507333    65.354585    64.550636    64.962613    61364.022 
28705000   -200800.16    1.6150796 0.0044202796    64.965302    64.823714    65.272025    61377.067 
28710000   -200931.88    1.5506422 0.0019827259     65.37295    64.732655    65.065427    61390.082 
28715000    -200796.6    1.5910363 0.0022295565    65.257995    64.638699    65.237047    61403.098 
28720000   -200963.29    1.5899013 0.0050905278    65.123151    65.033054    64.663722    61416.137 
28725000    -200712.5      1.59975 0.00085948523    64.991776    65.309088     64.79681    61429.132 
28730000   -200614.93    1.6528224 0.0035861132    65.164416    64.754835      64.9374    61442.166 
28735000   -200721.43    1.6029245 0.0026715749    65.194415    64.710935    64.812584    61455.211 
28740000   -200793.45    1.5740854 0.0034524502    65.138979    64.467388    64.881889    61468.309 
28745000   -200945.93    1.6347549 -0.00034188169    65.319211    64.596275    64.735583    61481.436 
28750000   -200793.93    1.5860987 -0.0014585556    65.181486    64.901474    64.684868    61494.517 
28755000   -200636.06    1.6030756 -0.0033009164    65.360683    64.666414    64.868277    61507.592 
28760000   -200799.57    1.6627366 -0.0019283585     64.83778    64.959658    65.065083    61520.735 
28765000   -200734.42    1.6138363 -0.0067591423     65.18687      64.9549    64.965684    61533.772 
28770000   -200875.21    1.6185812 -0.0053717457     65.09765    64.936936    64.908424    61546.864 
28775000   -200728.91    1.5794485 -0.0017250029    64.865879    65.099089    64.934834    61559.903 
28780000   -201000.99    1.5906988 0.0015956122    64.797456    64.794636    64.944939    61572.961 
28785000   -200817.44    1.6200958  0.001808427    64.961637    65.032335    64.704881    61586.106 
28790000   -200711.32    1.5836023 -0.0036178074     65.05066    64.813344    64.908457    61599.214 
28795000   -200960.64    1.6026048 0.0035991648    64.969253    64.755302    64.729477    61612.302 
28800000   -200867.14    1.5916434 0.0010884094    65.114741    64.911918    64.565753    61625.306 
28805000   -201014.34    1.5968072 0.0019184571     64.94066    64.683747    64.837073    61638.326 
28810000   -201015.08    1.5655083 0.0042596163    65.138382    64.790912    64.432359    61651.407 
28815000   -200899.97    1.6072282 0.0014113642    65.349843     64.44417    64.819717    61664.459 
28820000   -201126.07    1.6414597 -0.002757052    65.098676    64.696239    64.766214    61677.547 
28825000   -201108.52     1.578868 -0.00057391208    65.005003    64.790292    64.634922    61690.629 
28830000   -200990.73    1.6507099 0.00066669309    65.186903    64.857175    64.291286    61703.688 
28835000   -200989.11    1.5643424 0.0024438484    65.005901    64.553287    64.579251    61716.806 
28840000   -200949.85    1.6159602 0.00035711107    65.400632    64.628787    64.233212    61729.887 
28845000   -200808.82    1.6269983 0.0010125112    65.295051    64.602581    64.557602    61742.936 
28850000   -200925.03    1.5726265 -0.0020300517    64.881031    64.737177    64.851549    61755.989 
28855000   -200791.29    1.6205155  0.001962572     65.06046    64.447659    64.835242    61769.084 
28860000   -200802.36    1.5614546 0.0023741762    64.864778    64.813735      64.4651    61782.148 
28865000   -200666.78    1.5810995 -0.00049304324    65.338037    64.488639    64.773888    61795.213 
28870000   -200733.42    1.5721834 -0.0017355222     65.53074    64.700763    64.459994    61808.282 
28875000   -200882.01    1.5755497 -0.0024360639    65.389293    64.747379    64.395951    61821.354 
28880000   -200903.13    1.6189459 -0.0022173206    65.083729    64.600765    64.891149    61834.404 
28885000   -200817.62    1.5958038 -0.0026760568    65.180601    64.679936    64.818247    61847.445 
28890000   -200952.56    1.6429101 0.0028032952    65.063325    64.712864    64.713869     61860.52 
28895000   -200986.34    1.6180554 0.00047601633    65.089604    64.730442    64.624025    61873.571 
28900000   -200988.94    1.6087036 -0.0051925393     65.59924    64.790953    64.368156    61886.607 
28905000    -201160.3    1.6194048 -0.0022844242    65.377618    64.842141    64.464762    61899.665 
28910000   -201038.04    1.6044057 0.0010877483    65.583531    64.570248    64.713206    61912.746 
28915000   -200872.44    1.5967229 0.0045487158    65.581048    64.757323     64.75606    61925.869 
28920000   -200948.79    1.6371886 0.0058969703    65.498255    64.973524    64.458758     61938.91 
28925000   -201046.51    1.5614562 0.0041021829    64.958647    64.734731     64.84259    61951.998 
28930000   -200943.92    1.5947228 -0.0073305888    65.241379    64.940162    65.225162    61965.067 
28935000   -200972.81    1.5866726 0.00016125593    65.015555     65.07619    64.839343    61978.121 
28940000   -200901.86    1.6008284  0.002681579    65.094975     65.02211    64.932501    61991.231 
28945000   -200879.93    1.5761726 -0.00085381654    65.100414    65.048889    65.129832    62004.278 
28950000   -200949.45    1.5863718 0.0016330792    64.975974    65.119605     64.80667    62017.345 
28955000   -200877.46    1.5652756 -0.0011256988    64.771479    64.986545    65.372393    62030.375 
28960000   -200834.57     1.576471 0.0013346563    65.001602    65.043916    64.896081    62043.468 
28965000   -200638.55    1.6251364 0.0012764375    64.849962    64.967428    65.137998    62056.529 
28970000   -200759.99    1.5902243 0.00067579483     64.81525    65.177798    65.051564    62069.539 
28975000   -200772.68    1.5996879 0.00082178267     64.86621    65.245275    64.951552    62082.593 
28980000   -200962.09    1.6047326 -0.0027554825    64.996751    65.033199    65.182963    62095.623 
28985000   -200731.29    1.6414141 -0.0013481327    64.967717     65.29434    65.047305    62108.679 
28990000   -200784.66     1.605737 0.0074774067    65.234172    64.505212    65.018087    62121.702 
28995000   -200735.27    1.6314153  0.000255245     65.13311    65.028818    65.032504    62134.767 
29000000   -200746.02    1.5993402 -0.0026736241    65.118325    64.938495    65.087713     62147.82 
29005000   -200706.46     1.597807 0.00086025866    65.117726    64.959228    65.112535    62160.858 
29010000   -200771.43    1.6409649   0.00214706    65.352148    64.802137    65.077769    62173.929 
29015000   -200836.13    1.5470212 0.0044108815     65.17344     64.71095    64.838096    62187.023 
29020000   -200717.23    1.5640816 -0.00086906248    64.983326     64.97634    65.022118    62200.086 
29025000   -200953.58    1.6034892 0.0015002949    65.331804    64.699368     64.88069    62213.148 
29030000   -200709.51    1.6023764 9.7570629e-05    65.319262    64.682399    64.748728    62226.195 
29035000   -200966.08    1.6046182 0.00043979409    65.225893    64.756741    64.724049    62239.323 
29040000   -200832.91    1.5915172 -0.0042482522      65.5339    64.878841    64.749245     62252.45 
29045000      -200951    1.5999783 -0.0029655473    65.347306    64.860959    64.783998    62265.541 
29050000   -201016.44    1.6012313 -0.0067424065    65.419909    64.625745    64.889822    62278.631 
29055000   -201023.07    1.6243279 -0.0025419897    65.210296     64.75368    64.791283    62291.743 
29060000   -201078.87    1.5588013 -0.000571407    65.306725     64.62413    64.607694    62304.849 
29065000   -200995.97    1.6125617 -0.00022721872    65.341801    64.501777    64.758577    62317.933 
29070000   -200972.31    1.5894798 0.0033121703    65.463666    64.466045    64.427747     62331.02 
29075000   -201188.61    1.6091433 0.00053131974      65.1962    64.169978    64.838729    62344.073 
29080000   -201002.77    1.6476528 0.00047486302    65.134768    64.752624     64.74974    62357.185 
29085000   -200951.96    1.5759809 -0.0027682651    65.158756     64.89988    64.778605    62370.253 
29090000   -201049.14    1.6097059 0.0010620921    65.139574     64.84449    64.657749    62383.387 
29095000   -200958.27    1.6280134 0.0021456033    64.934739     64.84177    64.678133    62396.428 
29100000    -200864.6    1.5825155 0.0040838328    65.097514    64.675443    64.844389    62409.442 
29105000   -200853.14    1.6466136 0.0055099963    64.865922    65.018972    64.957847    62422.474 
29110000   -200943.14    1.5765676 -0.00010592155    65.159736    64.916656    64.720971    62435.527 
29115000   -200874.55    1.6000039 -0.00088160204    65.145462    64.738913    64.967956    62448.579 
29120000    -200835.8     1.577879 -7.2895278e-05    65.006191    64.633121    65.056203      62461.6 
29125000   -200771.61    1.6449824 0.00050609274    64.863214    65.046917    64.776161    62474.667 
29130000   -200717.69    1.6302632 0.0010115836    65.154515    64.710897    64.649355    62487.791 
29135000    -200777.9    1.6155715 -0.0040138476    65.201207    64.841122    64.563992    62500.933 
29140000   -200919.43    1.6095283 -0.001361649    65.108652    64.774592    64.604902    62514.048 
29145000   -200932.68     1.585275 -0.0020540462    65.283954    64.722998    64.655335    62527.157 
29150000    -200976.7    1.6503186 0.0014674809    64.668645    65.118733    64.708733    62540.273 
29155000    -200784.8    1.6011117 0.0018562751    64.770521    64.998751    64.796085    62553.357 
29160000   -200960.95    1.5394302 -0.0044065459    65.173483    64.804324    64.642155    62566.424 
29165000    -200781.6    1.6114712 0.0025729174    65.104748    64.599561    64.613124    62579.514 
29170000    -200758.9    1.5607118 0.0030318029    64.817519    64.686053    64.818192    62592.634 
29175000   -200767.79    1.5989629 -0.0010149694    64.629109    64.899095    64.942083    62605.767 
29180000   -200986.97    1.6047775 -0.0015657869    64.766903    64.718665     64.98017    62618.869 
29185000   -201011.17    1.6170372 0.0016918945    64.581322    64.980318    64.795637    62631.917 
29190000   -200874.41    1.6545699 -0.00097224426    64.764424    64.881868    64.934769     62645.02 
29195000   -200945.55    1.6249119 -0.0051480984    65.019419    64.686616    64.953249     62658.13 
29200000    -201066.2    1.6030356 0.0020282513    64.564192    64.829526    64.733674    62671.179 
29205000   -201042.28    1.5940933 -0.0029645865    64.921715    64.757833    64.778726    62684.289 
29210000   -201010.87    1.6066611 0.0017661657     65.13606    64.510744    64.681694    62697.357 
29215000   -200911.03    1.6535647 0.0020236965    65.075319    64.632745    64.551232    62710.488 
29220000    -201020.6    1.5826631 -0.0021813734    65.092276    64.552493    64.785018    62723.585 
29225000   -200971.64    1.5817282 -0.0022943347    65.251126    64.614135    64.745435     62736.73 
29230000   -200870.64    1.6015275 0.00028163151    65.054319    64.819502    64.704333    62749.821 
29235000   -200942.46    1.6190838 0.0018912866    65.318169    64.659367    64.578364    62762.939 
29240000   -200990.04    1.6209528 0.0023030103    65.051172    64.738318    64.532683    62776.008 
29245000    -200970.2    1.5689371 -0.0026699822    65.111592    64.706762    64.832492    62789.116 
29250000    -200951.5    1.6544576 0.0014497024    65.280425    64.667906    64.634771    62802.229 
29255000   -200879.43    1.5932974 0.00077063249    65.284258    64.506132    64.980409    62815.357 
29260000   -200749.18    1.5991666 0.0025250527    65.346031    64.671076    64.691316    62828.424 
29265000   -200895.16    1.6018528 0.0019984509    65.236198     64.49037    64.836414    62841.507 
29270000   -200949.41    1.5747746 -0.0019585756    65.264036    64.504565    64.889133    62854.611 
29275000   -200861.56     1.570077 0.0047608949    65.128921    64.464931      64.8269    62867.745 
29280000   -200800.74    1.6645067 -0.0036622787    65.335792     64.68787    64.895862    62880.832 
29285000   -201020.69    1.6242113 -0.00043744913    65.206695    64.503995    64.799275    62893.889 
29290000   -200954.32    1.5787891 0.0019232851    64.897784    64.715555    64.691135    62906.997 
29295000   -200913.45     1.611428 0.0024140095    64.943512     64.87808    64.375164    62920.056 
29300000   -200808.73    1.6491574  0.002123707      65.0263    64.716915    64.778122    62933.138 
29305000   -200931.17    1.6252956 -0.0015178358    65.225263    64.809806    64.602981    62946.245 
29310000   -200992.46    1.6001662 0.00070527596      65.0086    64.592073    65.055432    62959.361 
29315000    -200879.5     1.542016 -0.0024305177    65.016806    65.009443    64.585651    62972.442 
29320000   -201032.34    1.5403377 -0.0035047542    65.086769    64.738494    64.875662    62985.575 
29325000   -200791.58    1.5897856 -0.0019621335    65.250089    64.670048      64.9673    62998.696 
29330000   -200903.36    1.6274654 -0.0039397469    64.874522     64.96839    65.208668    63011.807 
29335000   -200978.24    1.5628866 0.0010199817    64.928889    64.841976    64.894352    63024.873 
29340000   -200982.36    1.5887764  0.003385824    65.006682    64.980746    64.502876    63037.938 
29345000   -200949.46    1.6025311 -0.00098057752    65.319565     64.68238     65.02815    63050.994 
29350000   -200798.09    1.6179398 0.0023438368    64.624513    65.375414    64.845728    63064.027 
29355000   -200766.46    1.6189567 0.0019771816    64.606719    65.267237    64.887311     63077.07 
29360000   -200900.53    1.5529255 9.3796679e-05     64.99123    65.131547    64.707551    63090.134 
29365000   -200775.31    1.6094312 -0.0012910102    64.953935    65.050627    64.762689    63103.178 
29370000   -200940.16    1.5870583 -0.0052884076    64.892201     65.08215    64.876598    63116.272 
29375000   -200889.65    1.6033334 -0.0042395844    65.143862    65.126527    64.692405    63129.341 
29380000   -200902.05    1.6563327 0.0013431777    65.276466    65.137158    64.279025    63142.378 
29385000   -200794.29    1.5854591 0.00033741055    65.301396    65.020057     64.43056    63155.495 
29390000   -200937.88    1.6233695 0.00072534522    65.295769    64.770036    64.535287    63168.596 
29395000   -200748.09    1.5906999 -0.002565009    65.292277    65.046627    64.604011    63181.668 
29400000   -200908.99    1.5971571 -0.0037081347    65.147137    65.117742    64.719635    63194.733 
29405000   -200911.72    1.5894576 -0.0053927231     64.98341    65.264373     64.70476    63207.798 
29410000   -201038.84    1.5796563 -0.0054403612     65.36199    64.937063    64.651997    63220.879 
29415000   -200893.92    1.5907944 0.0011960292    65.068195    64.667498    64.890738    63233.925 
29420000   -200865.94    1.5948716 0.0014790295    64.928948    64.515348    64.942332    63246.989 
29425000   -200884.98    1.5629848 0.0020013368    64.867925    65.009273    64.699163    63260.099 
29430000   -200908.34    1.6102635 0.00060435269    65.014372     64.51063    64.789471    63273.207 
29435000   -200935.69    1.5366449 -0.00049543611    65.050788    64.778177    64.579911    63286.325 
29440000   -200930.23    1.5916651 0.0022756793    64.803481    64.900269    64.590529     63299.44 
29445000    -200837.2    1.6081056 0.0032187794    65.090494    64.779075    64.495361    63312.632 
29450000   -200975.87    1.6225109 0.0013422223    64.675314    65.068449    64.472376     63325.74 
29455000   -200947.64    1.6578045 0.0038054421    64.604687     64.92214      64.4422    63338.872 
29460000   -201074.22    1.5979911 -0.00048417762     64.71878    64.956504    64.481675    63351.993 
29465000   -201006.62    1.5876524 -0.0011834431    64.639596    64.687964    64.737269    63365.112 
29470000   -201018.04     1.634678 -0.00079780789    64.531372    64.795772    64.652749    63378.261 
29475000   -201000.66    1.6270559 -0.00081422394    64.669924    64.595525    65.010861    63391.395 
29480000   -201116.12    1.6056535 0.0042375287    64.376188    64.452466    65.187357     63404.46 
29485000   -201128.49    1.6229264 0.0014409864    64.856827    64.782065    64.671915     63417.58 
29490000   -201101.92    1.6079548 -4.3279605e-05    64.814725    64.940924    64.695297    63430.661 
29495000   -201197.51    1.6123887 0.00093946008    64.901035    65.075172    64.432789    63443.742 
29500000   -201060.85    1.6072603 -0.00066795592    64.912429    64.897277    64.768565    63456.792 
29505000   -200978.66    1.6053131 0.0028224415    64.907956    64.698385    64.775567    63469.883 
29510000   -200982.59    1.5913917 0.0024440336    64.999177    64.668237    64.976801    63482.985 
29515000   -200994.42    1.6198848 0.00017950246    65.172801    64.557827    64.983684    63496.123 
29520000    -200960.6     1.617899 -0.003662423    65.153221    64.844319    64.870716    63509.236 
29525000   -200896.74    1.5921711 -0.0030519051    65.163611    64.537115    65.015849    63522.264 
29530000   -200945.58    1.6152645 -0.0022385756    65.384902    64.515048    64.987486    63535.322 
29535000   -200833.05    1.6096197 0.0023897083    65.339141    64.783102    64.875123    63548.386 
29540000   -200942.58    1.5821513 -0.0026001758     65.28012    64.700046    65.057671    63561.436 
29545000   -200830.05    1.6105801 0.00085423794    64.883594    65.024915     65.07789    63574.444 
29550000   -200629.87    1.5686175 -0.000238882    64.884043     64.90886    64.961373    63587.477 
29555000   -200791.19     1.597551 -0.00098109152    64.919649    64.673053    65.038119    63600.539 
29560000   -200711.58    1.6138953 -0.0012131201    65.125521    64.644789    65.035339    63613.601 
29565000   -200843.89    1.6396133 0.0026915415    64.780335    64.486968     65.10645    63626.649 
29570000      -200887    1.5733582 0.00093485817    64.999184    64.675784    64.946066    63639.765 
29575000   -200865.49    1.6039408 0.00047287273    65.457962    64.631631    64.590287    63652.883 
29580000   -200875.69    1.6159981 -0.001198029    65.079509    65.105014    64.737745    63665.927 
29585000   -200925.15    1.6462725 -0.0018470059    65.197373     65.11419    64.727979    63678.966 
29590000   -200935.93    1.6245612  0.001713895    65.434592    64.878143    64.650911    63692.035 
29595000   -200876.05    1.5845824 -0.00026941184    65.257121    64.740893    64.815705    63705.099 
29600000   -200873.08    1.6616872 0.0015315841    65.235938    64.772909    64.875136    63718.188 
29605000   -200958.79    1.5969051 0.0011711063     65.36185    64.551142    64.876484    63731.208 
29610000   -200821.75    1.6284454 0.0031278689    65.172003    64.901832    64.786187    63744.254 
29615000   -200736.98    1.5765455 -1.3428426e-05     65.42878    64.669507    64.756487    63757.342 
29620000   -200768.96    1.6241149  0.001982737    65.166581    64.897947    65.050306    63770.424 
29625000   -200694.33    1.6474309 -0.00094435402    65.485474    64.996445    64.840282    63783.435 
29630000   -200673.54    1.6131942 0.0033682677     65.18259    64.707785     65.18822    63796.467 
29635000   -200813.84     1.595191 -0.0010127683    65.411531    64.591887       65.145    63809.471 
29640000   -200891.79    1.6311299 -0.00076842005    65.519191    64.646575      65.0679    63822.554 
29645000    -200811.1    1.6131688 -0.00095101288    65.586191    64.562014    65.064436    63835.596 
29650000   -200880.68    1.5634471 -0.004055891    65.543173    64.647859    65.198747    63848.601 
29655000   -200978.34     1.617839 -0.0028644438    65.660972    64.871257    64.855664    63861.598 
29660000   -200942.19    1.6309671 -0.0079669823    65.585141    65.065719    64.943625      63874.6 
29665000   -200960.01    1.6119012 -0.0031673948    65.594138    64.742083    64.933602    63887.648 
29670000    -200915.4    1.6296801 0.0014194293    65.581922    64.546051    65.024574     63900.74 
29675000   -200861.55    1.6052621 0.00047535284    65.442715    65.175892    64.590492    63913.808 
29680000   -200930.41    1.6112386 -0.0035336818    65.316354    65.113261    64.910511    63926.859 
29685000   -200979.44    1.5949609  0.001292914    65.357982    64.749628    64.804684    63939.968 
29690000   -200735.41    1.5725071 0.0017612072    65.207678    64.811383    64.913871    63953.007 
29695000   -200929.28    1.5725551 0.0013376898    65.318595    64.759569    64.965265    63966.038 
29700000   -200629.86    1.5685994  0.001416104    65.428462    64.855094    64.952158    63979.058 
29705000   -200772.75    1.5943724 -0.0005702901    65.212398    64.997594    64.690905    63992.071 
29710000   -200893.08    1.6303778 0.00020231284    65.159016     65.16161    64.763786    64005.124 
29715000   -200625.69    1.6146272 1.7163239e-05     65.25143    65.082019    64.800154    64018.146 
29720000   -200944.25    1.6355652 -0.0019404315     65.23127    65.186828    64.929069    64031.227 
29725000   -200842.45    1.6056805 -0.00026433074    65.192648    65.216106     64.83692    64044.319 
29730000   -200755.42    1.6243753 -0.00010391071    65.369894    65.230272      64.5574    64057.385 
29735000   -200956.29     1.589225 0.00081384694    65.415586    65.121449    64.686452    64070.456 
29740000   -200906.47    1.5875828 -0.00051885384    65.339316     65.13762    64.756718    64083.518 
29745000   -200913.12      1.57445 -0.0054541717    65.331172    65.230274    64.778029    64096.559 
29750000   -201054.27    1.5566176 0.0025907153    65.158909    64.854764     64.93047     64109.59 
29755000   -201144.93    1.6075329 0.00022199903    65.119065    64.979318    64.763602    64122.648 
29760000   -201132.88    1.6229211 7.5569373e-05    65.122686    65.194345    64.459945    64135.703 
29765000   -200930.01     1.602815 0.00051184884    65.215666    65.099502    64.527498    64148.745 
29770000   -201025.25    1.6432338 0.0011670757    65.190316    64.977048    64.635426    64161.797 
29775000   -200899.16    1.6368646 0.00026932669    65.048991    65.240596     64.73076     64174.87 
29780000   -200886.33    1.5956695 -0.0018865195    64.977683    65.181319    64.843172    64187.916 
29785000   -201053.66    1.5452699 -0.0036768873    65.110526    64.949915    65.010046    64200.977 
29790000   -201018.58    1.6300401 0.0014285854     64.78486    64.857044     65.09786    64214.061 
29795000   -200955.46    1.6466332 -0.0028749237    64.851733    65.164717    64.890716    64227.121 
29800000   -201041.76    1.5941809 -0.0011404927    64.991669    64.778978     65.13239    64240.193 
29805000   -200993.51    1.5890599 -0.00085850293    64.657743    65.001993    65.096224    64253.234 
29810000   -200789.35    1.5799413 -0.0052309708    64.623261    65.288149    65.267354    64266.316 
29815000   -200943.88    1.6053068 0.0013437932    64.747331    64.905728     65.19856     64279.39 
29820000   -201081.57    1.5803227 -0.00055566302    64.751479    65.507849    64.819265    64292.418 
29825000   -201083.18    1.5637436 -0.0059201462     64.96809     65.40457    64.872807    64305.458 
29830000   -200988.36     1.574111 -0.00050489897    64.741919    64.970143    65.205049    64318.535 
29835000   -200878.84    1.5965622 0.0019801014    65.002635    65.157611    64.740689    64331.584 
29840000   -200977.17    1.5975138 -0.0041584952    65.267955     65.00893    64.779585    64344.614 
29845000   -201081.63    1.5740199 -0.0013035266    64.619553    65.062771    65.145304    64357.656 
29850000   -201087.01    1.5845212 0.0051946708    64.592641    64.525327    65.558577    64370.729 
29855000   -200935.31    1.5511844 -0.0042690164    64.956363    64.830636    65.548298      64383.8 
29860000   -200880.52    1.6018166 -0.0017054394    64.618332    65.126956    65.353261    64396.866 
29865000   -200894.57    1.5708192 0.0014110062    64.598071    65.143634    65.082844    64409.972 
29870000   -200933.51    1.6083255  0.002830868    64.502824    64.991736    65.187234     64423.02 
29875000   -201014.47    1.5867023 -0.00023801427    64.588875    65.004698    65.287475    64436.075 
29880000   -201086.07    1.6111853 0.0027540197    64.590682    64.976451    65.088647    64449.133 
29885000   -200935.78    1.5728885 -0.0029014422    64.710426     65.26234    65.113626    64462.216 
29890000   -201015.81    1.5891649 -0.001780008    64.913731    65.127137    64.738942    64475.326 
29895000   -200963.88    1.5873935 -0.0016170246    64.463704      65.1292     65.13563    64488.419 
29900000    -200908.4     1.610688 0.0019196831    64.404741    65.162517    65.200965     64501.48 
29905000   -200921.22    1.6182643 -0.001184199    64.538472    64.926825    65.462631    64514.567 
29910000   -200847.39    1.5992331 -0.0033859968    64.817162    64.956268    65.291213    64527.697 
29915000   -201137.14    1.6111734 -0.0020571803    64.477381    64.873332    65.284834    64540.866 
29920000   -201039.96    1.5985151 -0.0024496335    64.617295    65.153065    64.810737    64553.984 
29925000    -201023.7    1.5777502 -0.0027845052    64.529935    65.190337    64.750869    64567.081 
29930000   -200943.73    1.6058568 -0.0051069597    64.573744    65.273524    64.807909     64580.11 
29935000   -201124.28    1.5615724 -0.0024869524    64.410819    64.909153    65.043213    64593.172 
29940000   -201012.99    1.5792724 -0.0046431951    64.054857      65.4645    65.086547      64606.3 
29945000   -200930.32    1.6118722 -0.0016903175     64.37385    65.174824    65.092036    64619.357 
29950000   -200808.87    1.6195738 0.0024800093    64.931501    64.628427    64.876707    64632.483 
29955000   -200931.17    1.5795634 0.00068822838    64.524138    64.717717    65.010371    64645.549 
29960000   -201006.15    1.5858269 0.0017136717    64.748053    64.560107    64.839855    64658.635 
29965000   -201050.73     1.594804 -0.0013091366    64.656442    64.912544    65.092363    64671.749 
29970000   -201039.47    1.5749604 0.00081566403     64.69254    64.875861    64.996569    64684.784 
29975000   -200886.55     1.648223 -0.0005341395     64.73692     64.91308    65.098954    64697.859 
29980000   -200925.28    1.5567208 -0.010024571     64.82701    65.022782    65.024303     64710.89 
29985000   -200972.11    1.5543929 -0.0050176128    64.542111    65.114371    64.814186    64723.934 
29990000   -200878.89    1.5590563 -0.00094478797    64.535676    64.980862    65.054867    64736.987 
29995000    -200815.4    1.5682805 -0.0030114717     64.75741    64.792487    65.058297    64750.014 
30000000   -200774.42    1.5869442 -0.00018990682    64.800384    64.800522     64.83761    64763.114 
30005000   -200840.57    1.5806038 -0.0051721667    65.060692     64.93071    64.727595    64776.193 
30010000   -200915.84    1.6347835 -0.0028291251    64.658811    64.901027    64.850075    64789.282 
30015000   -201045.15    1.5768493 0.0013089594    64.315644    64.658261    65.012502    64802.412 
30020000   -201010.52    1.6034036 0.0015077891    64.778533     64.82617    64.628978    64815.493 
30025000   -201091.54    1.6291226 -0.003396817    64.813974    64.854551    64.780598    64828.582 
30030000   -201151.03    1.6060823 -0.0022997094    64.761101    64.804805    64.825572    64841.682 
30035000   -201060.38    1.5592288 0.00024930083    65.118428    64.814379    64.393451    64854.776 
30040000   -200903.74    1.6582797 0.0032744738    64.841058     64.87739    64.560685    64867.896 
30045000   -201059.99    1.6162209 0.0061052328    65.043173    64.491566     64.62228    64881.054 
30050000    -200952.1    1.6409095 -0.0012662199    64.984022     65.02141    64.559602    64894.156 
30055000   -200894.26    1.5876817 0.0015817037    64.719138    64.901384    64.616057    64907.243 
30060000   -201081.24    1.6389804 0.00088855082    64.655507     64.82634    64.743406     64920.33 
30065000   -200855.56    1.6378439 -0.0017465657    65.156086      64.9637     64.57023     64933.43 
30070000   -200827.64    1.6146678 0.0025951518    64.597247    64.882853    65.026114    64946.529 
30075000   -200920.19    1.6534123 0.0023623285    65.454899    64.600708    64.601733    64959.577 
30080000   -201056.37      1.62011 0.0045974416    64.792794    64.829771    64.737178    64972.637 
30085000   -201002.17    1.5909608 -0.00078420559    64.969384     64.89369    64.842045    64985.676 
30090000   -200984.34    1.5506206 -0.0050369709    64.930975    65.108694    64.902486    64998.707 
30095000   -200891.82    1.5732425 -0.0054073267    65.038241    64.772097    65.048613    65011.731 
30100000   -200994.26    1.5897775 -0.0045710696    64.904544    64.782375    65.048112    65024.776 
30105000      -200850    1.5860785 0.0015197132    65.199955    64.561192     64.99121    65037.822 
30110000   -200927.27     1.568499  0.002703434    65.248127    64.263962    64.992993     65050.84 
30115000    -200939.2    1.6276726 -0.0048334734    65.247567    64.687498    65.000528    65063.856 
30120000   -201053.37    1.6581779 0.0011666744    65.005588    64.664906    64.767135    65076.933 
30125000    -200961.1    1.6328825 0.00031212458    65.416865    64.795064    64.835735    65089.985 
30130000   -201063.39    1.5710298 0.0013514566    64.865404    65.084715    64.779014     65103.03 
30135000   -200931.05    1.6273791 -0.0024106846    65.202769    64.907223    64.746554    65116.096 
30140000    -200795.4    1.5897921 -0.00092586342    64.986664    64.939363    64.912153    65129.204 
30145000   -200992.13    1.6361644 -0.00093466805    65.004427    64.904042    64.973449     65142.25 
30150000   -201192.04    1.6421211 0.00016354427    65.112604    64.839677    64.685152    65155.318 
30155000   -200964.47    1.5806054 0.00012179524    65.306156    64.780712    64.771366      65168.4 
30160000    -200771.7    1.6275649 0.00047166288     65.27105     64.94147    64.840367    65181.417 
30165000   -201065.53    1.6096432 -0.0010497089    65.185771    64.681933    65.002102    65194.414 
30170000   -200981.45     1.638946 0.00015689672      64.8861    64.897663    64.988549    65207.498 
30175000   -200926.54     1.649049 0.00016148201    64.877896    65.235038    64.849721    65220.562 
30180000    -201003.9    1.6205871  0.003951101    65.089877    64.797256    64.934061    65233.561 
30185000   -200943.62    1.5922348 -2.2576844e-05    65.038747     65.02722    64.831499    65246.606 
30190000   -201028.91    1.6348107 -0.0030002305    64.827593    65.108311    65.001982    65259.653 
30195000   -200753.42     1.588403 -0.0037948967     64.77143    65.197697    65.144515    65272.701 
30200000   -200906.01    1.6527431 -0.0025455796     64.99251     65.05467    64.700969    65285.742 
30205000   -200926.62    1.5569472 -0.0041733207    64.418174    65.497624    64.935247    65298.829 
30210000   -200731.79    1.5834884 -0.00075693198    64.903553    65.060891    64.886762    65311.935 
30215000   -200540.91     1.586304 0.0022182228    65.013005    64.997389    65.044547    65324.932 
30220000   -200876.99    1.6114552 0.0046127259    65.107422    64.974604    64.531119    65337.982 
30225000   -200652.58    1.5550875 0.0042226493    65.089284    65.140929    64.538594    65351.052 
30230000   -200713.07    1.6033661 0.0010778077    65.252337    65.181347    64.694701    65364.074 
30235000   -200745.02    1.6169401 -0.0001352079    65.031034    64.979077    65.065669    65377.084 
30240000   -200931.43    1.5901673 -0.0014436312    65.096407     64.91753    65.090147    65390.079 
30245000   -200785.41    1.6078099 -0.0025075239    65.175597    64.803453    65.305329    65403.078 
30250000    -200837.5    1.5937175  0.002479906    64.919516    64.837633    65.033242    65416.138 
30255000   -200774.46    1.6017622 0.0018989637    64.941566    64.980552    64.918473    65429.183 
30260000   -200813.36    1.5909771 0.0027913782    64.598828    65.271578    64.868997    65442.221 
30265000   -200931.02    1.5681444 -0.00066733656    64.697159    64.853027     65.17267    65455.255 
30270000   -200889.52    1.6253464 0.0057446706    64.994795    64.605093    65.057861    65468.299 
30275000   -200942.43    1.6046436 0.0038167662     65.25706    64.637076    64.857206    65481.381 
30280000   -200822.51    1.6017805 0.00015305995    65.202351    64.705189    64.900778    65494.393 
30285000   -200732.06    1.6111398  -0.00184995    65.335159    64.517544    64.911891    65507.457 
30290000   -200792.28     1.632777 0.0012964537    64.903681    64.639721    64.890426     65520.54 
30295000   -200844.14    1.6299522 0.0031600639     64.88403     64.63829    64.839314    65533.623 
30300000   -200766.95    1.6285581 0.0051267156    65.053596     64.60204    64.705376    65546.675 
30305000   -200804.07    1.6255678 0.0051688096     65.13938    64.803818    64.547165    65559.718 
30310000   -200823.15    1.6141049 0.00098049511    64.962345    64.584761    65.044537    65572.826 
30315000   -200859.28    1.6127363 0.0045392179    64.729759    64.764601    64.863391    65585.874 
30320000   -200712.29    1.5980624 -0.0014951959    65.143444     64.72747    64.868812    65598.978 
30325000   -200978.53    1.5626441 -0.0036515164    65.304502    64.738473    64.597329    65612.069 
30330000   -201010.48    1.5903652 -0.0009156215    65.256497    65.133457    64.147502    65625.165 
30335000   -201037.28    1.6346559 -0.0027183494    64.973692    65.066858    64.556336    65638.282 
30340000   -201024.87    1.5822893 0.00035383682     64.69927    64.756239      64.7449    65651.388 
30345000   -200985.68    1.6069282 -0.0011088054    64.471063    65.023375    64.945199    65664.442 
30350000   -200940.16    1.5805471 0.0009480478    64.643653    64.922445    64.854315    65677.474 
30355000   -201017.43    1.6077684 2.2385515e-05     64.83784    64.747157    64.788369    65690.564 
30360000   -200927.32    1.5886929 6.0177622e-05    64.851159     64.96518    64.652158    65703.712 
30365000   -200767.65    1.6686546 0.00034447305    64.762071    64.886739    64.900642    65716.811 
30370000    -201013.3       1.5571 -0.002267399    64.859123    64.942915    64.486618    65729.934 
30375000   -201028.44    1.5429546 -0.0033790175    64.880468    64.868334    64.822282    65743.069 
30380000   -200966.52    1.6474423 -0.0035352414    64.979279    64.859205    64.716666    65756.204 
30385000   -200885.71    1.5736805 0.00038419637    64.598863    65.176028    64.669567    65769.303 
30390000   -200988.54    1.5952642 0.0018899676    64.890575    65.161815    64.454128    65782.337 
30395000   -200920.79     1.557556 0.0032107401    65.014608    64.811524    64.588966    65795.467 
30400000    -200892.3    1.5964088 -0.00091486035    64.937908    64.785271    64.821024    65808.556 
30405000      -200962    1.5625335 0.0037667686    64.902827    64.796244    64.562651    65821.684 
30410000   -200831.28    1.5668851 -0.0020040756    65.116556    64.986882     64.85382    65834.776 
30415000   -200912.93    1.5671795 -0.0050483829    65.490939    64.673283    64.776939    65847.869 
30420000   -200828.09     1.609596 -0.0019745852    65.488037     64.51766    64.694434    65860.964 
30425000   -200669.55    1.6365881 -0.0017258646    65.169527    65.088865    64.402585    65874.039 
30430000   -200795.81    1.6273667 0.00067546766     65.20753     64.84127    64.384237    65887.156 
30435000   -200955.52    1.5552615 0.0031510128     65.07536    64.701862    64.459411    65900.233 
30440000      -200872    1.5912596 0.0013180251    64.890224    64.883773    64.831075    65913.293 
30445000   -200909.09    1.5799727 -0.00045237397    65.113818      65.0266    64.645371    65926.382 
30450000   -200733.09    1.6191223 -0.0032195688    65.437096    65.267958     64.51038    65939.418 
30455000   -200765.32    1.6171845 -0.004226895    65.397182    65.148735    64.716894    65952.496 
30460000   -200854.11    1.6161318 -0.0039803269    65.480211    64.986523    64.744913    65965.609 
30465000   -200823.71    1.6062485 -0.00012909273    65.160251     65.09317    64.552582    65978.623 
30470000    -200795.7    1.6001224 -0.00038203169    65.408192     65.02481    64.585963    65991.668 
30475000   -200968.14    1.6078905 -0.0040273503    65.431296     64.88293    64.898563    66004.695 
30480000   -200838.89    1.6062554 -0.00057268884    65.342621    65.091594    64.687016    66017.728 
30485000   -200784.28    1.6202006 -0.0006986904    65.147934    65.052233    64.878863    66030.771 
30490000   -200720.63    1.5709349 0.0026060929    64.958104    65.137683    64.428981    66043.859 
30495000   -200810.34    1.5967499 0.00086498185    64.804268    65.104448    64.627957    66056.938 
30500000   -200820.19    1.6077219 0.0010363422    65.034199     64.93389     64.61743    66070.071 
30505000   -200761.72    1.5378467 0.0018026118    64.963097    64.888593    64.812089     66083.19 
30510000   -200658.44    1.6118246 0.0012066808    64.899518    64.795897    64.879638    66096.321 
30515000   -200799.31    1.6010223  0.001632005     64.76401    64.780498    65.047028    66109.435 
30520000    -200845.5    1.6003149 -0.00082297456    64.828337    64.871215    65.040103    66122.569 
30525000   -200869.48     1.625709 0.0014149434    65.035752    64.723128    64.931382    66135.594 
30530000   -200779.86    1.5886901 0.0053067252     64.77752    65.044439    64.641714    66148.683 
30535000   -200938.69     1.631145 -0.00014024167    65.280322    64.665539    64.624344    66161.745 
30540000   -200982.25      1.53016 -0.0014768331    65.125252    65.105787     64.43602    66174.782 
30545000   -200955.76    1.6012704 0.0027700537    64.945627    64.933819    64.463852    66187.834 
30550000   -200907.52    1.6244894 -0.00027138168    65.172691    64.768718    64.730896    66200.959 
30555000   -200767.78    1.5917624 0.00088282207    64.873517    65.178587    64.601277    66213.963 
30560000   -200926.29    1.6403142 0.0049229074    64.856126    65.158709    64.566356    66227.044 
30565000   -200849.56    1.5875258 -0.0019990116    65.379898    64.783338    64.394565    66240.118 
30570000   -200848.99    1.5826742 -0.00024159257     64.76987    65.133742    64.704567    66253.195 
30575000   -200983.22    1.5745875 -0.0027899395    65.045905    65.217577    64.699923    66266.264 
30580000   -201009.07    1.6020307 -0.0015935333    65.327939    64.908202    64.568089    66279.337 
30585000   -201123.63    1.5579723 0.0019024521    65.152453    64.716636    64.502831    66292.429 
30590000    -200976.1    1.5306506  0.007324105    65.227172      64.4304    64.479394    66305.534 
30595000   -200831.18    1.5752304  0.001353923    65.407377    64.617225    64.745216    66318.623 
30600000   -200851.63    1.6108921 0.00046020452    65.243007    64.699034    64.805094    66331.667 
30605000   -200974.98    1.6601041 -0.0012894412    64.955293    65.004599    64.721246     66344.77 
30610000   -200906.83    1.6359931 0.0017692431    64.966209    64.839016    64.860169    66357.825 
30615000   -200940.02    1.6124159 -0.0042456998    65.185504    64.854995    64.822097    66370.951 
30620000   -200900.96    1.5837272 -0.0073682759    65.364537    65.038411    64.638747    66384.036 
30625000   -200710.74    1.6087181 -0.0044172967      65.4571    64.822658     64.73766     66397.16 
30630000   -200779.91    1.6136837 0.00060153162    65.334631    64.524265    64.835706    66410.234 
30635000   -200929.09    1.6086909  0.002100696    65.142938    64.850179    64.500586    66423.322 
30640000   -200923.99    1.6060998 -0.0001090226    65.435455    64.821415    64.630486    66436.393 
30645000   -200964.84     1.551534 -0.00033375642    65.224868    64.900112    64.818818    66449.485 
30650000   -200888.04    1.5648115 -0.0038087342    65.078941    65.050211    64.945918    66462.484 
30655000    -201051.9    1.5707881 0.0026696462    65.182603    65.075102    64.523381    66475.559 
30660000   -200798.36     1.598967 0.0042443084    65.273734    64.936761    64.644904    66488.648 
30665000   -200851.75    1.5976126 -0.00054757733    65.410696    65.030933    64.678317    66501.719 
30670000   -200958.24    1.5786177 -0.0013279313    65.541662    65.019229    64.617104    66514.779 
30675000   -201069.31    1.5396866 -0.0042814187    65.109107    65.214987    64.725569    66527.843 
30680000   -200887.09     1.614055 -0.0024133168    65.230846    65.081672    64.550732    66540.912 
30685000   -200868.73    1.5764381 0.00031370245    65.362159    64.846656    64.359568     66553.99 
30690000   -200965.21    1.5982512 0.0018587788    65.345431    65.144869    64.263178    66567.107 
30695000   -200954.52    1.5965492 0.00076917422    65.258796     64.78195    64.659435    66580.169 
30700000   -200980.11    1.6331921 0.0031070543    65.185434    65.207995    64.271474    66593.247 
30705000   -200979.13    1.6048962  0.001459279    65.016299    65.205657    64.462351    66606.265 
30710000   -201014.17      1.57303 0.00035289993    65.060201    65.093649    64.579805    66619.317 
30715000   -200813.47    1.5988296 -0.0033610424    64.997761    65.143116    65.090615    66632.403 
30720000   -200934.76    1.6112946 -0.0041662026    65.477668    64.797048    64.744721    66645.441 
30725000   -201054.14    1.5890966 0.0014285362    64.783345    65.170057    64.648167    66658.466 
30730000   -200981.78    1.5951441 0.0028029182    65.069966    64.738018    64.883342    66671.494 
30735000   -200966.38    1.5331336 -0.00085251759    65.494681    64.791849    64.781495    66684.572 
30740000   -200784.89    1.5565438 -0.0013310291    65.394875    64.894782    64.911874    66697.571 
30745000    -200985.2    1.5350739 -0.0035688523    65.521349    64.814915    64.839781     66710.66 
30750000   -200909.66    1.5526905 -0.0020856082    65.195328    65.126923    64.872496    66723.749 
30755000   -200895.18    1.5638995 0.0010046023    65.500866    64.564872    65.003075    66736.796 
30760000    -200970.8    1.5989596 -0.0028536139    65.425527    65.113658     64.79216    66749.821 
30765000   -200770.24    1.6014893 -0.00050131537    65.203243    65.042144    64.718751     66762.84 
30770000   -200979.61    1.5734736 0.0061531443    64.961339    64.705158    64.819217    66775.899 
30775000   -200807.92    1.5795333 -0.00060994396    65.137355    64.965733    64.687022     66788.97 
30780000    -200814.3     1.614273 0.00032483363    65.209463    64.832075    64.793665    66802.086 
30785000   -201001.54    1.5711804 0.0020693327    65.303528    64.700668    64.565822    66815.203 
30790000   -201026.08    1.6728723 -0.0035898924    65.310492    64.535102    64.929238    66828.208 
30795000   -200973.74    1.6152463 0.00023616693    65.013116    64.749891    64.904005    66841.256 
30800000    -200799.4    1.6023621 -0.0022161565    64.960034    64.978775     64.96849    66854.319 
30805000   -200844.77    1.6014463 0.0030640681    65.306757    64.584283    64.737317    66867.369 
30810000   -201036.86    1.6479863 0.00013127298    65.467478    64.362149     64.90066    66880.485 
30815000      -200677    1.6167246 -0.0029400395    65.073833    64.890464    65.181355    66893.567 
30820000   -200818.31    1.6215682 -0.0022524007    65.120437    64.824938    64.984697    66906.638 
30825000   -200824.14    1.6343903 -0.002185713    65.159795    64.921843    64.618518    66919.766 
30830000   -200865.52    1.5566734 0.0073681441    64.939589    64.884105    64.382295    66932.816 
30835000   -200808.41    1.6114456 -0.0018977819    64.871281    64.931054    64.870173    66945.879 
30840000   -200717.19    1.5805261 1.2508034e-05    65.038633    64.886855    64.774929    66958.919 
30845000   -200873.71    1.6104137 0.00022321732     64.81252    65.170927    64.690981    66971.984 
30850000   -200932.32     1.596353 0.00037291094    64.890478    65.041613    64.612329     66985.08 
30855000   -200922.37    1.6294239 8.7199535e-05    65.124749    64.651445    64.746373    66998.217 
30860000   -200845.17    1.5737243 -0.0031312699    65.311154    64.571082    64.973144    67011.299 
30865000   -200703.59    1.4928801 0.0020042554    64.935173     64.82846    64.945429    67024.373 
30870000   -200754.39    1.6153559 -0.00036829587    65.270931    64.786466     65.03443    67037.383 
30875000   -200805.71    1.6079024 -0.00042000182    65.282692    64.892084    64.850058     67050.46 
30880000   -200755.25    1.5946792 0.0047486413    64.996983    64.696171    65.168896    67063.457 
30885000   -200798.95    1.6209716 0.0040301998    65.250922    64.782828    64.885623    67076.467 
30890000   -200828.03    1.6287016 0.0045251944    65.162501    64.911703    64.729982    67089.517 
30895000   -200840.61    1.5877102 -0.00044756232    65.318273    65.104154       64.579    67102.534 
30900000    -200854.1    1.5814689 0.00093393459    65.441249    64.703591    64.851861    67115.597 
30905000   -200871.81    1.5511392 -0.0013665368    65.318254    65.015439    64.845255    67128.619 
30910000   -200821.29    1.5883635 -0.00085586259    65.272714    65.354676    64.673224    67141.648 
30915000   -200739.55    1.6038578 -0.002256262    65.434594    65.150103    64.941526    67154.714 
30920000   -200816.69    1.5911802 0.00026061339    65.506141    64.740814     64.93472    67167.794 
30925000   -200933.28    1.6319615 -0.0033980922    65.428349    64.934936    64.819167    67180.901 
30930000   -201005.96     1.578031 0.00064693205    65.549354    64.469134    65.030449    67193.973 
30935000   -200877.61    1.6380317 0.0011846069      65.4117    65.086646    64.621287    67207.025 
30940000   -200969.66    1.5653218 0.0019749573    65.215738     65.17917    64.564492    67220.142 
30945000   -200963.52    1.5932075 0.0033486279    65.057281    64.866597     64.84664    67233.252 
30950000   -200971.78    1.5915086 0.0022537963    65.241575    64.698681     64.92332    67246.665 
30955000   -200981.21    1.5857058 -0.00099402501    65.403311    64.842103    64.699841    67259.754 
30960000   -200855.89    1.5855737 -0.0030920475    65.380633    64.974236    64.730526    67272.815 
30965000   -200893.48    1.5853265 0.0030689556    65.177202    64.808263    64.761068    67285.915 
30970000   -200919.09    1.6376189  0.002981125    65.033675    64.271399    65.120942    67298.988 
30975000   -200787.31    1.6297446 -0.0051460524    64.825651    65.166142    65.067481    67312.086 
30980000   -200896.08    1.5886344 -0.0043178187    65.318181    64.401282    65.286101     67325.16 
30985000   -200759.01    1.5743602 -0.001373029    65.207962    65.216701    64.639525     67338.22 
30990000   -200904.54    1.6236626 -0.0023147014    65.117474      64.9218    64.938937    67351.273 
30995000   -200903.64     1.663338  0.002026772     64.97115     64.86292    64.852952    67364.303 
31000000   -200915.56    1.5702591 0.0010017857    65.139741    64.634645    64.952795    67377.342 
31005000   -200971.97    1.6287035 0.0017037099     65.40083    64.723064    64.733409    67390.375 
31010000   -200932.41     1.559316 -0.003824245    65.494239    64.942341     64.71343    67403.387 
31015000   -200856.11    1.6006671 -0.00086974857    65.184671    64.867922    64.867762    67416.409 
31020000   -200933.92    1.6356001 0.0011568854    65.042662    64.986514    64.822985    67429.535 
31025000   -201079.19    1.5867244 -0.0010107267    65.166501    64.488145    64.815954    67442.651 
31030000   -200912.37    1.5864387 0.00095952778    65.149835    64.660881    64.621472    67455.726 
31035000   -200890.71    1.5378156  0.002211699    65.025569    64.847672    64.613033    67468.822 
31040000   -200945.14    1.5708489 -0.00032118506    65.332616     64.67083    64.522708    67481.928 
31045000   -200939.74    1.5493597 0.0010111025    65.449725    64.671909    64.799311     67495.01 
31050000   -200720.99    1.5889292 -0.0026979537    65.592263    64.966673    64.691746    67508.017 
31055000   -200860.25    1.6017506 -0.00023689456    65.186056    64.902348    65.021488     67521.06 
31060000    -200874.8    1.5835174 -0.00054029422    64.982843    64.871282    65.153522    67534.183 
31065000   -201000.67    1.5726976  0.004041481    65.023896    65.071615    64.785269    67547.248 
31070000   -201008.36    1.5725748 0.0035150165     65.12558    64.735524    65.038876    67560.309 
31075000   -201008.28    1.6139937 0.0012324777    64.920037    65.009766     64.77854    67573.404 
31080000   -201139.21    1.5812432 -0.0023552287    65.025065    64.943716    64.961805    67586.431 
31085000   -200872.31    1.5912597  0.002286005    65.275025     64.78801     64.98819     67599.46 
31090000   -200889.44    1.6195212  0.003114043    64.855068    64.981339    65.002889    67612.503 
31095000    -200944.7    1.6179567 0.0022291848    64.941945    65.156437    64.982169    67625.573 
31100000   -201042.27    1.5640416 0.00031994842    65.181836    64.798287    65.035788    67638.605 
31105000   -200900.18    1.5806802 0.00077091645    64.911768    64.946598    64.882907    67651.694 
31110000   -200948.49    1.5739151 -0.0010725083    65.262473    64.965892    64.534528     67664.73 
31115000    -200946.6    1.5864809 -0.005483754    64.836447    65.315002    64.901269    67677.768 
31120000   -200869.69    1.5922429  -0.00318384    64.943819    65.028701    65.101056    67690.795 
31125000   -201030.56    1.6022369 -0.0016390754     65.05046    65.131319    64.790201    67703.867 
31130000   -200979.12    1.6208817 0.0022144776    64.664709     65.41906    64.809777    67716.919 
31135000   -200863.94    1.6161252 0.0030390282    65.139423    65.091216    64.499051    67729.982 
31140000   -200776.32    1.6156848  0.003037007    64.990997    64.997614     64.75426    67743.056 
31145000   -200747.53    1.5695437 0.0005390979    64.575791    65.502961     64.77179    67756.189 
31150000   -200789.89    1.6319916 0.0047996274    64.938246     65.23233      64.7838    67769.256 
31155000   -200958.68    1.6010381 0.0038307441    65.017142    64.990062    64.660529    67782.375 
31160000    -201004.4    1.5992319 0.0038085014    64.850722     65.03727    64.779263    67795.431 
31165000   -200770.23    1.5936169 0.0043011477    64.891971    65.057842    64.865915    67808.515 
31170000   -200799.78    1.6114982 0.00034514452    65.035435    65.219254    64.679888    67821.603 
31175000   -200821.62    1.6173991 -0.00075183646    65.245396    65.052281    64.635093    67834.703 
31180000   -200805.83    1.6387045 -0.0012412695    64.873673    65.064079     65.05283    67847.758 
31185000   -200955.17    1.6046946 -0.0013248039    65.179426    64.957115    64.630451    67860.879 
31190000   -200794.17    1.5797862 -0.00019118839    65.284621    64.733209    64.866875    67873.954 
31195000   -200925.63    1.5589483 -0.0039384706    65.489508    64.501143    65.210702    67887.018 
31200000    -200976.5    1.6002518 -0.00027997879    65.068312    64.779584    64.993279    67900.116 
31205000   -201087.14    1.6251927  0.003737592     65.32524     64.62689    64.817263    67913.203 
31210000   -200847.21    1.5898633 0.00024306533     65.34922    64.753981    64.806422    67926.267 
31215000    -201052.2    1.5492655  0.002549044    65.273401    64.732431     64.71204    67939.377 
31220000   -200955.11    1.6154046 0.0033570744    65.181452    64.552977    64.903847    67952.419 
31225000   -200869.38    1.5893585 -0.0011032157    65.191409    64.835429    64.873958    67965.496 
31230000   -200869.91     1.641203  -0.00185549    65.030381    64.736119     65.14164    67978.551 
31235000   -200987.12    1.5808714 -0.00034858473     65.10543    64.486333    65.182115    67991.677 
31240000   -200960.83    1.6105192 0.0015051902     64.74999    64.806412    65.094022    68004.723 
31245000   -200870.26    1.5803913 -0.0027330346    65.204899    64.762172    64.843399    68017.792 
31250000   -200743.72    1.5952489 -0.0054496301    65.079353    64.986362    65.081414    68030.879 
31255000   -200936.31     1.628853 0.0014125534    65.031531    64.841216    64.713471    68043.928 
31260000   -200799.86    1.6298493 0.0030596096    64.791608    64.893488    64.651906    68056.967 
31265000   -200810.22    1.5649893 0.0029175818    64.519895    65.033457     65.01666    68070.052 
31270000    -200718.3    1.6200584 -0.0020023739    64.881438    64.907737    65.067979    68083.129 
31275000   -200689.98    1.6109477 0.0027721848    64.734204    64.738839    65.162699    68096.206 
31280000   -200761.19    1.5771412 0.0042641541     64.72956    64.724595    64.962504    68109.283 
31285000    -200873.7    1.5585518 -0.001051711    64.703498      64.7966    65.094802    68122.397 
31290000   -200805.07    1.6130133 -0.0057526944    65.121502     65.00191    64.980059    68135.432 
31295000   -200651.31    1.5981115 -0.0029775125    65.073418    64.595699    65.450078    68148.462 
31300000   -200791.03    1.5770052 -0.0017234515    65.090524     64.75398    65.221679    68161.555 
31305000   -200737.05     1.611452 -0.00035810656    64.935662    64.700736    65.226642     68174.62 
31310000   -200796.03    1.6024135 5.677245e-06    65.111592    64.693274    64.944313    68187.678 
31315000    -200829.9    1.5932195 0.00098685205    65.000943    64.544609    65.154167    68200.803 
31320000   -200772.85    1.6099819  0.001884741    65.370683    64.830777    64.613139    68213.875 
31325000   -200821.31    1.5962347 0.0025747037    65.032271     64.75033    64.962576    68226.921 
31330000   -200896.82    1.5847847 0.0022317585    65.032159    64.596369    64.921191    68240.016 
31335000   -200691.54    1.5975185 -0.0017624354    65.246376      64.9109    65.046564    68253.062 
31340000   -200813.44     1.608638 -0.0016709114    65.232657    64.812603    65.085616    68266.118 
31345000    -200781.1    1.6402995  0.001470306    65.134564    64.812388     64.93984    68279.147 
31350000   -200902.54    1.5954985 0.0039151927     64.88942    65.012206    64.947357    68292.197 
31355000   -200926.19    1.6399677 -0.00026436028    65.137868    64.789281    65.272956    68305.263 
31360000   -200886.08    1.5882483 -0.0013996397    65.232641    64.891995    65.095877    68318.282 
31365000    -200788.9    1.6439815 0.0011989096    64.871812    64.984636    65.259703    68331.313 
31370000   -200927.66    1.6355141 0.00067775315    65.207503    64.912771    65.021649     68344.35 
31375000      -200761    1.6587404 0.0011796753    65.410541    65.005843    64.831756    68357.471 
31380000   -200581.14    1.5736178 -0.0016525722    65.100835    65.107134    65.312675    68370.528 
31385000   -200706.78    1.5797699 0.0029019586    64.840036    64.943262    65.397104    68383.583 
31390000    -200665.7    1.5901973 -0.0013724406    65.013443      65.1168    65.127571     68396.61 
31395000   -200785.26    1.6287721 0.0007206038    64.630694    65.256159    65.273383    68409.648 
31400000   -200876.12     1.600782  -0.00447367     65.03295     65.41569    65.269356    68422.658 
31405000   -200992.71    1.6114447 0.00093601405    65.110148    65.303736    64.763473    68435.659 
31410000   -200822.07    1.5965132 -0.00062065846    65.014169    65.516078    64.741781    68448.751 
31415000   -200827.64    1.5872336 0.0014715838    64.758207    65.341021    64.944157    68461.758 
31420000   -200810.11    1.6106129  0.004958697    64.734118    65.231617    65.090714     68474.83 
31425000   -200836.74    1.5886315 -0.0021266982     64.66468    65.207327    65.104883    68487.931 
31430000   -200697.25    1.6091501 -0.00043397424    65.043674    65.134853    64.863284    68501.016 
31435000   -201032.13    1.5835927 -0.0008458821    64.914721    64.962446     64.86019    68514.146 
31440000    -200686.5    1.6094039 -0.0069888793    64.876426    65.481829    64.754586     68527.23 
31445000   -200867.65    1.5973879 -0.0049643968    64.607062    65.403411    64.873426    68540.215 
31450000   -200772.41    1.6387461 0.0036463861    64.397799     65.04489    65.115948    68553.326 
31455000    -200944.6    1.6240573 0.0019642972    64.486569    65.076233    64.923214    68566.416 
31460000   -200797.92    1.5660143 -0.0015852517    64.548877    65.282596     64.93768    68579.503 
31465000   -200897.86    1.6269884 -0.00093495345    64.622752    65.092304    64.839764    68592.622 
31470000   -200859.91    1.5677262 -0.0028984479    64.495962    65.247826    65.014518    68605.689 
31475000   -200978.46    1.6240947 -0.0031545336    64.875559    64.689357     65.03733    68618.739 
31480000   -200884.34    1.5616814 0.0013351847    64.898029    64.694423    65.177343    68631.808 
31485000   -200793.06    1.6247916 -0.0033921628    65.025135    64.763278    65.273005    68644.797 
31490000   -200845.23    1.6203865 -0.0074963844    65.072776    64.790821    65.338577    68657.885 
31495000   -200882.57    1.5964833 -0.0053246649    65.092784    64.868308    65.204958    68670.918 
31500000   -200857.76    1.5661709 -0.002443705    65.010853    64.508848    65.492629    68683.982 
31505000   -200779.34    1.6007721 -0.0020998385    64.951045    65.092016    64.937919    68696.998 
31510000   -200896.15    1.6007679 -0.0026904878    64.934856    64.993875    65.007257    68710.074 
31515000   -200993.79    1.5447521 0.0014953013    65.127795    64.606328    65.041349    68723.128 
31520000   -200836.21    1.5949723 0.0012999104    64.624494    64.841422    65.175781    68736.143 
31525000   -200854.97    1.5808815 -0.00087458932    64.532651    65.090147    65.188705    68749.205 
31530000   -200868.11    1.6053755 -0.0013859272    64.476814    65.268974    65.239084    68762.244 
31535000   -200833.99    1.6035161 -0.0094540448    64.939525    65.169374    65.383249    68775.312 
31540000   -200737.62    1.5476052 -0.0043719086    64.825702    65.344632    65.206265     68788.35 
31545000   -200770.18    1.6043191 -0.0044864737    65.085869     65.05247    65.253847    68801.409 
31550000   -200792.12    1.6025655 -0.0020010949    65.043963    64.990782     65.34035    68814.419 
31555000   -200870.67    1.6290206 -0.00064435141    65.020029    65.029267    65.256144     68827.48 
31560000   -200821.52    1.6143264 -0.0005553406    64.708479      65.1521    65.427976     68840.53 
31565000   -200946.47    1.5879784 -0.00012070204    65.102194    64.910044    65.037278    68853.571 
31570000   -200812.68    1.5985404 0.00072892932    65.196718    64.987887    65.015488     68866.66 
31575000   -200757.67    1.6276371 -0.00017262304    64.928557    65.190965    65.024189    68879.691 
31580000   -200865.62    1.6016882 -0.00028952414     64.64536    65.168477    65.227737    68892.779 
31585000   -200884.28    1.5945908 -0.0053015871    65.039421    64.905856    65.220657    68905.777 
31590000   -200908.31    1.6174799 -0.0015958212    64.893644    65.043566    65.189851    68918.827 
31595000   -200782.16    1.6121887 -0.0013208977    65.046233    64.872522    65.389854    68931.964 
31600000   -200709.91    1.6192818 -0.00092912678    64.797804    65.183416    65.518015    68945.065 
31605000   -200752.54    1.5618931 0.00091708926    64.770502     64.98324      65.6305    68958.135 
31610000   -200802.59    1.6327212 0.00049425094    65.128829    64.512711      65.7349    68971.191 
31615000   -200883.28    1.6099107 -0.0038244391    65.259167    64.779388    65.398961    68984.227 
31620000      -200873    1.6238699  0.003521196    64.787222    65.029944    65.314275    68997.297 
31625000   -200893.95    1.6116675 0.0047120155     64.93656    65.152215    65.073956     69010.35 
31630000   -200784.83    1.5739443 -0.00043887785    64.933149    65.190475    65.148202    69023.344 
31635000   -200798.36    1.6014356 -0.00083896145    64.953387    64.956928    65.582341    69036.375 
31640000   -200792.38    1.6251282 -0.0020032922     65.13027    65.074796     65.29141    69049.443 
31645000    -200774.3    1.6010467 -0.0046125906    64.838636    65.210262    65.384777     69062.48 
31650000      -200864    1.6192135 -0.0038135359    65.078845    65.151407    65.147455    69075.533 
31655000   -200752.07    1.6299918 0.00037794151    65.069217    64.955969    65.281671    69088.574 
31660000   -200940.54    1.5965521 -6.4121728e-05     64.84758    64.836152    65.371777    69101.601 
31665000   -200722.15    1.5584224 0.0014784468    65.031971    65.022337    65.140173    69114.664 
31670000   -200720.78    1.6428785 0.00041214439    64.977933    65.188397    65.047843    69127.687 
31675000   -200721.88     1.584672 -0.0048205966    65.048732    64.947352    65.517886    69140.711 
31680000   -200878.47    1.6150272 -0.0013757652    65.087282    65.274208    64.934602    69153.777 
31685000   -200839.74     1.573873 0.0031202204    64.886428    65.111114    65.085157    69166.841 
31690000   -200880.07    1.5608537 0.00079068889    64.956491    65.123184    65.177443    69179.879 
31695000   -200963.93    1.5849897 -0.0020194963    64.937612    65.112863    65.296645    69192.918 
31700000   -200949.57    1.6092147 -0.0029761063     64.94716    65.551216    64.779568    69205.937 
31705000    -200922.4    1.6170643 -0.0033541767    65.137333    65.499742    64.975514    69219.008 
31710000   -200911.63    1.6485565 -0.0032197532    65.264477    65.542803    64.978373    69232.067 
31715000   -200944.52     1.587474 -0.003303279    65.122067     65.64074       64.987    69245.069 
31720000   -200826.86     1.564391 -0.0024923535    64.938839    65.537063    64.986072    69258.089 
31725000   -200680.08    1.6411923 -0.0035324528    64.923645    65.551088    64.988783    69271.167 
31730000    -200810.1    1.5958729 -0.0040929694     65.09678    65.522241    65.037568    69284.209 
31735000   -200931.17    1.5942299 -0.0048012011    65.021498    65.361608    65.125497    69297.264 
31740000   -200925.76     1.648513 0.00076386093    64.794081    65.328506    65.055134    69310.305 
31745000   -200825.36    1.6400703 0.0016809136    64.890188    65.569811     64.85842    69323.258 
31750000   -200923.51     1.592022 0.0037573881     64.73046    65.197728    65.015858    69336.312 
31755000    -200955.6    1.6303576 0.0021824118    65.093333    64.791035    65.027133    69349.374 
31760000   -200951.47    1.5984076 0.00011251946    65.514668    64.700849    64.844647    69362.396 
31765000   -201015.92    1.6134455 2.4243422e-05    64.780139    64.892945    65.247395    69375.398 
31770000   -201088.09    1.6330706 0.0040969304    64.995424    64.583845    65.127305    69388.409 
31775000   -200859.61    1.5844149  0.001763292    64.843543    64.871842    64.971542    69401.475 
31780000   -201003.86    1.5961903 -0.0016916617     64.95649    64.808386    64.953549    69414.547 
31785000   -200979.21    1.5577232 -0.0013243363    64.929656     64.88873    64.927113    69427.602 
31790000   -200959.49      1.60708 -0.0019327941    65.232951     64.68433    64.953639    69440.606 
31795000   -201020.43    1.6056235 -5.4459716e-05    64.876348    64.836679    65.007693    69453.623 
31800000   -200968.03    1.6076791 0.0034570579     65.15901    64.989156     64.59098    69466.708 
31805000    -200802.7    1.6009391 -0.0046697801    65.324344    64.708746    65.080268    69479.785 
31810000   -200907.52    1.6019053 0.00050306078    64.986992    64.839667    64.985959    69492.846 
31815000   -200907.85    1.6018228 0.0017660242    65.289847    64.524064    65.153131    69505.897 
31820000   -200896.47    1.6591157 -0.0016082714    65.039853    64.715377    65.222658    69518.959 
31825000   -200970.05    1.5652515 -0.0024459457    65.080585    64.553296    65.436784    69532.013 
31830000   -201014.86    1.5863391 -0.0045585236    65.030138     65.05944    65.009763    69545.072 
31835000   -201101.05    1.5906369 -0.0015852579    65.237942     64.84572    64.835385    69558.145 
31840000   -201152.85    1.5916381 -0.0036670651    64.836279    65.054412    65.202442    69571.194 
31845000   -201230.81    1.6226196 0.0045121914    64.509728    64.765284    65.224727    69584.275 
31850000   -201289.42    1.6008126 0.0026151684     64.52563    64.896616    65.168143    69597.364 
31855000   -201135.86    1.5714745 -0.0034671201    65.082975    64.775607    65.198351    69610.446 
31860000   -201043.31    1.6468247 -0.00013559776    65.114112    65.006222    65.008418    69623.461 
31865000   -200924.24    1.5611787 -0.0010826986    65.417826    65.101755     64.75712    69636.515 
31870000   -200866.06    1.6054216 -0.004625678    65.607789    64.835049    64.904182    69649.542 
31875000   -200936.34    1.6306752 0.0018559632    65.074159    64.923159    64.936474    69662.587 
31880000   -200968.56    1.6233128 -0.00053347952    64.824795    65.214473    65.034967    69675.628 
31885000   -201003.68    1.5813315 0.0044785811    65.047625    65.112222    64.978567    69688.644 
31890000   -200972.56    1.6142091 0.00024171491    65.294615    64.946117    65.032657    69701.654 
31895000   -200927.81    1.6013602 0.0001354093    65.190986    65.133008    64.822849    69714.635 
31900000   -200961.06    1.6176111 -0.00082855657    65.019785    64.903487     65.12524    69727.716 
31905000   -200927.02    1.6497889 0.0050676422     64.65287    64.920254    64.998707    69740.768 
31910000   -200959.42    1.5927497 0.0066604697    65.052299    64.542957    64.829081    69753.822 
31915000    -200857.8    1.6003895 -0.0030351152    64.855342    65.034902    64.906496    69766.901 
31920000    -200841.2     1.586384 -0.0041445049    65.149311     65.04578    64.756962    69779.973 
31925000   -200965.23    1.6327585 -0.00055779637    64.970188    65.134125     64.82109    69793.097 
31930000   -201123.21    1.6146223 -0.00038268302    64.851991    64.987101    64.807205    69806.273 
31935000   -200939.63    1.6287293 -0.0023938038    65.204852    64.956904    64.798899    69819.327 
31940000    -200740.7    1.5645709 -0.0044627117    65.104496    65.273383    64.781328    69832.366 
31945000   -200885.21    1.6681908 0.0015113019    64.792397    65.201414    64.817635    69845.378 
31950000   -200939.01    1.5856658 -0.00059631273    64.706154    65.134365    65.053793    69858.397 
31955000   -200976.18    1.5884769 -0.0016041236    64.989476    65.161277    64.850672    69871.461 
31960000    -201100.4    1.6041195 0.0055105584    64.981015    65.088621    64.531941      69884.5 
31965000   -200794.82    1.6071284 -0.0029273326    65.174556    65.090265    64.872234     69897.56 
31970000   -200764.57    1.5759375 -0.0037258232    64.948671    65.225281    65.067524    69910.598 
31975000   -200917.22    1.5488849 -0.0041332409    64.935813     65.00826    65.059549    69923.633 
31980000   -200935.15    1.5924097 -0.0041642646    64.881382    65.088022    64.970404    69936.672 
31985000   -201034.34    1.5854207 0.00025789434    64.760738     64.99993    64.813623    69949.757 
31990000   -201052.09      1.59899 -0.0024026564    65.080939    64.738897    65.137853    69962.794 
31995000   -200960.87    1.5879185 -0.0035307144    64.940794    65.260671    64.970789    69975.887 
32000000   -201150.01    1.6202845 -0.0049328095     65.20768    65.286598    64.947205    69988.951 
32005000    -201053.8    1.6051132 -0.0030539769    65.629654     64.70237    65.034331    70001.998 
32010000   -201153.56    1.6054665 -0.0023300183    65.356388    64.985066    65.170204    70015.009 
32015000   -201032.84    1.6326145  0.003366255    65.344845     64.67158    65.430887    70028.052 
32020000   -200954.35    1.5859054 0.0039788329    65.581921    64.466314    65.461358    70041.076 
32025000   -200944.41     1.591761 0.0007077019    65.819253    64.693387    65.008233    70054.105 
32030000   -200964.24    1.6044102 0.00083454174    65.566608    65.123425    64.986371    70067.101 
32035000   -200755.38    1.5813631 -0.00094480392    65.506515    65.026453    65.259399    70080.162 
32040000   -200977.31    1.6207616 0.0012107944    65.670174    65.010824    64.966502    70093.215 
32045000   -200932.28     1.582135 0.00048461471    65.538763    64.945058    65.165322    70106.189 
32050000   -200883.45    1.5725328 0.0015627199    65.350477     65.12354    64.981639    70119.172 
32055000   -200856.89    1.5772091 0.0037717786    65.377274    64.977273    65.167432    70132.209 
32060000   -200702.31    1.5983152 0.0034581309    65.386469     64.94636    65.185454     70145.18 
32065000    -200885.2    1.6042529 0.0020809555    65.750706    64.722801    65.118977    70158.181 
32070000   -200809.77    1.5630865 6.8309993e-05    65.728748    64.848011    65.043042    70171.142 
32075000   -200780.69    1.5693561 -0.0038701755    65.725083    64.984448    64.933807    70184.186 
32080000   -200796.88    1.5793109 -0.0040890167    65.585506    64.959458    64.865297    70197.269 
32085000   -200962.84    1.6344292 -0.0021981909    65.331065    64.881292    64.952026    70210.282 
32090000   -200980.37    1.6260018 -0.0040460963    65.470669    64.870232    64.891732    70223.304 
32095000   -200858.25    1.5926573 -0.00055697744    65.303606    64.839086    64.937992    70236.407 
32100000   -200809.28    1.5730483 -0.0043028103    65.153503    65.061942    64.920513     70249.51 
32105000   -200842.81    1.5727434 -0.0024742798    65.407298    64.922936    64.945468    70262.549 
32110000   -200913.64    1.5601758 0.0020965584     65.09058    64.908451    65.093432    70275.615 
32115000   -200958.08    1.6069737 0.0055729658    64.979382    64.847853    65.127249    70288.632 
32120000    -200959.4    1.6059478 0.00062342856    65.343506    64.776558    65.034697    70301.728 
32125000    -201016.7    1.6075838 -0.00031506467     64.92714     65.25255    65.054414    70314.791 
32130000   -201043.54    1.5601158 0.00083574284    65.103328    64.921833    65.075703    70327.862 
32135000   -200805.07    1.5776942 -0.0015866531    65.469975    64.956422    64.851136    70340.935 
32140000   -200922.92    1.5878359 0.00032647299    65.366757    64.814295     64.91532    70353.999 
32145000   -200980.48    1.6089511 -0.0026416635    65.533488    64.503264     65.11221    70367.025 
32150000   -200820.82    1.5594603 0.0021595399    65.412287    64.758945    64.844324     70380.07 
32155000   -200860.63    1.6032929 -0.00095236744    65.152832    64.865694    65.096785    70393.068 
32160000   -200941.08    1.6243232 0.0033225466    64.851386    64.755059    65.044101    70406.104 
32165000   -200988.91    1.6027173 0.0026826713    65.186266    64.604005    64.929157    70419.155 
32170000   -200830.88    1.6075759 0.0015658468    65.315525    64.756336    64.733251    70432.248 
32175000   -200847.41      1.59731 -0.0013807623    65.243798    64.714348    64.993723    70445.286 
32180000   -200932.88    1.6254721 -0.001619579    65.167797    64.861344    64.856729    70458.364 
32185000   -201058.52    1.5607163 -0.0011958676    65.218964    64.571752    64.850382    70471.474 
32190000   -200961.05    1.6077927 -0.0006253717    65.210089    64.723814    64.710338    70484.568 
32195000   -200898.88    1.6272763 -0.0023786991    65.345214    65.011146    64.560126    70497.614 
32200000    -200917.7    1.6159415 -0.0020428952    65.214388    65.217887    64.465551     70510.69 
32205000    -201051.6    1.6224196 0.0021523218    65.193844    64.988506    64.569657    70523.715 
32210000    -200783.3    1.6373699 0.0013618892    64.946704    65.171691    64.772495     70536.78 
32215000   -200904.35    1.6059852  0.004657603    64.819631    64.896444    64.823624    70549.782 
32220000   -200852.17     1.585406 0.0023066666    65.018784    65.187575    64.467037    70562.854 
32225000   -200927.33    1.6698978 -0.0071082795    64.923589    65.270018    64.712715    70575.935 
32230000   -201024.61    1.5785884 0.0021356209    64.964815    65.013682    64.380877    70589.016 
32235000   -201032.79    1.5809217 0.00068062308     64.91293    65.261368    64.398014    70602.093 
32240000   -200909.31    1.5706827 -0.0031456886    64.745356      65.0775    64.945945     70615.17 
32245000   -200922.26    1.5941683 -0.0029164287    65.170865    64.963882    64.726671    70628.247 
32250000   -200974.07      1.62902 0.0026820998    65.074104    64.747464    64.796127    70641.346 
32255000   -201037.62    1.6016473 0.0012815779    64.857608    65.019193    64.804261    70654.386 
32260000   -201083.86    1.5596304 -4.3095624e-05    64.754027    64.960291    64.847886    70667.466 
32265000   -200902.16    1.5902936 -0.0032095305    64.882812    65.108621    64.813906    70680.503 
32270000    -200909.1    1.6090046 -0.0013561149    64.880498    65.205234     64.88073    70693.552 
32275000   -200847.88    1.5770033 -0.0074224448    65.370032    64.921284    65.047907    70706.589 
32280000   -200984.57    1.5827018 -0.002441934    65.542622    64.758641    64.802367    70719.648 
32285000    -200982.1    1.6176715 0.0017618181     65.28858    64.898433    64.508906     70732.72 
32290000   -200853.31    1.6231684 0.00087242186    65.178547    65.061916    64.865151    70745.738 
32295000   -200888.12    1.5418459 0.00036994422    65.426521    64.885962    64.780326     70758.76 
32300000   -200854.48    1.6019308 -0.0051282547    65.039337    65.045015    65.083318    70771.829 
32305000   -200856.08    1.6223948 0.00010138057    65.091774    65.097242    64.804593    70784.903 
32310000   -200912.22    1.6192933 -0.0030429247    65.534802    64.923312    64.712731    70797.987 
32315000   -200918.13    1.5862492 0.00031764886    65.408442    64.664391     64.98555    70811.034 
32320000   -200738.34    1.5965293  0.002701841      65.4415    64.807709    64.773472    70824.022 
32325000   -200880.51    1.6130583 0.00043825894    65.174873    64.849731    64.998156    70837.016 
32330000   -200882.15      1.60465 -0.00034212425    65.344962    64.823351    65.030846    70850.089 
32335000   -200969.32    1.5680958 -0.0019472573    65.187537    65.006754    64.804805    70863.159 
32340000   -200882.03    1.5798202 0.00029097529    65.150355    64.838107    65.002608    70876.208 
32345000   -200924.95    1.6185287 -0.0023253763    65.247571    64.992509    64.850506    70889.308 
32350000   -200846.18     1.621967 -0.00012037113    65.314873    64.626549    64.804758    70902.456 
32355000   -200822.54    1.6022363 0.0031337985    65.135689    64.944935    64.469518    70915.516 
32360000    -200848.7    1.5974509 0.0017601806    65.237547    64.897948    64.418818     70928.62 
32365000   -200790.56    1.5826058 -4.314474e-05    65.227038    65.128866    64.347236    70941.712 
32370000   -200961.18     1.578187 -0.0021332599     65.03056    65.292456    64.500902    70954.792 
32375000   -200847.47    1.6304861 -0.0038124344    65.451833    64.976217    64.521935    70967.832 
32380000   -200818.79    1.5918264 -0.00034410325    65.308366    64.801124    64.668234    70980.927 
32385000   -200829.26    1.5757541 0.00063639277    65.123001    64.816561    64.855631        70994 
32390000   -200823.68    1.6015541 0.00082990282    65.110945    65.014128    64.573758    71007.105 
32395000   -200974.98    1.6112708 0.0016507849    65.135811    64.525989    64.837021    71020.191 
32400000   -200951.11    1.6230718 -0.00052809716    65.170996    64.989716    64.831794    71033.222 
32405000    -200904.8    1.5925503 -0.00030513621    65.055083    64.983466    64.988333    71046.293 
32410000   -200929.57    1.5991785 -0.0015063408    65.229759    64.975516     64.64135    71059.322 
32415000   -201020.11    1.6266286 -0.0040486341    65.173309    65.057319    64.784703     71072.39 
32420000    -201050.1    1.5974375 0.0033822447    65.170093    64.935964    64.684174     71085.45 
32425000   -200971.97    1.6418698 0.0024367215     65.05807    64.748005    65.055438     71098.48 
32430000   -200939.81     1.587117 -0.0012915251    65.297637    64.927015    64.770063    71111.601 
32435000   -200850.17    1.5622479 0.00095055627     65.59066     64.84574    64.663058    71124.676 
32440000   -200859.59    1.6023057 0.0006117193    65.399977    65.056493    64.386728    71137.785 
32445000   -200790.77    1.5707075 0.0051842157    64.983782    65.027729    64.526585    71150.847 
32450000   -200953.47     1.623146  0.003964756    65.062128    64.835277    64.765069    71163.933 
32455000   -200794.77    1.6285954 -0.0054772908    65.271863    64.942881    64.991654    71177.039 
32460000   -200830.58    1.5936348 -0.0012170324    65.158949    64.924967    64.839179     71190.09 
32465000   -200686.57     1.634099 -0.0027847807    65.273637    64.819941    65.130397    71203.183 
32470000   -200819.73    1.6081243 0.0040717388    64.827531    64.952153    65.060602    71216.266 
32475000   -200748.51      1.58846 0.0042943415    65.002715    64.908112    64.852903    71229.352 
32480000   -201032.36    1.6186763 0.0001979105    64.937711    64.874354    64.892384    71242.467 
32485000   -200903.84    1.6229712 0.0031718302    65.010066    65.167624    64.661965    71255.553 
32490000   -200785.26    1.6582555 -0.00019414029    65.122083    65.094654    64.516305    71268.595 
32495000   -200775.69    1.6165312 -0.0046997699    64.514813    65.408936    65.029939    71281.673 
32500000   -200900.98    1.6224674 -0.0015641332    64.637132    65.131481    65.002182    71294.743 
32505000   -200889.32    1.6043391 -0.0027452283    64.462108    65.331274     64.97395    71307.788 
32510000   -200808.28    1.5420064 -0.0024211102    64.776159    65.330486    64.846933    71320.854 
32515000   -200848.04    1.6031322 -0.00056886747    64.921779    65.204691    64.620309    71333.889 
32520000    -200976.2     1.613039 0.0017497067    64.662961    65.006167    64.944463    71346.989 
32525000   -200969.99    1.5773942  0.001304079    64.886946    65.148496    64.697428     71360.11 
32530000   -201024.59     1.634237 -2.8545632e-05    64.656776    65.312898    64.707809    71373.222 
32535000   -200667.83    1.6037955 0.0025099388    64.832757    65.302398    64.704697    71386.324 
32540000   -200649.61    1.6165008 0.0070621559    64.781415     65.17215     64.75761    71399.352 
32545000   -200829.97    1.5907949 0.0026492248     65.22468     65.06196    64.645838    71412.422 
32550000   -200860.88    1.5967958 0.0013961585    65.089541    65.323003     64.70632    71425.527 
32555000   -200766.94    1.5976633 -0.0025256676    65.095774    65.279848    65.108615     71438.58 
32560000   -200833.52    1.5666495 -0.0033767247    65.352254    65.065894    64.880707    71451.687 
32565000   -200960.52    1.6033896 0.0010111864    65.226184    65.226542    64.813507    71464.742 
32570000   -200855.97    1.6012908 0.0017426498    65.172414    65.451296    64.800473    71477.733 
32575000    -200941.8    1.6035401 0.0015328932    65.255695    65.377584    64.694695    71490.703 
32580000   -200940.48    1.6346583 -0.0030113531    65.173383    65.109965    65.043542    71503.781 
32585000   -200984.41    1.6621566 0.0024515195    65.112003    65.230052    64.931134    71516.859 
32590000   -200926.13    1.6060338 -0.00067325238    65.085115    65.254886    65.038889    71529.859 
32595000   -200730.33    1.6275666 0.00067586401    64.922128    65.445004    65.142691    71542.861 
32600000   -200944.85    1.6656081 -0.0041420234    64.891272    65.381751    65.255485    71555.873 
32605000   -200829.12    1.6240953 -0.0021529009    64.714617    65.340603    65.537548    71568.897 
32610000   -200887.67    1.5909493 2.1690024e-05    64.634029    65.267545    65.529447    71581.936 
32615000   -201094.78    1.6139309  0.003332321    64.644361    65.070097    65.611707    71595.002 
32620000   -200877.65    1.5635638 0.0043292467    64.973864    64.943035    65.494445    71607.998 
32625000   -200913.15    1.5853681 0.00049180597     65.11217    65.107667    65.299016    71621.031 
32630000   -200916.74    1.6152678 0.0010440166    64.751961    65.413754     65.51592    71634.068 
32635000   -200938.43    1.6045761 0.0042436044    64.540446    65.141824    65.461379    71647.129 
32640000   -200774.52    1.5988475 -0.0021163201    65.008888    65.294392     65.39676    71660.152 
32645000   -200894.02    1.6105823 -0.0018250681    65.043615    65.031858    65.317974    71673.212 
32650000    -200768.2    1.5911217 -0.00084315267    64.983469    65.304494    65.289946    71686.249 
32655000   -200983.87    1.6307266 -0.0016095403    65.141679    65.172917     65.20136    71699.257 
32660000   -200964.84    1.6079895 -0.0020258063    65.488381     65.06734    64.670217    71712.257 
32665000   -200897.46    1.6011015 -0.0030171636    65.465272    64.958372    64.844572    71725.291 
32670000   -200845.96    1.5771713 -0.001436979    65.094029    64.927021    65.273355    71738.337 
32675000   -200771.33    1.6056272 -0.0036109532    65.356496    64.981146    65.194211    71751.369 
32680000   -200911.13     1.670654 -0.00072358606    65.277949    64.688269    65.238768    71764.357 
32685000   -200880.86    1.6362798 0.0010208378     64.70212    65.199373    65.298751    71777.433 
32690000    -200967.2     1.607186 0.0022725532     65.14091    64.942744    65.070371    71790.458 
32695000   -200898.01    1.6189301 -0.0025778388    65.113208    65.166314    65.115072    71803.509 
32700000   -200972.57    1.5882618 -0.0020425405     65.19659    65.182446    65.146895     71816.56 
32705000   -201006.53    1.6346167 -0.0040552566    65.106231     64.83584    65.682884     71829.58 
32710000   -200949.46     1.555128 -0.003777619    65.185951      65.0807    65.417277    71842.595 
32715000    -200951.7    1.6659038 -0.0039969142    64.906376    65.378826    65.308449    71855.664 
32720000   -200983.57    1.5843472 -0.0023408474    64.987767    65.366512    65.145618    71868.767 
32725000   -201035.82    1.5988611 -0.00020981555    65.268945    65.102595    64.960773    71881.761 
32730000   -201080.58    1.6041035  0.001281378    64.731055     64.98974    65.369479    71894.788 
32735000   -200851.94    1.5862235 0.0025891954    64.782162    65.270368    65.324505    71907.802 
32740000    -200813.6    1.5814643 -0.0011895259    65.039457    65.077634    64.981984    71920.796 
32745000   -200820.72    1.6377813 0.00073889398    64.688377    65.267169    64.984543    71933.865 
32750000   -200913.28    1.6232372 -0.004146147    65.039062    65.187265    65.189871    71946.894 
32755000   -200860.68    1.5990463 -0.004641077    64.943392    64.969187     65.60409    71959.924 
32760000   -200898.86    1.6064364 -0.0032936043     65.13959     64.93593    65.342994    71972.899 
32765000   -200861.52    1.5456055 -0.003342288    64.933181    65.336052    65.180718    71985.963 
32770000   -200966.68    1.5806509 0.00080667615    65.112378    65.075347    65.197369    71999.007 
32775000   -200918.43    1.5980353 0.0012279874    65.240026    65.034929    65.024838    72012.077 
32780000   -200849.05    1.5942148 0.00025005909    65.408915    64.859027    65.023275    72025.071 
32785000   -200950.21    1.6039795 0.0013626476    65.074121    64.947867     65.19202    72038.077 
32790000   -200974.52    1.5902891 0.0018586091    65.080315     65.21384    65.098563    72051.125 
32795000   -200890.84    1.5603317 -0.0031416539    65.318552    65.064989    65.227825    72064.146 
32800000   -200945.41    1.5971988 0.00060539385    65.278592    64.854996    65.237796    72077.151 
32805000   -200744.43    1.6793435 3.6452581e-06    65.392318    65.033807    65.291369    72090.179 
32810000   -200773.82    1.6238362 0.0012004706    65.256082    64.978089    65.377028    72103.163 
32815000   -200838.42    1.5913835 0.0056872629    65.271283    64.637254    65.365377    72116.184 
32820000   -200940.09    1.6088942 0.0016477855    65.282038    64.853586    65.132982    72129.194 
32825000   -200974.11    1.5918708 -0.00091791401    65.364823    65.118896     64.85651    72142.258 
32830000   -200867.36    1.6090151 0.0026740205    65.318972    65.187664    64.922587    72155.315 
32835000   -200831.75    1.5210434 -0.0039508561    65.436208    65.414704    64.851911    72168.324 
32840000   -200982.84    1.5574141 0.0007680564    65.799749    64.810595    64.841234    72181.271 
32845000   -200967.16    1.6373057 0.0011859722    65.650234    64.781751    65.080113    72194.293 
32850000   -200922.93     1.619064  0.002323958    65.413196    64.894742    64.986433    72207.311 
32855000   -200947.39    1.5738987 0.00072997941    65.482918    64.481323    65.346935    72220.315 
32860000   -200860.48    1.5774959 0.0015093024    65.407958    64.857125    64.969382    72233.316 
32865000   -200720.53    1.5539065 0.00036838933    65.300089    65.078133    65.025445    72246.329 
32870000   -200787.68     1.604119 0.0025700453    65.277363    65.018286    64.848367    72259.397 
32875000   -200886.46    1.5995284 0.00036261635    65.100852    65.152502    64.973216    72272.436 
32880000   -200896.54    1.5946557 -0.0018457837    65.201697    65.114507    65.139978    72285.485 
32885000    -200840.9    1.6296499 -0.0022909352    65.299977    64.775172    65.370081    72298.523 
32890000   -200732.14    1.6221936 -0.001715629     65.61442    64.665869    65.149438    72311.602 
32895000   -200957.68    1.6339727 -0.0038237883    65.548135    65.003954     65.04154    72324.661 
32900000   -200986.91     1.606836 0.00061586256    65.448456    64.957657    65.023511    72337.709 
32905000   -200964.08      1.61559 -0.00044547712    65.247931    64.907192    64.996354    72350.766 
32910000   -200898.35    1.5862238 -0.0045884631    65.177203    64.907994    65.296108    72363.842 
32915000   -200969.35       1.6037 -0.0032175968    64.840163     65.48751    64.943693    72376.892 
32920000   -200882.65    1.5912592 -0.0035096249    64.999997    65.392016    64.995009     72389.94 
32925000   -200993.85    1.6061179 -0.003173548    65.006459    65.269578     65.01183    72402.972 
32930000   -200958.26    1.5634076 -0.0023064167     65.12511    65.113446     64.93175    72416.009 
32935000   -200889.83    1.5994864 -0.0007890106    65.079896    65.322725    64.717993    72429.078 
32940000      -201110    1.5861398 -0.00077871154    64.925832    65.207606    64.836889    72442.119 
32945000   -200881.88    1.6063698 0.0015118844    64.877734    65.064232    64.979527    72455.228 
32950000    -201014.1    1.5504574 0.0046712947    65.127931    64.743448    64.935527    72468.235 
32955000   -200872.71    1.6215807 0.00099124204    64.937091    65.124403    65.199741    72481.292 
32960000   -200900.58    1.5390589  0.001759638    64.828174    65.116393    64.938459    72494.376 
32965000   -200868.56    1.5918311 0.0030447172    64.923913    64.992908    65.025184    72507.442 
32970000   -200936.05    1.5529653 -4.2600528e-05    65.044941     65.06103    64.927445    72520.439 
32975000   -200860.44    1.6214855 -0.0014159832     64.94829    65.002025     64.91092    72533.476 
32980000   -200814.69     1.651352 0.0013185446    65.119509     65.08418    64.616571    72546.485 
32985000   -200833.31    1.5938973 0.00060268125     65.00661    65.029359     64.87017    72559.555 
32990000    -200883.5    1.6035561 0.0019927965    65.098335    65.241781    64.810187    72572.562 
32995000   -200915.84     1.601059 -0.00081874955    64.967659     65.17052    65.130266    72585.705 
33000000   -200642.43    1.6188813 0.00079940688    64.923231    65.295594     64.87692    72598.807 
33005000   -200789.43    1.6249159 0.0023268539    64.843761    64.984837    64.823837    72611.918 
33010000    -200636.7    1.5820015 0.0048613914    65.116592    64.763259    64.851309    72624.958 
33015000   -200887.43    1.5971916 0.0017778263    65.070813     64.71952    65.024607    72637.989 
33020000   -200949.07     1.609414 -0.0015148419    64.871516    65.028615    65.046128    72651.055 
33025000   -200964.05    1.5913586 -0.0011155123    64.794666    64.925742     65.04404    72664.151 
33030000   -200885.01     1.611506 -0.00029559748    64.613822    65.404026     64.87953    72677.241 
33035000   -200814.64    1.6210068 -0.0033170233    65.034549     65.09584    65.050555    72690.321 
33040000   -200808.84    1.5974062 -0.0027725776    64.965961    65.181595    64.892486    72703.391 
33045000   -200996.68    1.6456212 -0.00089785321    64.662141    65.437279    64.652148    72716.479 
33050000   -200947.27     1.578691 0.0022885506    64.916324    64.972856    64.732183     72729.55 
33055000   -201024.69    1.6222996 0.0016100567    65.001264    64.988125    64.588192    72742.683 
33060000   -201005.92    1.6024024 0.0034913041    65.241493     64.76613    64.498173    72755.753 
33065000   -200987.07    1.5921302 0.0004387651    64.811147    65.155957    64.625986    72768.835 
33070000   -201163.29    1.5997853 -0.00047065324    64.884122    64.858174    64.599073    72781.881 
33075000   -200993.16    1.5844221 0.0036712855     64.84859    64.752137     64.85131    72794.931 
33080000   -200908.53    1.6019065 0.0035977547    64.832489    64.928294     64.77292    72807.999 
33085000   -200998.91    1.6031372 -0.0012512113    65.158332    64.618369    64.831373    72821.047 
33090000   -200924.49    1.5741662 -0.00087479376    64.949659    64.932271    64.771938    72834.191 
33095000   -200753.54    1.5680211 0.00048808864    64.943051    64.786039    65.226895    72847.259 
33100000   -200925.64    1.6533206 0.0019554015    65.209273    64.636114    64.867872     72860.34 
33105000   -200883.22    1.6497737 0.0032027019     64.76801    64.982482    64.696909    72873.428 
33110000   -200978.52     1.598138 -0.0012332629    64.917019    65.102617    64.687866    72886.514 
33115000   -201025.63    1.5513021  0.002064022    65.109667    64.950148    64.455036     72899.57 
33120000    -201028.3    1.5987364 -0.00012495457    65.189918    64.759264    64.631358    72912.609 
33125000    -201071.6    1.6674767 0.0066258117     65.12207    64.698713    64.467108     72925.69 
33130000   -200962.87    1.6111739 0.00087864033    64.975423    65.141925    64.512222    72938.753 
33135000   -200994.86    1.6104514 0.0022233494    65.124056    64.720187    64.619818    72951.837 
33140000   -201209.38    1.6380991 9.3841374e-05    65.027031    64.903372    64.602474    72964.874 
33145000   -200902.99    1.6089906 -0.0023448972    65.154789     64.91632    64.707605    72977.987 
33150000   -201062.63    1.6150109 -0.0028486588    64.836958    65.138105    64.774123    72991.082 
33155000    -201034.7    1.6536764 -0.0015094685    64.814853    64.781929    65.046973    73004.148 
33160000   -200893.11    1.5910046 -0.0011410397    64.890099    64.990639     65.08715    73017.275 
33165000   -200942.89    1.6063418 2.0599313e-05    64.942622    65.146126    64.847446    73030.363 
33170000   -201034.65    1.6053549 0.00034951053    64.929995    65.145428     64.83067    73043.432 
33175000   -201039.43    1.5860999 -0.00029665157     64.93757    64.884949     64.96237    73056.463 
33180000   -201031.62    1.5950702 0.00048317114    65.093754    64.965691    64.864128    73069.541 
33185000   -200979.34    1.5979265 0.00047494603    65.282204    64.830626    64.724189    73082.615 
33190000   -200879.63      1.65344 -0.0025034544    65.182158    64.885387    65.011659    73095.679 
33195000   -201045.93    1.6038059 -0.0058289652    65.117896    64.983441    64.955716    73108.721 
33200000   -201027.15    1.5467981 -0.0014421683    64.951828    64.711793    65.063824    73121.771 
33205000   -200935.19    1.6178004 -0.001590811     65.08527    64.598785    65.103813    73134.839 
33210000   -200955.67    1.6082587 -0.00042575239    64.778192    64.864165     65.03061    73147.871 
33215000    -200854.8    1.6173964 0.0026855484    64.922722    64.806913    64.920737    73160.948 
33220000   -200820.16    1.5547174 -0.0015161256    65.276633    65.131567    64.689321    73174.006 
33225000   -200936.05    1.5854051 -0.0015939503    65.067585      65.1815    64.625638    73187.054 
33230000   -200869.77    1.6174567 -6.2340359e-05    65.139192    64.760213     64.96629    73200.133 
33235000   -200916.92    1.6051736 -0.0036122855    65.198646    64.847074    64.765543    73213.246 
33240000   -201126.04    1.5956179 -0.0011069233     65.07574    64.591527    64.589732    73226.299 
33245000    -200884.8    1.6154075 -0.0041182554    65.351412    64.756995    64.919515    73239.361 
33250000   -200876.97    1.6181116 0.00047102889    64.962291    65.006944    64.951246    73252.408 
33255000   -200939.71    1.6194715 0.0016555924    64.987111    65.063797    64.738667    73265.463 
33260000   -200786.69    1.5684366 -0.0029078224    64.887712    65.253034    64.975467    73278.537 
33265000   -200626.69    1.5863131  0.002550626    65.322594    64.608177    64.895125    73291.608 
33270000   -200858.05    1.5618585 0.00060287126    65.274474    64.507973    64.907383    73304.757 
33275000   -200898.62    1.6746285 0.0048276181    64.900637     64.57314    65.037073    73317.825 
33280000   -200861.91    1.6209374   0.00226698    65.094095    64.785007    64.980321    73330.846 
33285000   -200711.73    1.5914105 0.0021102014    64.935059    64.794292    65.096869    73343.959 
33290000   -200784.22    1.6016252 -0.0017174089    65.163526      65.0107    64.969799    73357.021 
33295000   -200815.04    1.6369045 0.0036270197    64.982188     64.62116     65.03754    73370.075 
33300000   -200839.86    1.5930151 0.0027772598    64.773766    64.993075    64.883686    73383.114 
33305000    -200802.1    1.6268865 0.0030171044    64.983926    64.664833    65.252831    73396.135 
33310000   -200908.55    1.5936006 -0.0036163809    64.766725    64.896766    65.379804    73409.165 
33315000    -200958.1    1.6491745 0.00098986984    64.764007    64.792549    65.532035    73422.233 
33320000   -200864.18    1.6016663 -0.0021412709     65.19555    64.757235    65.359395     73435.27 
33325000   -200888.95    1.5509964 -0.0016452856    65.303455    64.466736    65.398743    73448.343 
33330000   -201053.08    1.5942204 -0.0017509569    64.808557     64.89211    65.337764    73461.469 
33335000   -200832.81    1.6067371 -0.0027390503    64.987741    64.851677    65.424428     73474.52 
33340000   -200885.76    1.5647437 -0.0047492371    65.179464    64.762257    65.229426    73487.551 
33345000   -200855.63    1.6267595 0.0018037049    64.733688    64.927911    65.360054    73500.598 
33350000   -200959.12    1.5784297 -0.0029337633    65.287945    64.530418    65.349789    73513.656 
33355000   -200758.97    1.5876374 -0.0030426687    65.042526    64.907008    65.373859    73526.701 
33360000   -200802.83    1.5965149 -0.0040194977    64.611728    65.068236    65.291869    73539.751 
33365000   -200846.73    1.5955489 -0.0022188772    64.786241    64.833547    65.170805    73552.848 
33370000   -200793.05    1.5794114 0.0011868558    64.677041    64.910998     65.10104    73565.937 
33375000   -200963.19    1.5860881 9.9596257e-05    64.970586    64.754065    64.877729    73579.026 
33380000   -200739.72    1.6418476 -0.00064061672    64.702997    64.745226    65.076195    73592.131 
33385000   -200930.19    1.6022812 0.0013672018    64.266625    64.782381    65.018161     73605.25 
33390000   -200776.08     1.553537 0.0023280012    64.300928    64.957051    64.951142    73618.305 
33395000    -200858.6    1.5941333 0.0016907403    64.272068    65.020828    65.047971    73631.393 
33400000   -200812.24    1.6071488 0.0027819852     64.38229    64.730252    65.059579     73644.48 
33405000   -200810.95    1.6377814 0.0010724209    64.745799    64.733171    64.832643    73657.505 
33410000   -200866.44    1.5600909 0.0010608502    64.570093    64.855541    64.583807    73670.559 
33415000   -200664.38    1.5774372 -0.0028841788    64.607019     65.06209    64.650721    73683.696 
33420000   -200787.14       1.6107 -0.0043508297    64.766745    64.894675    64.670297    73696.791 
33425000   -200845.15    1.5644668 0.0032978204    64.416863    64.702633    64.916495    73709.948 
33430000   -200831.71    1.6193308 0.0054684685    64.736331     64.76347    64.519579    73723.035 
33435000   -200920.87    1.6081722 0.0044188488    64.932411    64.792321    64.355193    73736.078 
33440000   -200865.99    1.6206815 0.0032569038    64.607292    64.945058    64.332841    73749.146 
33445000   -200823.07    1.6178371 0.00068247008    64.724909    64.716902    64.602418    73762.221 
33450000   -200949.62    1.6065012 0.00080558315    65.373573    64.426881    64.543312    73775.363 
33455000   -200979.24    1.5869716 -0.0052141537    65.201772    64.582425    64.565984    73788.441 
33460000   -200955.47    1.6117045 -0.00015702331    65.087988     64.44719    64.597908    73801.566 
33465000   -201069.61    1.6105665 0.0054308033    65.045866    64.409131    64.390884    73814.619 
33470000   -200806.24    1.6187276 0.0024944427    64.849206    64.817973    64.659985    73827.746 
33475000   -200912.63    1.6037101 -0.00092649693    64.567403    64.775528    65.176076    73840.819 
33480000   -200849.02    1.5657479 0.00095294926    65.054935    64.578452    64.847288    73853.934 
33485000   -200857.66    1.6566904 0.0052218089    64.524726    64.797088    64.868147    73867.036 
33490000   -200919.63    1.5901742 0.0042479589    64.845839    64.443648     65.01517    73880.063 
33495000   -201079.07    1.6133253 0.0023757687    64.960181    64.755013    64.651217    73893.127 
33500000   -200900.11    1.6084445 -0.0024771967    65.259921    64.792252     64.80253    73906.224 
33505000   -201035.63    1.5814035 -0.0036250449     64.80888    64.967035    64.867073    73919.312 
33510000   -200935.69    1.5817488  0.003614295    64.724937    64.773938    64.909197    73932.333 
33515000   -200936.11    1.5650124 0.0055300221     65.06633    64.768929     64.44392    73945.392 
33520000   -201003.22    1.6459241 -0.0012806356    65.061506    65.294089    64.488722    73958.462 
33525000    -200978.9    1.6179721 0.00063646379    65.298918    64.603377    64.929814    73971.484 
33530000   -201023.79    1.6055743 -0.0019964854     65.06432    65.000742    64.845459    73984.574 
33535000   -200892.84     1.630059 0.0001819692    64.930599    64.954843    65.193987    73997.614 
33540000    -201109.5    1.5992481 0.0004813676    65.062622    65.108729    64.850463    74010.627 
33545000   -200905.01    1.5954026 -0.0043100202    65.469819     65.11221    64.788082    74023.733 
33550000   -200831.36    1.5997122 0.0034584738    65.247125    64.863858    64.791276    74036.827 
33555000   -200874.97    1.6598666 0.0025589406    65.393591    64.953826    64.732917    74049.956 
33560000   -200959.58    1.6020457 0.0013057223    65.372056    65.409422    64.641727        74063 
33565000   -200991.26    1.6005065 0.0022809317     65.58531    65.191443     64.58725    74076.007 
33570000   -200790.65    1.5794483 -0.0030978853    65.677841      64.9972    65.115686    74089.009 
33575000    -200834.9    1.6034556  0.004053035    65.532628    64.894288    64.863833    74102.034 
33580000   -200773.47    1.5779274 -0.00010361536    65.323507    65.071075    65.138787    74115.125 
33585000   -200790.91    1.5900474 -0.00010718944    65.474131    64.908048    64.833233    74128.102 
33590000   -200865.59    1.5964533 0.0025018334    65.560003    64.714179    64.792658     74141.09 
33595000   -200795.55    1.6255331 0.00036812595    65.499562    65.031455    64.761956    74154.129 
33600000   -200896.75    1.6003753 -0.00095269874    65.200329    65.177284    64.824886    74167.159 
33605000   -200875.16    1.5991913 0.0013571821    65.169292    65.143749    64.776706     74180.24 
33610000   -200715.62    1.5885707  0.001438262    65.487321    64.900303     64.77714    74193.318 
33615000    -200994.7    1.6010809 0.0027791805    65.029539    64.898993    64.937456    74206.397 
33620000   -200825.89    1.5570973 0.00075524007    65.137413    65.000567    65.043095    74219.466 
33625000   -200740.02    1.6051602 0.0018404675    65.133515    64.850901    65.207679    74232.529 
33630000   -200788.66    1.5849085 -0.0037732587    65.056407    65.116882    65.185112    74245.537 
33635000   -200800.47    1.6089089 -0.00054124495    65.222484    64.926021    64.891236    74258.594 
33640000   -201008.59    1.5589556 0.0006406748    65.061373     64.75381    64.762596    74271.653 
33645000   -200938.94    1.5987498 -0.00062396847    64.900177    64.797357    65.108971    74284.732 
33650000   -200886.28    1.5997515 -0.0012320819    64.979287    64.696968    65.076155    74297.856 
33655000   -200855.24    1.5707677 0.0023565018    64.741292    64.936279    65.035768    74310.929 
33660000   -200865.89    1.6129035 -0.00038036734    64.789316    65.010795     65.06189    74324.016 
33665000   -200828.01    1.5766462 0.0031499765    64.922365    64.519717    65.124725    74337.053 
33670000   -200791.27    1.6252731 0.0053517879    64.735756    64.648376     65.16889    74350.098 
33675000   -200851.95    1.5899671 0.0014805849    64.871374    64.733702    64.858702    74363.103 
33680000   -200842.56    1.6070377 -0.0041192843    64.954592    65.081074    64.932611    74376.202 
33685000    -200911.4    1.5932579 -0.0070713786    65.217867     64.90349    65.166465    74389.273 
33690000   -200964.75    1.6269513 -0.0027240921    64.864125    64.889842    65.183624    74402.348 
33695000   -200924.35    1.5766434 -0.0016628049    64.964021    64.741696    65.127064    74415.444 
33700000   -200837.64    1.6215761 -0.00093608266    65.089234    64.549872    65.177642    74428.452 
33705000   -200713.33    1.5766512 -0.005084687    65.179991    64.733895    65.112134    74441.509 
33710000   -200809.27    1.5384845 -0.0041201409    65.002947    64.851413    65.020508    74454.596 
33715000   -200875.38    1.5779978 -0.0015974823    65.095721    65.125748    64.636173    74467.699 
33720000   -200870.79    1.6357418 -0.0013499189    65.050749    64.886912    65.048203    74480.781 
33725000   -200919.98    1.6005568 -0.002634032    65.176129     65.02569    64.883182    74493.781 
33730000    -200983.6    1.6080721 -0.0037728012      65.1373    64.986312    64.763238    74506.841 
33735000    -201224.9    1.6011215 -0.0031095298    64.827543    65.133259    64.966964    74519.899 
33740000   -200923.46    1.6328637 0.0051001122    64.721809    65.227513    64.768335    74532.949 
33745000   -200899.51    1.6523028 0.0055671384    64.963751    64.925818    64.812973    74545.956 
33750000   -200860.51    1.6250903 -0.0016230986     64.87905    65.077908    64.960592    74559.033 
33755000   -200968.57    1.5934893 -0.0019492735    64.763244    64.788763    65.357908    74572.125 
33760000   -200966.87    1.6214274 -0.0019155415    65.137422    64.695669     65.15835    74585.219 
33765000   -200963.94    1.6549774 0.0050059326     64.80446    64.795297    64.894814    74598.267 
33770000   -200600.96    1.6074329 -0.0060241199    65.218051    65.196785    64.899058    74611.315 
33775000   -200702.37    1.6337691 -0.0032740759    65.174729    64.862602    64.906633    74624.394 
33780000   -200905.42     1.588929 -0.0066624269    65.197351    65.033791    65.104746    74637.481 
33785000   -200971.33    1.5777689 0.0008465295     65.57909    64.492424    64.948752     74650.59 
33790000   -200998.73    1.5994435 0.0015529641    65.367832    64.538439    65.053274    74663.656 
33795000   -201077.45    1.6145367 -0.0053528594    65.366051    64.787865     65.07522     74676.71 
33800000   -201009.59    1.5734934 0.0025751891     65.07118    64.793463    64.821136    74689.758 
33805000   -200857.12    1.6453377  0.001812643    64.907465     65.06151    65.055848     74702.81 
33810000   -200999.97    1.5830232 -0.004429665    65.475846    64.894109    64.895611    74715.804 
33815000    -200865.4    1.6128727 -0.0007265468    65.353875    64.958488    64.921742    74728.853 
33820000      -200843    1.6385653 0.0011293726    65.150782    65.002134    65.112212    74741.912 
33825000   -200976.11    1.5868111 -0.00065745774    65.295951    65.135519    65.241799    74754.973 
33830000   -200998.24    1.5757843 -0.0029428221    65.344901    64.951919     65.31568    74768.018 
33835000   -200977.24    1.5709591 -0.0012693575    65.453192    64.875138     65.24238    74781.024 
33840000   -201026.64    1.5801633 0.0027896772     65.71649    64.558648    64.819869    74794.067 
33845000   -200882.78    1.5691483 -0.0029843504    65.278881    65.151031    65.105203    74807.082 
33850000   -200789.99    1.6423784 -0.0010717341    65.166132    64.931093    65.056458    74820.136 
33855000   -200654.99    1.5661498 -0.0035809686    65.418249     65.05459    64.978273    74833.201 
33860000   -200855.01    1.5880104 -0.0057015745    65.677169    65.012586    64.887001     74846.22 
33865000   -200731.15    1.5961601 -0.0057218002    65.555919    65.117406    64.937099    74859.234 
33870000   -200871.61    1.5889709 -0.0071270145    65.253734     65.16078    65.113009    74872.309 
33875000   -201044.07     1.559344 0.0014843603    65.083918    64.932314    65.033364    74885.318 
33880000   -200960.32    1.6257734 0.0029671918    65.201422    64.953756    64.660259    74898.389 
33885000   -200928.63     1.591268 0.00038307421    64.736761    65.233711    64.994252    74911.448 
33890000   -201037.34    1.5936658 0.00044524362    65.054394    65.236824    64.715027    74924.491 
33895000   -200946.46    1.6171569 0.00055570107     65.23721    64.885978    64.794769    74937.505 
33900000    -201086.7    1.6512567 -0.001489305    64.675009    65.200276    65.131755    74950.521 
33905000   -201004.58     1.580651 -0.0029357986    65.085729     65.18135    64.893697    74963.578 
33910000   -200854.87    1.5766416 -0.0039872545    65.020217    65.316112    65.097549    74976.655 
33915000   -201010.05    1.5635267 -0.0010936672    65.070372    65.036656    64.906684    74989.707 
33920000    -200939.5     1.543101 -0.00011551631    65.074298    65.145199    64.749405    75002.746 
33925000    -200633.7    1.6531168 0.0033143859    65.071378    65.047924    64.957264    75015.743 
33930000   -200894.52    1.6712471 0.0024229691    64.830789    65.442636    64.584722    75028.744 
33935000   -200753.67    1.5729894 -7.2206464e-06     65.20438    65.522035    64.239889    75041.784 
33940000   -200832.48    1.6395046 0.0061697861    64.931435    65.130307     64.45999    75054.837 
33945000   -200834.57    1.6211389 0.0014414465    65.102236    65.307799    64.385713    75067.905 
33950000   -200928.28    1.5837908 -0.00058136367    65.014594    65.225415    64.648609    75080.919 
33955000   -200996.84    1.5913202 0.0033362219    64.498069    65.287377    64.654432    75093.997 
33960000   -200886.07    1.5628953 -0.0025477755    64.854569    65.276256    64.729561    75107.149 
33965000   -200859.92    1.5883686 0.0023789655    65.230895    65.261962    64.338867    75120.286 
33970000   -201075.31    1.6014851 -0.0013570496    65.195362     65.34571    64.350543    75133.324 
33975000   -201011.11    1.5773837 0.0063722494    65.379001    65.316389    64.037429    75146.365 
33980000   -201043.94    1.5796728 0.0034266597    65.027481    65.170477    64.671995    75159.429 
33985000   -200972.06     1.579658 -0.00079104658    65.077871    65.226378     64.89455    75172.523 
33990000   -200990.94    1.5986944 0.00014739856     65.20057    65.120883    64.613724    75185.543 
33995000   -201028.95    1.5529412 0.00013545576    65.256772    64.961549    64.790291    75198.608 
34000000   -201002.71    1.6119884 0.0016432933    65.459389    64.932209    64.531295    75211.629 
34005000   -201018.91    1.6146474 0.0018192115    65.152957    65.020353    64.832384    75224.697 
34010000   -200976.25    1.6371328 -0.00019508963    65.267844    65.003395    64.699635    75237.776 
34015000   -201121.95    1.6472918 7.2354283e-05    65.513013    64.940672    64.414497    75250.811 
34020000   -201064.66    1.6190543 -0.00055386727    64.843267    65.335102    64.650539    75263.837 
34025000   -200902.44     1.667246 0.00094271379    64.949935    65.240409    64.524199    75276.875 
34030000   -200870.86    1.5777008 0.00052137712    65.093365     64.97902    64.547997     75289.92 
34035000   -200768.07    1.5931038 -0.0029145459    64.970288    64.997865    64.959956    75302.986 
34040000   -200913.99    1.6188844 -0.0014813894    64.831444    65.236808    64.696378    75316.022 
34045000   -200873.86    1.6052813  0.002784612    64.831267    65.003462    64.851177    75329.106 
34050000   -200955.42    1.5380258 -0.0009628325    65.050867    65.102338    64.446757    75342.198 
34055000   -200907.92    1.6137489 0.0010074981    64.942966    64.997425    64.778773    75355.241 
34060000   -200776.52    1.5339082 0.0014926438    64.843142      65.0453    64.878374    75368.239 
34065000   -200928.39     1.653963 -0.00069458731    64.805517    64.871214    64.915442    75381.293 
34070000   -200971.36    1.6046345 -0.0008817189    65.024151    64.943211    64.848088    75394.439 
34075000   -200844.92    1.6349194 0.0042039644    64.985241    64.973457    64.637101     75407.47 
34080000   -201024.22    1.6303255 -0.0012335273    64.883569    64.883834    64.616761     75420.55 
34085000   -201014.18    1.6487766 0.0014253762    64.772221    64.758247    64.839354     75433.58 
34090000   -200998.84    1.5898746 0.0058044584    64.817164     64.84793    64.723241    75446.637 
34095000   -200894.67    1.5945934 0.00022355618    64.956424    64.783458    64.735927    75459.718 
34100000   -200961.27    1.6060688 -0.0055350572    65.171935    64.922809     64.87565    75472.727 
34105000   -201036.52    1.5436825 -0.0017010218    65.009783    64.970224    64.880114    75485.799 
34110000      -200953    1.6611529 0.0012605661    65.039128    65.128508    64.689337    75498.888 
34115000   -201126.13    1.6015541  0.004811139    64.657116    65.245109    64.734137    75511.977 
34120000   -201025.36    1.6148171 0.0053240438    64.641367     65.15268    64.756474     75525.07 
34125000   -201029.23    1.6045135 -0.0018489811    64.896009    65.182582    64.973537     75538.09 
34130000   -200915.17    1.5793776 -0.004886252    64.581676    65.033796     65.16468     75551.16 
34135000   -200972.87    1.5920715 -0.0027428569    64.941382    64.686577     64.93206    75564.209 
34140000   -200900.24    1.5881064 -0.0024915267    64.889319    64.855579    64.970967    75577.328 
34145000   -201004.38    1.5967505 -0.0062940519    65.158787    64.972843    64.791455     75590.41 
34150000   -200986.84    1.6200366 0.0014125801    64.832023    64.927806    64.667157    75603.405 
34155000   -200943.99    1.5590882 0.0002133226    64.650039    64.766155    65.021463    75616.466 
34160000   -201054.47    1.5775459 -0.00093807701    65.018453    65.022794    64.736278     75629.51 
34165000   -201010.35    1.5684722 -0.0015448459    64.806078    65.209753    64.612258    75642.577 
34170000   -200919.13    1.5775208 -0.0012876189    64.506802    65.139854    64.790189    75655.688 
34175000   -200922.59    1.6158089 0.0031299811    64.630339    65.009106    64.819846    75668.791 
34180000   -200976.94    1.5976443 -0.00086323808    64.508095    64.744811     65.20463    75681.909 
34185000   -201223.12    1.5846242 0.0038644383    64.390927    64.939742    64.841599    75694.995 
34190000   -201076.15     1.595686 0.0011163121    64.585847    64.861689    64.716971    75708.126 
34195000   -200933.04    1.6378285 -0.0014145615     64.46142    64.769745    64.989511    75721.266 
34200000    -201025.1    1.6309113 -0.0011089991    64.795091    64.380678    65.217265    75734.409 
34205000    -201087.2    1.5391809 0.00076397054     64.43965    64.803968    65.038913    75747.509 
34210000   -201025.96    1.5822554 -0.0001318198     64.40108    64.839094    64.957753    75760.628 
34215000   -200962.29    1.6599393 -0.001683844    64.740228    64.670893    65.048876    75773.699 
34220000   -201089.65    1.6393471 -0.0020869617    64.916439    64.876348    64.678792    75786.766 
34225000      -201103    1.6112771 0.0016537722    64.597905    64.559386    64.981616    75799.833 
34230000   -201070.22    1.6084416 0.0017983111    64.722483    64.633971    64.743441    75812.951 
34235000   -201018.84    1.5328405  -0.00393293    64.630265    65.080143     64.75236    75826.021 
34240000   -201018.38    1.6058898 0.0028772153     64.70669     64.82536    64.598238     75839.12 
34245000   -201038.77    1.5658404 -0.00063535292    64.739296    64.724987    64.871133    75852.157 
34250000   -200903.87    1.6173278 -0.00078350131     65.05725    64.698901    64.671521    75865.304 
34255000   -201097.32    1.6004957 -0.0025449857    65.444473    64.586369    64.738193    75878.449 
34260000   -200846.97    1.5722374 -0.00067515641    64.955853     64.82921    64.974788     75891.48 
34265000   -201065.56    1.5513633 0.00095783973    64.844745    64.802505    64.874359    75904.481 
34270000   -200904.87    1.6206604 0.0041462058    65.462807    64.708617     64.56733    75917.551 
34275000    -200993.1    1.6130216 0.0036636092    65.044035    64.742552    64.988953    75930.651 
34280000   -201029.94    1.6131454 0.0010655351    65.048139    64.905813    64.789327    75943.676 
34285000   -200970.78    1.5834933 -0.00055583024    65.575004    64.879423    64.696018    75956.719 
34290000   -201016.49    1.5853898 -0.0035482962    65.388401    65.190345     64.76888     75969.78 
34295000   -201021.44    1.6167531 -0.0032291878    65.482915    65.096508    64.661841    75982.746 
34300000   -201006.29    1.5656797 -0.0042789134    65.185233    64.991005    65.125786    75995.774 
34305000   -201076.65    1.6015864 -0.0020035075    65.115133    65.095831    64.775994    76008.826 
34310000   -200952.59     1.616676 0.0021639592    65.217569    64.890168    64.841861    76021.905 
34315000   -201060.59    1.6081995 0.0034623532    65.232324    64.972318    64.855248    76034.957 
34320000   -200985.29      1.63922 -0.0040147482    65.301916    65.090919    64.894069    76047.971 
34325000   -200948.84    1.5556009 -0.0011715605    65.496527    64.864258    64.697843    76061.031 
34330000   -201051.06    1.5807065 -0.0018905914    65.442162    64.839384    64.555258    76074.122 
34335000   -201016.38    1.5995497 0.00091236366     64.97604    64.741423    64.729779    76087.257 
34340000   -201136.99     1.625564  0.002137026    65.275854    64.775802    64.352235    76100.332 
34345000   -201067.52    1.5701184 0.0038018661    64.978911    64.876609    64.278858    76113.424 
34350000   -201159.65    1.6116279 0.0025779413    65.185678    64.596329     64.37839    76126.502 
34355000   -201039.27    1.5885028 0.0030598504    64.902652    64.622773    64.594416    76139.587 
34360000   -201023.16    1.6182242 -0.0010785212    65.198579    64.832352    64.256001     76152.68 
34365000   -200919.59    1.5853496 0.0021530861     64.70159    64.656169    64.919198    76165.764 
34370000   -200966.68    1.5740365 -0.0027521658    64.723041    65.151512    64.802655     76178.82 
34375000   -200881.19    1.6332459 -0.00058257793    64.762115    65.083301    64.996157    76191.902 
34380000    -200959.1     1.619697 -0.0027945225    64.975798    64.763608    64.837956    76205.023 
34385000   -200944.25    1.6338038 -0.0051301336    65.006909     64.86265    64.760806    76218.168 
34390000   -200947.14    1.6029134 -0.0032068586    64.875709    64.820675    65.038733    76231.238 
34395000   -200782.62    1.6154965 -0.0061506462    65.028872    65.054128    64.871122    76244.288 
34400000   -201003.43    1.5691232 0.00084776661    64.897401    64.938968    64.484212    76257.411 
34405000   -200984.94    1.6172304 -0.0059320895    65.118521    64.748125    64.868693    76270.438 
34410000    -201021.4    1.6006785  -0.00298388    64.687025    64.774058    65.013443     76283.52 
34415000    -201017.4    1.5957992 -0.002584641    64.704729    64.844442    64.728515    76296.612 
34420000   -201033.39    1.6218813 -0.0020266615    64.753418    64.777169    64.709412    76309.727 
34425000    -200993.8    1.5903972 0.00017801823    64.535677    65.190874     64.59477    76322.789 
34430000   -201083.87    1.5945307 -0.00044139991    64.875084    64.895042    64.477294    76335.918 
34435000   -200803.24    1.5823411 0.0019445822    64.558113    65.165999    64.532177    76349.015 
34440000   -200879.31    1.6297561 -0.00029015039    64.677309    64.999317    64.812119    76362.093 
34445000   -200941.79    1.5985945 -0.0019745176    64.469969    64.928564    65.168416     76375.16 
34450000   -201019.53    1.6066064 -0.0019666288    64.818709    65.016572     64.86947     76388.22 
34455000   -200865.42    1.6021144 -0.0030255827    65.082636     64.73827    64.944802    76401.251 
34460000   -200952.94    1.6169984 -0.0033683923    64.605229    64.635567    65.279044    76414.321 
34465000   -201046.11    1.5672971 -0.0021252607    64.582201     64.80776    65.103828    76427.405 
34470000    -201029.6    1.6204078 0.0011073037    65.016241    64.600796    65.018365    76440.477 
34475000   -201073.66    1.6262661 -0.0031983186    65.185582     64.89646    64.748187    76453.502 
34480000   -201013.32    1.6025901 -0.0045527572    65.152256    64.816678    64.843087    76466.602 
34485000   -201052.29    1.5607092 0.0022398228    65.113505    64.542266    64.760054    76479.736 
34490000   -200952.17    1.6431836 0.0010549074    65.016793    64.692768    64.975002    76492.856 
34495000   -201044.57    1.5415038 0.0033081604    65.114662    64.632509    64.630444    76505.966 
34500000   -201033.32    1.6030417 -0.0020650885    65.141528    64.611739    64.765209    76519.063 
34505000   -201020.91    1.6067448 -0.0016627325    65.062515     64.77472    64.728551    76532.144 
34510000   -200900.87    1.6060928 -0.0010182469    65.114897    64.820078    64.732565    76545.254 
34515000   -200994.64    1.5966251 0.00047394532     65.51299    64.515589    64.479849    76558.323 
34520000   -201142.77    1.6067161 0.0037052798    65.293628     64.63917    64.628444    76571.368 
34525000   -201043.54    1.6025447 0.0023439729    64.969772    64.430915    65.176095    76584.464 
34530000   -201060.73    1.5943215 0.0028076366    65.033078    64.659325    64.815489    76597.565 
34535000   -200803.45    1.5940504 -0.001149688    65.018434    64.705887    65.062088    76610.631 
34540000   -200702.73    1.5439754 0.00021279685     65.13871    64.796219    64.944416    76623.688 
34545000   -201000.22    1.6418205 0.0031813576    65.092906    64.766455    64.797052    76636.742 
34550000    -200887.7    1.6086853 0.0060417586    65.125427    64.810234    64.700757    76649.797 
34555000   -201056.02    1.5642867 -0.0030899648    65.056322    65.283028    64.720874    76662.847 
34560000   -200941.14    1.6338799 -0.00016967862    64.884493    65.112902      64.9713    76675.869 
34565000   -201038.97    1.6287738 1.2498529e-05    65.078341    64.982247    64.652092    76688.949 
34570000   -200988.19    1.6012076 -8.9954515e-05    65.017461    64.857409     64.74362    76702.024 
34575000   -200844.48    1.6234817 -0.0051250744    65.551475    64.583819    65.012865    76715.122 
34580000   -200819.87    1.5568699 -0.0025010719     65.08323    65.069501    65.132974    76728.137 
34585000   -200902.94     1.596565 -0.0008227119    65.405976    64.568909    64.946139    76741.155 
34590000   -200807.08    1.5963611 -0.0022550387    65.267982    64.614367    65.001955    76754.249 
34595000   -200915.71    1.6301327 -0.0015404839    65.122946    64.511166    65.110583    76767.324 
34600000   -200917.42    1.6447453 -0.00091563306    65.074716    64.601964    65.222607    76780.379 
34605000   -200762.68    1.6006694 -0.0042555854    64.913674     64.88824    65.587737    76793.443 
34610000   -200878.15     1.642524 -0.0016448772    65.024666    65.102216    65.036579     76806.48 
34615000   -201001.75    1.6091463 0.0034886955    65.035842    64.830308    65.070694    76819.536 
34620000   -200842.77    1.6259391 0.0059554989     64.95606    65.065812     64.99264    76832.601 
34625000    -201018.4    1.6070326 8.0230909e-05    65.124455    65.043992    64.782345    76845.667 
34630000   -200895.69    1.5882942 0.00035406452    65.403401    65.049739    64.815178    76858.715 
34635000   -200888.79    1.6013658 0.0029693485    65.699601    65.128106    64.395922    76871.719 
34640000   -200798.79    1.5545671  0.003290497    65.130875    65.085425    64.876666      76884.7 
34645000   -200785.81    1.5958113 0.0020751864    65.300139     65.24618    64.487883    76897.775 
34650000   -200832.53    1.6359942 0.0016339227    65.462895    64.887964    64.640991    76910.795 
34655000   -200767.83    1.6066991 0.00090179825    65.324394    64.935198    64.780245     76923.83 
34660000   -200789.29    1.5823442 0.0032015672    65.095078    64.936643    64.898837    76936.949 
34665000   -201038.02    1.5972531 0.0018627887    65.298249    64.750458    64.611874     76950.08 
34670000   -200884.46    1.6004447 -0.00044691323    65.210691    65.146061     64.73268     76963.14 
34675000   -200878.71    1.6553189 -0.0018898091    65.175036    65.051808     64.83649    76976.236 
34680000   -200769.13    1.6388147 -0.00080276734     64.97318    65.394794     64.90275    76989.322 
34685000   -200726.73    1.5896191 0.00035817062    64.902837    65.445464    65.007702    77002.467 
34690000   -200626.93    1.5806056 0.0068255374    64.618739    65.141117    65.064372    77015.489 
34695000   -200719.22    1.5802849 0.0042306297    64.940663    65.195299    64.875526     77028.57 
34700000   -200766.08    1.5250814 0.0038055703    65.009422    65.146836    64.930195    77041.562 
34705000   -200648.57    1.6036616 -0.0014872585    65.219705     65.15132    65.024066     77054.58 
34710000   -200806.65    1.6501874 -3.581719e-05    64.995601    65.258038    64.952623    77067.646 
34715000   -200789.84    1.6083486 0.00040358509    64.989031    65.192604    64.937229      77080.7 
34720000   -200640.21    1.6396158 -0.002845726    64.767856    65.297344    65.059885    77093.745 
34725000   -200582.68    1.5711332 -0.00090370755    64.987847    64.888857    64.995065     77106.77 
34730000   -200770.14    1.5638819 -0.0039963284     64.97564    64.975513    64.908733    77119.856 
34735000   -200851.74    1.5874804 0.0056163373    64.953524    64.806077    64.769754    77133.003 
34740000   -201053.21     1.620932 0.0027949493    65.012532    64.950496    64.414426    77146.046 
34745000   -200959.93    1.5951457 -0.0046595111    65.319449    64.694835    64.878403    77159.044 
34750000    -200805.7    1.5771947 -0.0055099711    65.294725     64.86215    64.800804    77172.173 
34755000   -200873.83    1.5660493 -0.001186087     64.96604    65.001548    64.482837    77185.288 
34760000   -200916.39    1.5596907 0.0010420513    64.971231    64.737418    64.456883    77198.391 
34765000   -200892.75    1.5584183 -0.0032419421    64.908178    65.050187    64.713467    77211.489 
34770000   -201052.71    1.6292059 0.0074072023    64.870185    64.807472    64.431475    77224.533 
34775000   -200943.31    1.5892084 -0.00010295964    65.220532    64.612506    64.533559     77237.62 
34780000   -200933.84    1.5955786 -0.00087459422    65.161879    64.539754    64.749709    77250.696 
34785000    -200873.6     1.571562 0.0034437787    64.742625    64.945927    64.666218    77263.754 
34790000   -200942.12    1.5618763 0.0031326918     64.89954      65.0432    64.463348    77276.818 
34795000   -200863.53     1.601264 -0.00066871279    64.934389    64.993486    64.820047    77289.922 
34800000   -200772.04     1.636847 0.0012883259    64.974779    64.999507    64.767076    77302.994 
34805000   -200636.17    1.5623693 0.00025593341    65.065304    64.947536    64.932261    77316.045 
34810000    -200759.8      1.57418 -0.0028451441    65.324086    65.029917    64.742843    77329.048 
34815000   -200836.07    1.6120177 0.0038250073    64.946171    64.733325    64.879074    77342.195 
34820000   -200743.49    1.5923175 0.0014801827    65.095094    64.590222    65.106605    77355.322 
34825000   -200762.73    1.5818956 -0.0049961141    65.315065     64.73971    64.937814    77368.395 
34830000   -200796.12    1.5901528 -0.0039763514     65.41091    64.789301    64.940291    77381.505 
34835000   -200772.99    1.6215145 -0.0035280112    65.545522    64.692238    64.893615    77394.616 
34840000    -200722.8    1.5646734 -0.0028466175    65.354076    64.912325    65.076976    77407.703 
34845000   -200753.09    1.5812141 -0.0025606305    65.570438    64.872604    64.984445    77420.777 
34850000   -200980.76    1.5933651 0.0024485879    65.320282    64.609133    64.943534    77433.828 
34855000   -200976.67    1.6119428 0.0044029346    65.119496    65.045281    64.803867    77446.882 
34860000   -200864.98    1.6287019 -0.0011761863    65.252151    65.376118    64.813622    77459.892 
34865000   -200818.87    1.6108489 -0.00055311821     65.47333     65.18812    64.657475    77472.908 
34870000   -200707.26    1.5994613 -0.0044667591    65.647789    65.107643    64.826934    77485.948 
34875000   -200716.25    1.6307716 -0.0060530115    65.536349    64.937221    65.231427    77499.019 
34880000   -200732.46    1.6139256 0.0018673981    65.564468    64.677529     64.87385     77512.01 
34885000   -200746.85    1.5932252 0.0025619749    65.199379    64.865999    65.160189    77525.041 
34890000   -200880.97    1.6118406 -0.00066504285    65.027038    65.063187     65.11627    77538.124 
34895000   -200939.09    1.6064222 -0.0029528329    64.962316    65.107371    65.062607    77551.218 
34900000   -201131.61    1.6029187 -0.0028316168    64.852255    65.296202    64.980387    77564.269 
34905000   -201046.84    1.5669729 -0.0052183016    65.362277    65.174637    64.719235    77577.375 
34910000   -200785.76    1.6072389 -0.0049146174    65.400165    64.824752    64.976032    77590.472 
34915000   -200714.85    1.6189733 -0.0040776111    65.386226    64.974491    64.980727    77603.513 
34920000   -200754.61    1.5723315 -0.0047548154    65.281707     64.92783    65.235358     77616.57 
34925000   -200885.25    1.6421225 0.0014238194    64.846532    65.123497    64.937774    77629.598 
34930000   -201010.49    1.5808519 -0.0010940926    65.282736    64.844476    64.956195    77642.664 
34935000   -200826.21    1.6315421 -0.0020308984    65.313198    65.020549    64.934045    77655.724 
34940000    -200733.4    1.5868286 -0.00040476614    65.185349    64.704959    65.043541    77668.805 
34945000   -200867.31    1.6114131 -0.00014533588    65.097629    64.691765    65.033431    77681.802 
34950000   -200902.86     1.577932 -0.0020017692     65.06491    64.707338    64.954297    77694.896 
34955000   -200916.91    1.5658726 0.0014144468    65.326411    64.488489     64.83337    77707.931 
34960000   -200981.43     1.601619 0.00057646296    64.855883    64.677348    64.863261    77721.037 
34965000   -200990.96    1.6274591 -0.00020466668    64.882908    64.455363    65.067605     77734.15 
34970000   -200771.55     1.611633 -0.0068621368    64.943483    64.885617    65.102361    77747.267 
34975000   -200775.67    1.6043475 -0.00028264698    64.445366    64.847487    65.288539    77760.311 
34980000   -200808.66    1.6063994 0.0043006607    64.626691    64.594467    65.257825    77773.321 
34985000   -200658.61    1.5887675 -0.0022376889    65.114708     64.77363    64.899518     77786.35 
34990000   -200825.69    1.5222741 -0.0047978088    65.156092      64.7143    64.800014      77799.4 
34995000   -200632.55    1.6167635 -0.0027782909    64.756331    64.920525    65.133094    77812.541 
35000000    -200631.1    1.6168031 -0.0035627624     64.84103    64.643049    65.200408    77825.617 
35005000   -200654.48    1.6385601 0.0021922787    64.997445    64.652059    64.965832    77838.688 
35010000   -200663.31    1.5669684 0.0038466465    64.534719    64.694702    65.146637    77851.783 
35015000   -200772.19     1.581656 0.0035448555    64.758218    64.774808    65.037598    77864.902 
35020000   -200853.24    1.5910693 0.0007293576    64.801995    64.861324    64.824748    77878.021 
35025000   -200949.85    1.6127065 0.00091788308    65.083464    64.647713    64.633133    77891.066 
35030000    -200820.2    1.6296657 0.0010424127    64.819612    64.667246    64.973077    77904.133 
35035000   -200865.71    1.6431567 7.0758068e-05     64.47852    64.785419    65.185815    77917.206 
35040000   -200915.06    1.5979684 0.0020229211    64.745859    64.756761     65.10797    77930.216 
35045000   -201006.14    1.6289323 -0.0025935448    64.876815    64.857769    65.102202    77943.265 
35050000   -200940.79    1.5912547 0.0008943029    64.587735    64.706517    65.371875    77956.334 
35055000   -200835.62     1.611901 -0.0011795073    64.725668    65.058893    65.232343    77969.365 
35060000   -200687.35    1.6043352 0.0015409049    65.100364    65.009218    65.034912    77982.399 
35065000   -200975.15    1.6124209 0.0008930215    64.862067    64.892736    65.191294    77995.444 
35070000   -200795.49    1.5904015 0.00039679192    65.045634    64.957655    65.004724    78008.524 
35075000    -200955.3    1.6392886 0.00011300603    64.862157    65.105181    64.987755    78021.639 
35080000   -200800.78     1.598876 0.0007370363    64.771693    65.111986    65.391639    78034.713 
35085000   -200972.15    1.6037239 -0.0016057705    64.996322    65.031346    65.368138    78047.772 
35090000   -200956.41    1.5951858 -0.00080814295    64.901973    65.057875    65.262203    78060.769 
35095000   -200971.99    1.6545354 0.0026975075     64.70522    65.027926     65.18859    78073.796 
35100000   -200777.92    1.5921839 -0.0028034239    64.808336    65.210404    65.337543    78086.864 
35105000   -200857.45    1.5935086 -0.00071546586     64.90325    65.179379    65.015904     78099.93 
35110000   -200817.29     1.611391 0.0021476707     64.86425    64.938305    65.170888    78112.958 
35115000    -200794.1    1.5957195 0.0012054099    65.234818    65.007547    64.920028    78126.032 
35120000   -200876.21    1.6448232 0.0034999368    64.942856    65.208633     64.89967    78139.086 
35125000    -200967.8    1.6153711 0.0024436961    64.944272    64.806436    65.280528    78152.181 
35130000    -200927.5    1.5674673 0.0010435371    64.815386    64.877474     65.42833    78165.233 
35135000   -200795.96    1.5711756 0.0014164955    65.025944    64.943939    65.359938    78178.285 
35140000   -200858.44    1.6059786 -4.1276923e-05    65.347185    64.939218    65.129109    78191.322 
35145000   -200916.87    1.6405347 0.00053473785    65.469649    64.554095    65.200012    78204.345 
35150000   -200965.27    1.6273001 0.0016708751    65.169964    64.660341    65.180098    78217.395 
35155000   -201060.22    1.6128914 0.00064910807    65.263866    64.560566    65.213551    78230.415 
35160000      -201065    1.5517714 -0.00020468755    65.458913    64.700497    64.937795    78243.476 
35165000    -200878.4    1.6402274 0.0016530354     65.15489    64.973294      65.0746     78256.55 
35170000   -200783.33    1.5647132 -0.00078883578    65.083945    64.703054    65.526512    78269.578 
35175000   -200973.49    1.5766475 -0.0023796817    65.251185    65.005974     64.83933    78282.626 
35180000   -200995.36    1.6184508 -0.0034028763    65.389714    64.864053    65.029781    78295.722 
35185000   -201009.73    1.6290948 -0.0013427229    65.216878    65.124169    65.087965    78308.741 
35190000      -201170    1.6075924 -0.0031136009    65.077062    65.074825     64.92051     78321.83 
35195000   -200904.44    1.6114788 -0.0057494369     65.08458    65.211361    65.174695    78334.881 
35200000   -201235.89    1.5988127 0.00059397761    65.015145    64.883331    64.981501    78347.937 
35205000   -201092.27    1.6371556 -0.0017335149    65.010831     64.82716    65.109075    78360.934 
35210000   -200995.29    1.6411033 0.0014237909    64.991443    64.698206    65.348786    78373.974 
35215000   -200882.43    1.5875884 -0.0007571431    65.157026    64.896015    65.079673    78387.062 
35220000   -200944.41    1.5512275 -0.0018611501    64.917988     64.91678    65.114775    78400.128 
35225000    -200896.2    1.5700271 0.0010410166    64.862351    64.942255    65.236869     78413.18 
35230000   -201061.34    1.6385213 0.0004140097    65.032885    64.878986    64.984388    78426.188 
35235000   -201129.49     1.625096 0.00081079623    64.856186    64.881373    64.834067    78439.246 
35240000   -200933.56    1.5933125 0.0020226349    65.059333    65.033732    64.746766    78452.351 
35245000   -200878.15    1.6094906 -0.0010803062    65.003516    65.298873    64.641792    78465.372 
35250000   -200957.48    1.6348303 0.0019717555     64.95397    64.739988    64.880316    78478.443 
Loop time of 78478.4 on 8 procs for 30000000 steps with 2304 atoms

Performance: 16514.089 tau/day, 382.271 timesteps/s
95.3% CPU use with 8 MPI tasks x 1 OpenMP threads

MPI task timing breakdown:
Section |  min time  |  avg time  |  max time  |%varavg| %total
---------------------------------------------------------------
Pair    | 13108      | 13998      | 14915      | 452.2 | 17.84
Bond    | 2.3723     | 2.766      | 3.0012     |  12.1 |  0.00
Kspace  | 32635      | 32848      | 33104      | 103.6 | 41.86
Neigh   | 2127.8     | 2150.7     | 2220.7     |  70.2 |  2.74
Comm    | 3138       | 3170.8     | 3203.3     |  36.0 |  4.04
Output  | 6.4894     | 8.1005     | 19.364     | 149.6 |  0.01
Modify  | 19430      | 24229      | 26525      |1641.1 | 30.87
Other   |            | 2071       |            |       |  2.64

Nlocal:        288.000 ave         298 max         280 min
Histogram: 1 0 3 0 0 2 0 1 0 1
Nghost:        6200.25 ave        6239 max        6157 min
Histogram: 1 1 1 0 1 1 0 0 1 2
Neighs:         0.00000 ave           0 max           0 min
Histogram: 8 0 0 0 0 0 0 0 0 0
FullNghs:      260650.0 ave      269973 max      252689 min
Histogram: 1 0 1 2 0 2 0 1 0 1

Total # of neighbors = 2085196
Ave neighs/atom = 905.03299
Ave special neighs/atom = 0.0000000
Neighbor list builds = 226555
Dangerous builds = 0

Total wall time: 26:08:15
