LAMMPS (27 Oct 2021)
OMP_NUM_THREADS environment is not set. Defaulting to 1 thread. (src/comm.cpp:98)
  using 1 OpenMP thread(s) per MPI task
package gpu 0
package gpu 2 neigh no pair/only on
#Lammps gcmc code for electrolytes

## ----- Simulation times ----- ##
    variable t_nve      equal 50000             #nve/limit
    variable t_deform 	equal 50000            #nvt
    variable t_pressed 	equal 50000            #nvt
    variable t_relaxed 	equal 100000            #nvt
    variable t_eq 	equal 5000000           #nvt

    variable smallc	equal 10
    variable bigc	equal -80
    variable numB	equal 256
    variable numS	equal ${numB}*8
    variable numS	equal 256*8
#    variable numCl	equal ${numS}*${smallc}+${bigc}*${numB}

## ----- Environment setting ----- ##
    boundary p p p
    atom_style full

## ----- System Variables  ----- ##
    variable    ttemp       equal   1.6          	#reduced temperature
    variable    ppress      equal   0			#osmetic pressure
    variable    cutoff_pppm equal   28.3	        #cutoff for the real part of pppm
    variable	ipress      equal   0.1

    variable    bigd        equal   10                      #LJ sigmas
    variable    smalld      equal   2
    variable    d_bs        equal   0.5*(${bigd}+${smalld})
    variable    d_bs        equal   0.5*(10+${smalld})
    variable    d_bs        equal   0.5*(10+2)

    variable    cut_small   equal   ${smalld}*1.122462	    #cutoffs for LJ
    variable    cut_small   equal   2*1.122462	    
    variable    cut_big     equal   ${bigd}*1.122462
    variable    cut_big     equal   10*1.122462
    variable    cut_bs      equal   ${d_bs}*1.122462
    variable    cut_bs      equal   6*1.122462


## ----- Initialization and grouping ----- ##
    read_data config_fcc8.dat
Reading data file ...
  triclinic box = (-80.000000 -80.000000 -80.000000) to (80.000000 80.000000 80.000000) with tilt (0.0000000 0.0000000 0.0000000)
  2 by 2 by 2 MPI processor grid
  reading atoms ...
  2304 atoms
Finding 1-2 1-3 1-4 neighbors ...
  special bond factors lj:    0        0        0       
  special bond factors coul:  0        0        0       
     0 = max # of 1-2 neighbors
     0 = max # of 1-3 neighbors
     0 = max # of 1-4 neighbors
     1 = max # of special neighbors
  special bonds CPU = 0.013 seconds
  read_data CPU = 0.028 seconds

    set type 1 charge   ${bigc}    	#large NPs
    set type 1 charge   -80    	
Setting atom values ...
  256 settings made for charge
    set type 2 charge   ${smallc}       #small NPs
    set type 2 charge   10       
Setting atom values ...
  2048 settings made for charge
#    set type 3 charge   1       #Na+
#    set type 3 charge   -1      #Cl-

    mass    *   0.2
    mass    1   25.0

    group big       type 1
256 atoms in group big
    group small     type 2
2048 atoms in group small
#    group cation    type 3
#    group anion     type 3

## ----- Interaction setting ----- ##
    pair_style lj/cut/coul/long ${cut_big} ${cutoff_pppm} #lj/cut/coul/long/soft 2.0 0.5 5.0 ${cut_small} ${cutoff_pppm}
    pair_style lj/cut/coul/long 11.22462 ${cutoff_pppm} 
    pair_style lj/cut/coul/long 11.22462 28.3 
    #Between regular particles (4*5/2=10)
    pair_coeff  1   1   2.0     ${bigd}     ${cut_big}	        # big-big
    pair_coeff  1   1   2.0     10     ${cut_big}	        
    pair_coeff  1   1   2.0     10     11.22462	        
    pair_coeff  2   2   2.0     ${smalld}   ${cut_small}	    # small-small
    pair_coeff  2   2   2.0     2   ${cut_small}	    
    pair_coeff  2   2   2.0     2   2.244924	    
    pair_coeff  1   2   2.0     ${d_bs}     ${cut_bs}	        # big-small
    pair_coeff  1   2   2.0     6     ${cut_bs}	        
    pair_coeff  1   2   2.0     6     6.734772	        
    pair_modify shift yes
    kspace_style	pppm	5.0e-4

## ----- Simulation setup ----- ##
    neighbor 1.2 bin
    neigh_modify delay 0 every 1 check yes #one 2000

    compute temp all temp
    compute press all pressure temp

    thermo 5000
    thermo_style custom step pe temp c_press lx ly lz cpu
    thermo_modify norm no flush yes

   # dump moldump all custom 50000 ${xyzname} id type q x y z

## ----- Thermalization of system ----- ##
    timestep 0.0002

    fix 1 all nve/limit 0.05
    fix 2 big langevin ${ttemp} ${ttemp} 0.2 ${rseed1}
    fix 2 big langevin 1.6 ${ttemp} 0.2 ${rseed1}
    fix 2 big langevin 1.6 1.6 0.2 ${rseed1}
    fix 2 big langevin 1.6 1.6 0.2 19131
    fix 3 small langevin ${ttemp} ${ttemp} 0.008 ${rseed2}
    fix 3 small langevin 1.6 ${ttemp} 0.008 ${rseed2}
    fix 3 small langevin 1.6 1.6 0.008 ${rseed2}
    fix 3 small langevin 1.6 1.6 0.008 20067

    fix freeze big setforce 0.0 0.0 0.0
    fix zeromom all momentum 1 linear 1 1 1 angular
    run ${t_nve}
    run 50000

CITE-CITE-CITE-CITE-CITE-CITE-CITE-CITE-CITE-CITE-CITE-CITE-CITE

Your simulation uses code contributions which should be cited:

- GPU package (short-range, long-range and three-body potentials):

@Article{Brown11,
 author = {W. M. Brown, P. Wang, S. J. Plimpton, A. N. Tharrington},
 title = {Implementing Molecular Dynamics on Hybrid High Performance Computers - Short Range Forces},
 journal = {Comp.~Phys.~Comm.},
 year =    2011,
 volume =  182,
 pages =   {898--911}
}

@Article{Brown12,
 author = {W. M. Brown, A. Kohlmeyer, S. J. Plimpton, A. N. Tharrington},
 title = {Implementing Molecular Dynamics on Hybrid High Performance Computers - Particle-Particle Particle-Mesh},
 journal = {Comp.~Phys.~Comm.},
 year =    2012,
 volume =  183,
 pages =   {449--459}
}

@Article{Brown13,
 author = {W. M. Brown, Y. Masako},
 title = {Implementing Molecular Dynamics on Hybrid High Performance Computers â€“ Three-Body Potentials},
 journal = {Comp.~Phys.~Comm.},
 year =    2013,
 volume =  184,
 pages =   {2785--2793}
}

@Article{Trung15,
 author = {T. D. Nguyen, S. J. Plimpton},
 title = {Accelerating dissipative particle dynamics simulations for soft matter systems},
 journal = {Comput.~Mater.~Sci.},
 year =    2015,
 volume =  100,
 pages =   {173--180}
}

@Article{Trung17,
 author = {T. D. Nguyen},
 title = {GPU-accelerated Tersoff potentials for massively parallel Molecular Dynamics simulations},
 journal = {Comp.~Phys.~Comm.},
 year =    2017,
 volume =  212,
 pages =   {113--122}
}

@Article{Nikolskiy19,
 author = {V. Nikolskiy, V. Stegailov},
 title = {GPU acceleration of four-site water models in LAMMPS},
 journal = {Proceeding of the International Conference on Parallel Computing (ParCo 2019), Prague, Czech Republic},
 year =    2019
}

CITE-CITE-CITE-CITE-CITE-CITE-CITE-CITE-CITE-CITE-CITE-CITE-CITE

PPPM initialization ...
  using 12-bit tables for long-range coulomb (src/kspace.cpp:340)
  G vector (1/distance) = 0.11279571
  grid = 60 60 60
  stencil order = 5
  estimated absolute RMS force accuracy = 0.0003775628
  estimated relative force accuracy = 0.0003775628
  using double precision KISS FFT
  3d grid and FFT values/proc = 42875 28800
  generated 0 of 1 mixed pair_coeff terms from geometric mixing rule
Neighbor list info ...
  update every 1 steps, delay 0 steps, check yes
  max neighbors/atom: 2000, page size: 100000
  master list distance cutoff = 29.5
  ghost atom cutoff = 29.5
  binsize = 14.75, bins = 11 11 11
  1 neighbor lists, perpetual/occasional/extra = 1 0 0
  (1) pair lj/cut/coul/long/gpu, perpetual
      attributes: full, newton off
      pair build: full/bin
      stencil: full/bin/3d
      bin: standard
Per MPI rank memory allocation (min/avg/max) = 11.95 | 12.05 | 12.16 Mbytes
Step PotEng Temp c_press Lx Ly Lz CPU 
       0 1.7992005e+08            0    175.78446          160          160          160            0 
    5000    -68410.85    1.4247864 -0.0043319253          160          160          160    29.980937 
   10000   -73967.962    1.4334076 -0.0044214267          160          160          160    59.966644 
   15000   -78496.449    1.4070275 -0.0044464623          160          160          160    89.928219 
   20000   -82638.599    1.4375361 -0.0044714138          160          160          160    119.85998 
   25000   -86400.523    1.4549853 -0.0045077325          160          160          160    149.71885 
   30000   -89704.741    1.4552639 -0.0044247972          160          160          160    179.63859 
   35000   -92813.173    1.4214231 -0.0044941039          160          160          160    209.60415 
   40000   -95908.291    1.3897848 -0.004510531          160          160          160    239.53434 
   45000   -98705.211    1.3978671 -0.0044295834          160          160          160    269.41905 
   50000   -101531.57    1.3734789 -0.0043699243          160          160          160      299.299 
Loop time of 299.299 on 8 procs for 50000 steps with 2304 atoms

Performance: 2886.744 tau/day, 167.057 timesteps/s
99.5% CPU use with 8 MPI tasks x 1 OpenMP threads

MPI task timing breakdown:
Section |  min time  |  avg time  |  max time  |%varavg| %total
---------------------------------------------------------------
Pair    | 8.4383     | 8.532      | 8.6199     |   2.1 |  2.85
Bond    | 0.003389   | 0.0049583  | 0.0072141  |   1.9 |  0.00
Kspace  | 285.38     | 285.91     | 286.15     |   1.4 | 95.53
Neigh   | 0.052419   | 0.058869   | 0.065478   |   1.8 |  0.02
Comm    | 1.999      | 2.1828     | 2.7778     |  18.2 |  0.73
Output  | 0.00031664 | 0.0011061  | 0.0066222  |   6.3 |  0.00
Modify  | 2.1936     | 2.2285     | 2.259      |   1.3 |  0.74
Other   |            | 0.38       |            |       |  0.13

Nlocal:        288.000 ave         316 max         261 min
Histogram: 2 0 0 1 0 3 0 0 1 1
Nghost:        1362.88 ave        1394 max        1328 min
Histogram: 1 0 1 0 1 2 1 1 0 1
Neighs:         0.00000 ave           0 max           0 min
Histogram: 8 0 0 0 0 0 0 0 0 0
FullNghs:      17403.5 ave       19925 max       14922 min
Histogram: 2 0 0 1 0 3 0 0 0 2

Total # of neighbors = 139228
Ave neighs/atom = 60.428819
Ave special neighs/atom = 0.0000000
Neighbor list builds = 69
Dangerous builds = 0

    fix deforming all deform 10 x final -33 33 y final -33 33 z final -33 33 remap x
    run ${t_deform}
    run 50000
PPPM initialization ...
  using 12-bit tables for long-range coulomb (src/kspace.cpp:340)
  G vector (1/distance) = 0.11279571
  grid = 60 60 60
  stencil order = 5
  estimated absolute RMS force accuracy = 0.0003775628
  estimated relative force accuracy = 0.0003775628
  using double precision KISS FFT
  3d grid and FFT values/proc = 42875 28800
  generated 0 of 1 mixed pair_coeff terms from geometric mixing rule
Per MPI rank memory allocation (min/avg/max) = 11.95 | 12.05 | 12.16 Mbytes
Step PotEng Temp c_press Lx Ly Lz CPU 
   50000   -101531.57    1.3734789 -0.0043699243          160          160          160            0 
   55000   -107948.15    1.4528576 -0.0036042661        150.6        150.6        150.6    32.474529 
   60000   -114750.78    1.3716519 -0.0042758524        141.2        141.2        141.2    64.937281 
   65000   -122202.65    1.4326929 -0.0042230126        131.8        131.8        131.8    97.396062 
   70000   -129835.44    1.4221197 -0.0035596736        122.4        122.4        122.4    129.82138 
   75000   -138023.13    1.4210371 -0.0020485198          113          113          113    162.21437 
   80000   -146703.94    1.4418164  0.001462878        103.6        103.6        103.6    194.65666 
   85000   -155465.77    1.4222639  0.010743653         94.2         94.2         94.2    227.15981 
   90000   -163833.27    1.4358289  0.032419726         84.8         84.8         84.8    259.76617 
   95000   -172161.81    1.4211565  0.074977158         75.4         75.4         75.4    292.51248 
  100000   -182293.22    1.4655469   0.16864317           66           66           66    325.50552 
Loop time of 325.506 on 8 procs for 50000 steps with 2304 atoms

Performance: 2654.332 tau/day, 153.607 timesteps/s
99.5% CPU use with 8 MPI tasks x 1 OpenMP threads

MPI task timing breakdown:
Section |  min time  |  avg time  |  max time  |%varavg| %total
---------------------------------------------------------------
Pair    | 9.1136     | 9.2017     | 9.3047     |   1.7 |  2.83
Bond    | 0.0041092  | 0.0058028  | 0.0071768  |   1.5 |  0.00
Kspace  | 285.51     | 285.87     | 286.19     |   1.3 | 87.82
Neigh   | 0.67582    | 0.73771    | 0.80393    |   5.0 |  0.23
Comm    | 2.9965     | 3.3043     | 3.7571     |  13.0 |  1.02
Output  | 0.00038551 | 0.0043183  | 0.01001    |   5.2 |  0.00
Modify  | 21.606     | 23.969     | 25.902     |  33.3 |  7.36
Other   |            | 2.417      |            |       |  0.74

Nlocal:        288.000 ave         312 max         269 min
Histogram: 2 0 0 2 0 2 1 0 0 1
Nghost:        6116.00 ave        6155 max        6052 min
Histogram: 1 0 0 0 2 0 2 0 2 1
Neighs:         0.00000 ave           0 max           0 min
Histogram: 8 0 0 0 0 0 0 0 0 0
FullNghs:      244484.0 ave      267241 max      227490 min
Histogram: 2 0 1 1 1 1 1 0 0 1

Total # of neighbors = 1955872
Ave neighs/atom = 848.90278
Ave special neighs/atom = 0.0000000
Neighbor list builds = 328
Dangerous builds = 0

    unfix 1
#    unfix 2
    unfix freeze
    unfix deforming

    timestep 0.002

    fix 1 all   nph	            tri ${ipress} ${ipress} 1.0
    fix 1 all   nph	            tri 0.1 ${ipress} 1.0
    fix 1 all   nph	            tri 0.1 0.1 1.0
    run ${t_pressed}
    run 50000
PPPM initialization ...
  using 12-bit tables for long-range coulomb (src/kspace.cpp:340)
  G vector (1/distance) = 0.11896362
  grid = 32 32 32
  stencil order = 5
  estimated absolute RMS force accuracy = 0.00045532445
  estimated relative force accuracy = 0.00045532445
  using double precision KISS FFT
  3d grid and FFT values/proc = 9261 4096
  generated 0 of 1 mixed pair_coeff terms from geometric mixing rule
Per MPI rank memory allocation (min/avg/max) = 9.316 | 9.336 | 9.386 Mbytes
Step PotEng Temp c_press Lx Ly Lz CPU 
  100000   -182254.34    1.4655469   0.17026561           66           66           66            0 
  105000   -200444.89    1.6239924  0.098240075    61.951321    61.929963     61.37542    18.771085 
  110000   -202605.94    1.6071134   0.09870747     60.91223    60.203356    61.021979      37.7158 
  115000   -203857.56    1.5649109  0.098559516    60.185568    60.128166    60.300794    56.834281 
  120000   -204625.19    1.6263869  0.098539241    60.126606    59.934493    59.967215    75.932094 
  125000   -205094.93    1.5955259   0.10843763    59.594036    59.993679    60.043204    95.113443 
  130000    -205261.9    1.5626898  0.098533154    60.030242    59.795338    60.048641    114.30487 
  135000   -205322.28    1.6156622   0.11081859    59.749248    59.729739    59.959766    133.65807 
  140000   -205517.34    1.6292743  0.097572927    59.938201    59.948357    59.910172    152.72751 
  145000   -205662.88    1.5816589   0.10516156     59.93571    59.560021    60.019003     171.9437 
  150000   -205692.86    1.5750333   0.10002377    59.946704    59.647038    60.105778    191.05654 
Loop time of 191.057 on 8 procs for 50000 steps with 2304 atoms

Performance: 45222.188 tau/day, 261.702 timesteps/s
92.7% CPU use with 8 MPI tasks x 1 OpenMP threads

MPI task timing breakdown:
Section |  min time  |  avg time  |  max time  |%varavg| %total
---------------------------------------------------------------
Pair    | 71.734     | 74.53      | 77.473     |  27.2 | 39.01
Bond    | 0.0038758  | 0.004599   | 0.0056648  |   0.8 |  0.00
Kspace  | 50.642     | 50.825     | 51.01      |   1.8 | 26.60
Neigh   | 11.109     | 11.256     | 11.483     |   3.4 |  5.89
Comm    | 4.7127     | 4.7815     | 4.8929     |   2.6 |  2.50
Output  | 0.00028228 | 0.00042796 | 0.0014227  |   0.0 |  0.00
Modify  | 45.156     | 48.429     | 51.824     |  39.1 | 25.35
Other   |            | 1.23       |            |       |  0.64

Nlocal:        288.000 ave         293 max         284 min
Histogram: 2 0 2 0 0 0 2 1 0 1
Nghost:        7286.75 ave        7301 max        7273 min
Histogram: 1 1 1 0 1 0 2 0 1 1
Neighs:         0.00000 ave           0 max           0 min
Histogram: 8 0 0 0 0 0 0 0 0 0
FullNghs:      332490.0 ave      338828 max      327066 min
Histogram: 2 0 2 0 0 0 1 1 1 1

Total # of neighbors = 2659920
Ave neighs/atom = 1154.4792
Ave special neighs/atom = 0.0000000
Neighbor list builds = 1410
Dangerous builds = 0
    unfix 1
    fix 1 all   nph	            tri ${ipress} ${ppress} 1.0
    fix 1 all   nph	            tri 0.1 ${ppress} 1.0
    fix 1 all   nph	            tri 0.1 0 1.0
    run ${t_relaxed}
    run 100000
PPPM initialization ...
  using 12-bit tables for long-range coulomb (src/kspace.cpp:340)
  G vector (1/distance) = 0.11970557
  grid = 30 30 30
  stencil order = 5
  estimated absolute RMS force accuracy = 0.00045720554
  estimated relative force accuracy = 0.00045720554
  using double precision KISS FFT
  3d grid and FFT values/proc = 8000 3600
  generated 0 of 1 mixed pair_coeff terms from geometric mixing rule
Per MPI rank memory allocation (min/avg/max) = 9.738 | 9.768 | 9.786 Mbytes
Step PotEng Temp c_press Lx Ly Lz CPU 
  150000    -205692.9    1.5750333   0.10002259    59.946704    59.647038    60.105778            0 
  155000    -205856.9    1.6452762  0.094413924    59.770889    60.007221     60.05591    18.727146 
  160000   -205925.94    1.5834626  0.085972837     60.12927    60.017339    60.011247    37.392026 
  165000   -205922.25    1.6299713    0.0826401    60.105883    60.235219     59.97442    56.065904 
  170000   -205730.05    1.6032908  0.078056579    60.245389    60.032726    60.237541    74.741969 
  175000   -205613.69     1.595359  0.081178487     60.23993    60.235149    60.050273    93.350912 
  180000   -205953.84    1.6104717  0.080157512    60.129815    60.304297     59.95123    112.07931 
  185000   -205809.87    1.6064509  0.062139889    60.202118    60.185099    60.679062    130.68316 
  190000   -206079.86     1.598677   0.05476437    60.261336    60.433237    60.519716    149.32719 
  195000   -205833.64    1.6226746  0.055847541    60.458275     60.50444    60.401359    167.92924 
  200000   -205935.92    1.6057142  0.052549892    60.365883    60.482584    60.604407    186.61903 
  205000    -205946.2    1.6046188   0.04686404    60.370608    60.567031    60.666732     205.3185 
  210000   -205775.64    1.6351591  0.048511624    60.710005    60.690746    60.285317    224.03209 
  215000   -205803.43    1.6517193   0.03298054    60.683575    60.711915    60.836928    242.67623 
  220000   -205817.65    1.5670208  0.025764798     60.84905    60.765925    60.830453    261.23491 
  225000      -205684     1.616789  0.025184402    60.737623    61.169549    60.792723    279.84283 
  230000   -205640.57    1.6381122    0.0245052    60.850602    60.920966     60.97244    298.53792 
  235000   -205307.13    1.5837463 0.0069759491     61.36325    61.141531    61.208036    317.16609 
  240000   -205255.88    1.5961001  0.012568107    61.030978    61.294835    61.276859    335.73029 
  245000   -205289.75    1.6026504 -0.0014129715    61.280124    61.363484    61.373447    354.28651 
  250000   -205269.62    1.5985607 -0.0036913863     61.10325    61.145524    62.137666    372.87825 
Loop time of 372.878 on 8 procs for 100000 steps with 2304 atoms

Performance: 46342.186 tau/day, 268.184 timesteps/s
91.6% CPU use with 8 MPI tasks x 1 OpenMP threads

MPI task timing breakdown:
Section |  min time  |  avg time  |  max time  |%varavg| %total
---------------------------------------------------------------
Pair    | 162.36     | 166.89     | 172.48     |  27.4 | 44.76
Bond    | 0.0078507  | 0.0091608  | 0.010994   |   1.0 |  0.00
Kspace  | 84.278     | 84.488     | 84.901     |   2.1 | 22.66
Neigh   | 22.348     | 22.526     | 22.602     |   1.8 |  6.04
Comm    | 9.3895     | 9.5728     | 9.8189     |   4.1 |  2.57
Output  | 0.00055805 | 0.00082367 | 0.0026379  |   0.0 |  0.00
Modify  | 69.003     | 83.857     | 92.207     |  87.4 | 22.49
Other   |            | 5.532      |            |       |  1.48

Nlocal:        288.000 ave         292 max         285 min
Histogram: 1 2 1 0 1 0 0 2 0 1
Nghost:        7218.12 ave        7229 max        7207 min
Histogram: 1 0 0 2 0 3 1 0 0 1
Neighs:         0.00000 ave           0 max           0 min
Histogram: 8 0 0 0 0 0 0 0 0 0
FullNghs:      308479.0 ave      312772 max      305024 min
Histogram: 1 2 0 1 1 0 0 2 0 1

Total # of neighbors = 2467834
Ave neighs/atom = 1071.1085
Ave special neighs/atom = 0.0000000
Neighbor list builds = 2819
Dangerous builds = 0
    unfix 1

    timestep 0.001
    dump moldump all custom 10000 ${xyzname} id type q x y z vx vy vz
    dump moldump all custom 10000 r8T1.6_coulombic_.04.lammpstrj id type q x y z vx vy vz
    fix 1 all   nph                 tri ${ppress} ${ppress} 1.0
    fix 1 all   nph                 tri 0 ${ppress} 1.0
    fix 1 all   nph                 tri 0 0 1.0
    run ${t_eq}
    run 5000000
PPPM initialization ...
  using 12-bit tables for long-range coulomb (src/kspace.cpp:340)
  G vector (1/distance) = 0.11907674
  grid = 30 30 30
  stencil order = 5
  estimated absolute RMS force accuracy = 0.00049619822
  estimated relative force accuracy = 0.00049619822
  using double precision KISS FFT
  3d grid and FFT values/proc = 8000 3600
  generated 0 of 1 mixed pair_coeff terms from geometric mixing rule
Per MPI rank memory allocation (min/avg/max) = 11.01 | 11.04 | 11.06 Mbytes
Step PotEng Temp c_press Lx Ly Lz CPU 
  250000   -205269.73    1.5985607 -0.0036951537     61.10325    61.145524    62.137666            0 
  255000   -205247.74    1.6035655 -0.007052058    61.577066    61.261064    61.577077    17.767723 
  260000   -205089.48    1.5700314 -0.00091345295    61.421341    61.630275    61.243145    35.563946 
  265000   -204972.51    1.6194072 -0.0051883016    61.409539    61.699623    61.523865    53.443139 
  270000   -205051.72    1.6284707 -0.0032252502    61.483385    61.549938    61.654025    71.317836 
  275000   -204910.14     1.588327 -0.0039427516    61.447464    61.532864    61.603803    89.192066 
  280000   -205012.71    1.5837491 0.0047527596    61.468194    61.393325      61.4503    107.00597 
  285000    -204735.9    1.5725104 0.00086633101    61.723881    61.342528     61.49057     124.8637 
  290000   -205078.61    1.5607627 0.0012803509    61.493056      61.3785    61.373439    142.70854 
  295000   -204816.83    1.6208459 -0.0029836677    61.134281    61.366363    62.022155    160.59176 
  300000   -204874.13    1.6014862 0.0064644714    61.624802    61.422289    61.192062    178.39652 
  305000   -205069.78    1.5802095 0.0026635093    61.117731    61.500972     61.62878    196.21586 
  310000   -205086.69    1.5719087 0.0002712633    61.538962    61.542986    61.206802     213.9841 
  315000   -204998.47    1.5510948 0.0043990653    61.528039    61.341538    61.376684    231.80381 
  320000   -205173.82    1.5936587 -0.0006929634    61.679048    61.354201    61.304602    249.64314 
  325000   -205029.37    1.5511352 -0.0053746722    61.484191    61.584701    61.555399    267.49088 
  330000   -204830.27    1.6154857 0.00072910365    61.408471    61.559152    61.646297    285.30845 
  335000   -204886.94    1.5882774 -0.0011868134    61.516871    61.470705    61.646122    303.15446 
  340000   -205088.22     1.657702 -0.0029961112    61.661325    61.485874     61.39749    321.07428 
  345000   -204891.21     1.623304 0.00086526075    61.434812    61.616311    61.447833    338.93299 
  350000   -204796.44    1.6294008 -0.0058895199      61.5833    61.607851    61.675728     356.8223 
  355000   -204885.31    1.6368211 -0.0015815261    61.674521    61.349359    61.622417    374.71542 
  360000   -205016.04      1.62301 -0.0050055271    61.512794    61.600174    61.583276    392.60731 
  365000   -205085.47    1.5187847 0.0015928826     61.44836     61.09216    61.747336    410.49078 
  370000   -204989.03    1.6389197 0.0043896839     61.51459     61.44382    61.409216    428.33986 
  375000   -204773.96    1.5753015 -0.0019842597    61.455932    61.754153    61.401149    446.23108 
  380000   -204835.49    1.5814108 0.0032844901    61.484711    61.352306    61.452826    464.09856 
  385000   -204670.59    1.6306913 0.0011856015    61.054579    61.570229    61.979832    481.88447 
  390000    -204797.6    1.5748505 0.0012404609    61.478366    61.769556    61.452594    499.69127 
  395000   -204639.38     1.620851 -0.0056535987     61.63337    61.711797     61.68849    517.49984 
  400000   -204876.23    1.5636401 0.0014754098     61.81781    61.526362    61.234916    535.39807 
  405000    -204843.8    1.5986206 -0.0068108459    61.322546    61.741961    61.767738    553.25668 
  410000   -204620.95    1.5863717 0.0041540805     61.72505    61.361488    61.438353    571.15109 
  415000   -204713.92    1.5669325 -0.0066913831    61.673116    61.548017    61.687717     588.9355 
  420000   -204925.66    1.5874676 0.0054292238    61.550497    61.346471    61.513881    606.86189 
  425000   -204776.32    1.6157462 0.0031120536    61.551922    61.332619    61.581768    624.72007 
  430000   -204793.15     1.602707 -0.0009254283    61.288894    61.758773    61.719446    642.60802 
  435000   -204817.84     1.618391 0.00092755767    61.379579    61.768272    61.523957    660.45587 
  440000   -204711.02    1.5738764 -0.0042615229    61.482974    61.887911    61.466264    678.29428 
  445000   -204686.87    1.6041007 -0.00068490748    61.466666    61.875941    61.515687    696.18085 
  450000   -204827.58    1.6096225 -0.00075977825    61.727076    61.531126    61.361539    713.99275 
  455000    -205061.1    1.5975682 0.0069469171    61.537177    61.345287    61.245587    731.89089 
  460000    -204937.7    1.5727248 -0.0012163523    61.427216    61.137165    61.815575    749.79716 
  465000   -204997.61    1.5741254 -0.0020163575    61.530435    61.436275    61.426759    767.74012 
  470000   -205035.37    1.5935951 0.00033256155    61.366139    61.576968    61.515338    785.69359 
  475000   -205015.95    1.5817013 0.0046075757    61.329145    61.381051    61.686066    803.68732 
  480000   -204852.19    1.5972215 0.0038299282    61.706821    61.370947    61.430721      821.591 
  485000   -204765.42    1.5573073 0.0048454553    61.385459    61.468919    61.537404    839.50391 
  490000   -204905.73    1.6061419 -0.00046250942    61.428491    61.546452    61.602488     857.3143 
  495000   -204923.17    1.6193511 0.0071408594    61.636601    61.447616    61.239656    875.21393 
  500000   -204950.97    1.6395048 0.00058356065    61.632666    61.434725    61.448615    893.03619 
  505000   -204919.84    1.6011689 0.0060758207    61.460408    61.378727    61.475071     910.8632 
  510000   -204866.25    1.6341048 0.0013545544    61.429326     61.40723    61.891388    928.67092 
  515000   -204910.45    1.5744654 -0.0013888002    61.586045    61.536947    61.459724    946.57344 
  520000   -204853.68    1.5958726 0.0033568334    61.331639    61.544351    61.661802    964.42882 
  525000   -204793.91    1.6161144 0.00089351648    61.526754    61.568922    61.518239    982.25208 
  530000   -205060.61    1.5909121 0.00070319973    61.516455    61.196249    61.806582    1000.0984 
  535000   -204973.32    1.6208212  0.005297786    61.327539    61.440715    61.524563    1017.9893 
  540000   -204893.02    1.6143205 -0.0021178475     61.62846    61.538161    61.557489     1035.908 
  545000   -205065.49    1.6137086 0.0010548356    61.648269    61.441252    61.350117    1053.7594 
  550000   -204987.09    1.6017089 -0.0048128189    61.415052    61.634933    61.638797    1071.5834 
  555000   -204627.21    1.5901365 0.0057927413    61.606937    61.542456    61.482741    1089.4883 
  560000   -205078.77    1.5778984 0.0032766443    61.530411    61.519014    61.315259    1107.2669 
  565000   -204872.19    1.5697678 -0.0034431184    61.673316    61.509797    61.470797    1125.0765 
  570000   -204907.12     1.594233 -0.0056153746     61.82136    61.682377    61.350167    1142.9679 
  575000   -204839.86    1.5775252 0.0051816051    61.536264    61.647595    61.263261    1160.8051 
  580000   -204870.12    1.6024249 -0.0012904319    61.478526    61.567839     61.52663    1178.5815 
  585000   -204989.94    1.6206757 0.0068730851     61.38024    61.211442    61.689988    1196.3917 
  590000   -205035.99    1.6230006 0.0020054744    61.412494    61.495731    61.442921    1214.2842 
  595000   -204979.71    1.5853868 0.0014376881    61.512141    61.274968    61.661775    1232.1153 
  600000   -204886.29    1.6745245 0.0022411168    61.737606    61.448438    61.365447     1249.972 
  605000   -205202.57    1.6132323 0.0058038609    61.340328    61.298383    61.404706    1267.8523 
  610000   -204896.44    1.6308455 0.0018055861     61.52205    61.482429    61.534805    1285.6816 
  615000   -205048.28    1.5927689 0.0081706518    61.485007    61.464784    61.223976    1303.4729 
  620000   -205048.23    1.6262482 -0.001770967    61.686948     61.36972    61.397412    1321.2937 
  625000   -205089.73    1.5762794 -0.0010037493    61.478667    61.598995     61.35093    1339.1287 
  630000   -205210.98    1.6306546 -0.0047664289     61.48318    61.285646    61.706744    1356.9722 
  635000   -204913.76    1.5823168 0.00050172046    61.484381    61.325924    61.700424    1374.8407 
  640000   -205048.14    1.6099371 0.0070891782    61.365203    61.413645    61.485551    1392.7115 
  645000   -205015.17    1.5747407 0.0049777485    61.340734    61.541653    61.447736    1410.5833 
  650000   -205007.18    1.6433301 0.0027715104     61.43986    61.324879    61.750501    1428.4316 
  655000    -205069.1    1.6423049 -0.0033675469    61.545242    61.311477    61.711835    1446.2817 
  660000    -205219.2    1.5840563 -0.0017215173    61.283133    61.580432    61.372208    1464.1375 
  665000   -205021.88    1.5710112 -0.0022991385    61.512478    61.499669    61.282205    1481.9957 
  670000   -205000.87    1.6277219 -0.00096750239    61.399081    61.497901     61.61869    1499.8763 
  675000   -205094.86    1.5992784 -0.0040301916     61.45755    61.561764    61.400664    1517.7076 
  680000    -204861.7    1.5573778 -0.0040898259    61.638631     61.40608    61.645736    1535.4889 
  685000   -204574.95    1.5802792 0.0038501624    61.510601    61.611892    61.457289    1553.2787 
  690000   -204916.06     1.607748 0.00068591195    61.433585    61.546136     61.39619    1571.1112 
  695000   -205025.64    1.5901109 0.0034318271    61.580459    61.425074     61.23412    1588.8898 
  700000   -204856.84    1.6253431 0.0013299986    61.652123    61.376438    61.254785    1606.6732 
  705000   -204710.32    1.5656817 0.0080223998    61.567733     61.46706    61.274176    1624.5074 
  710000   -204937.44    1.6153371 -0.0051420176    61.315523    61.530074    61.706121    1642.4014 
  715000   -205026.79    1.6012042 -8.1572995e-05    61.323734    61.298643    61.769006    1660.3031 
  720000   -205202.27    1.6249329 0.0068190495    61.180303    61.417063    61.436531    1678.1598 
  725000   -205149.48    1.6384541 0.0031523041    61.475616    61.346956    61.227794    1695.9767 
  730000   -204978.84     1.570695 0.0036871832    61.521347     61.28846     61.49362    1713.8957 
  735000   -205193.36    1.5757848 0.0010721946    61.381213    61.446958     61.23778    1731.7966 
  740000   -204969.27    1.5929385 0.0078490123    61.506517    61.232541    61.352465    1749.6186 
  745000   -204846.73    1.6461681 0.0027147731    61.491802    61.583898    61.428708    1767.4483 
  750000   -204967.19    1.6005841 -0.0012631246    61.682476    61.308791    61.394321    1785.3475 
  755000   -205205.32    1.6106249 0.0018224892    61.318286    61.518807    61.489836    1803.2315 
  760000   -205094.29    1.5851046 0.0010021739    61.684357     61.48816    61.285507    1821.1908 
  765000   -204858.36    1.6261822 -0.004846983    61.800661    61.528944    61.466544    1839.0345 
  770000    -204923.1      1.56471 -0.0043286724    61.532153    61.830055    61.338752    1856.8522 
  775000   -204774.42    1.5775614 -0.0041620584    61.620719    61.678061    61.607865    1874.6402 
  780000   -204971.64    1.6105728 0.0010940783    61.695028    61.405033    61.335117    1892.4698 
  785000    -204951.1    1.5863144 5.8788297e-05    61.550036    61.471273     61.40834    1910.3036 
  790000   -204884.73     1.633944 0.0044555295    61.652173    61.242773     61.50993    1928.1765 
  795000   -205178.79    1.5963618  0.003413679    61.303036     61.53187    61.446011    1946.0356 
  800000   -205056.15    1.6056353 0.0039207316    61.289089    61.131884    61.775666    1963.9544 
  805000   -204901.75    1.6377729 -0.0021450925    61.786903    61.277267    61.510024     1981.778 
  810000   -204936.95    1.5619002 -0.0069096399    61.712192    61.636583    61.409204    1999.6108 
  815000   -204946.08    1.5901876 -0.002288906    61.621144    61.485819    61.533745    2017.4249 
  820000   -205180.23    1.6271321 -6.1030577e-05    61.499978    61.490275    61.293254    2035.3439 
  825000   -205152.03    1.5778724 -0.0046601441    61.587192    61.372148    61.445326    2053.2969 
  830000    -204957.6    1.6037463 -0.0045700998     61.49679    61.244857    61.835655     2071.131 
  835000   -205184.03    1.5752624 -0.0063853287     61.23647    61.605543    61.589026    2088.9765 
  840000   -205120.37      1.57978 -0.0040044149    61.386323    61.525902    61.287503    2106.7658 
  845000   -205208.45    1.6299006 -0.0027182996    61.379045    61.465272    61.446043    2124.7046 
  850000   -205156.24    1.5707285 0.0018889908    61.259437    61.546988    61.347289    2142.5692 
  855000   -205045.89    1.5638847 0.00088415655    61.531119    61.566198    61.229598    2160.5023 
  860000   -205080.78     1.621111 0.0022381355    61.399409    61.324809    61.381376    2178.3761 
  865000   -205137.17    1.6070148 0.00054434863    61.531929    61.329724    61.439572    2196.2231 
  870000   -205205.72    1.6374242 -0.0028348069      61.2946    61.448038    61.633472    2214.1239 
  875000   -204941.38    1.6034081 -0.0016555515    61.142035    61.581507    61.619316    2232.0622 
  880000   -205007.64    1.5789344 0.0023626781    61.536721    61.579626    61.290402    2249.9522 
  885000   -205106.58    1.5742913 0.0001875463    61.316016    61.348859    61.608408     2267.794 
  890000   -205145.59    1.6105503 -0.002005012    61.553052    61.362075    61.285425    2285.6858 
  895000   -205033.67    1.6195077 -0.0070891259    61.503818    61.658074    61.516011    2303.5207 
  900000   -205150.74    1.6360816 0.0060535201    61.257841    61.492134    61.238442    2321.2756 
  905000      -205108    1.6355131  0.001571055    61.290502    61.523339    61.495584     2339.117 
  910000   -205085.67    1.5859945 -0.0010405801    61.326825    61.727386    61.264553    2356.9416 
  915000   -205085.64    1.5690417 -0.0039668454    61.838423    61.418047    61.365779     2374.753 
  920000   -205117.51    1.5988797 -0.00077073041    61.405312     61.75811    61.340173    2392.6809 
  925000   -205095.65    1.6147203 -0.0057127563    61.433884    61.579778    61.629251    2410.4786 
  930000   -204943.93     1.650542 0.0010709071    61.378976    61.614362    61.629356    2428.3533 
  935000   -204932.38    1.6420802 -0.0021121736    61.412658    61.521243    61.709453    2446.2995 
  940000   -205004.55    1.5929306 -0.0039631172    61.434056    61.544207    61.510672    2464.2325 
  945000   -205029.89      1.60493 0.0022307113    61.546203    61.218936    61.639523    2482.1231 
  950000   -205059.01    1.6609382 0.00032907001    61.361513    61.552884    61.500544    2499.9172 
  955000   -204963.33    1.6119811 0.0045615673    61.449727    61.526972    61.480473    2517.7955 
  960000   -205061.13    1.6116313 -0.0035200308    61.340476    61.615775    61.521756    2535.6232 
  965000   -204956.13    1.5906178 0.0023967196      61.5934    61.365687    61.513531    2553.4915 
  970000   -205175.65    1.5562813 -0.0019370997    61.506959    61.441171    61.373944    2571.3571 
  975000   -205197.23    1.6404803 -0.006225383    61.443661    61.843044    61.271682    2589.1563 
  980000   -205049.11    1.5777373 -0.001689052    61.701792    61.250413    61.607389     2606.999 
  985000   -205050.06    1.6342896 -0.0047605131    61.599815    61.079602    61.710179    2624.8684 
  990000   -204973.98    1.5603249 0.0015876292    61.486862    61.402341    61.484797    2642.7762 
  995000   -205178.94    1.5737187 0.0028743289    61.556489    61.270123    61.415994    2660.6584 
 1000000   -205064.49    1.5806893 0.0072032665    61.338684    61.481843    61.282472    2678.5073 
 1005000   -204915.72    1.5950457 0.00082335339    61.711729    61.551453    61.289173    2696.3167 
 1010000   -205104.42    1.5762216 -0.0060271335    61.576794    61.352928    61.566093    2714.1569 
 1015000   -204935.27    1.5826735 0.00096169794    61.384303    61.586673    61.531416    2732.0544 
 1020000   -205041.45    1.5878237 0.00085198074    61.561629    61.565346     61.26879    2749.7949 
 1025000   -205015.37    1.6386856 -0.0019224447    61.544133    61.562959     61.43862    2767.6672 
 1030000   -205041.57    1.5730788  0.001374605    61.521583    61.323295    61.478283    2785.5533 
 1035000   -205033.29    1.5948127 -0.0051824495    61.652356    61.499974    61.374674    2803.4502 
 1040000    -204883.1    1.5736975 -0.0046046682     61.41992    61.510616    61.597464    2821.3197 
 1045000   -204936.57    1.6038433 -0.00058608181    61.435887    61.564548    61.483727    2839.1701 
 1050000   -205001.64    1.6035894 0.0044596451    61.167979    61.498609    61.650495    2857.0318 
 1055000   -205257.13    1.5945487 0.0004096764    61.417191    61.392607    61.395214    2874.8955 
 1060000   -205271.31    1.6265312 -0.0066723704      61.4916    61.329727    61.589675    2892.7445 
 1065000   -205127.52     1.626774 8.8863095e-05    61.562153    61.371584    61.307634    2910.6713 
 1070000   -204912.73    1.5885716 0.0024410162     61.62869    61.114717     61.60284    2928.5517 
 1075000   -205010.71    1.5978286 -0.00024405847    61.539039    61.372942    61.379905    2946.4261 
 1080000   -205040.62    1.5840902 -6.9157307e-05    61.459371    61.440133    61.338887    2964.3971 
 1085000   -204750.94    1.6117108 -0.0043336032    61.543097    61.570371     61.74907    2982.2993 
 1090000   -204939.72    1.5901298 0.0067291936    61.493735    61.168308    61.507747    3000.1551 
 1095000   -204906.45    1.6269646 0.0028344956    61.339388    61.548017    61.430903    3017.9923 
 1100000   -204826.93    1.6423675 0.0018977107    61.770684    61.604312    61.189511    3035.8666 
 1105000   -204830.93    1.6153079 0.00033625263    61.626764    61.835919     61.33968    3053.7112 
 1110000   -204849.37     1.587716 -0.0007723727     61.67156    61.592255    61.350935    3071.5482 
 1115000    -204785.6    1.5883245 -0.0014478749    61.760314    61.424704    61.595503    3089.4139 
 1120000   -204902.72    1.6351677 -0.0051628897    61.580059    61.247321    61.833414    3107.2964 
 1125000   -204952.96    1.5893739 0.0079043215    61.281938    61.496874    61.315226    3125.1438 
 1130000   -204968.42    1.5523528 -0.003332629    61.435111      61.5865    61.488154    3143.0013 
 1135000   -205035.82    1.5733623 -0.0015864658    61.445055    61.421436    61.583351    3160.8789 
 1140000   -204972.48    1.5741109 -0.001331729    61.589851    61.237635    61.657744    3178.7078 
 1145000   -205135.78    1.5941799 0.0032662984    61.453611    61.467015    61.396033    3196.5743 
 1150000   -205079.12    1.6074104 -0.00098583483    61.371625    61.516808    61.522272    3214.3817 
 1155000   -205075.77    1.5752417 -0.0064650045     61.65987    61.499489    61.413762    3232.2454 
 1160000   -204952.63    1.5700482 0.00059853585    61.413982    61.501003     61.56181    3250.1047 
 1165000   -205106.22    1.5741929 0.0012494551    61.503216    61.549453    61.241396    3267.9747 
 1170000   -205034.22    1.6048136 -0.0028167846    61.593754    61.444782    61.474129    3285.8883 
 1175000   -205015.56    1.6049507 -0.0044500392    61.622179    61.638943    61.473338    3303.8298 
 1180000   -205029.58    1.5870063 0.0007577111    61.399018    61.422628    61.663667    3322.6288 
 1185000   -204824.76     1.627055 -0.0044363008    61.679912    61.406854    61.744278    3342.1646 
 1190000   -205175.31    1.5972694 -0.0046574459    61.443146    61.492875    61.619224    3361.7235 
 1195000   -205021.77    1.5452089 0.0003523445    61.533606    61.281651    61.606147    3381.2432 
 1200000   -205013.84    1.5493284 0.0058889079     61.45974    61.431656    61.293398    3400.8898 
 1205000   -204904.07    1.5989777  0.003166503    61.630418    61.567811    61.334907    3420.4314 
 1210000   -204865.38    1.6333775 0.0025936084    61.155381    61.569388    61.808065    3440.0652 
 1215000   -204930.28    1.5890072 -0.0012669347    61.303262    61.805832    61.449804    3459.6703 
 1220000   -204890.99    1.6315112 0.00083560575    61.392294    61.491058    61.477019     3479.256 
 1225000   -204912.16    1.5719927 -0.0018493184    61.638058    61.427116    61.434093    3498.9184 
 1230000   -204853.88    1.5537615 0.0062199535    61.530715    61.446169    61.259327    3518.5355 
 1235000   -204856.59    1.5935441 -0.0046560329    61.789989    61.642334    61.414266    3536.5302 
 1240000   -204789.79     1.589476 0.0031642125     61.41955    61.579283    61.554368    3555.9503 
 1245000   -204745.83    1.5536007 -0.0016776967    61.303771    61.679434    61.798335    3575.6658 
 1250000   -204720.03    1.6401617  0.004818943    61.461601    61.716594    61.347087    3595.3309 
 1255000   -204748.74    1.6007565 -0.00018736099    61.427132    61.643366    61.478255     3614.982 
 1260000   -205060.61     1.574428  0.002010482    61.449079    61.434313    61.488074    3634.6534 
 1265000   -204877.65    1.6053459 -0.0023315867    61.389039    61.572153    61.688515    3654.3098 
 1270000   -204924.63    1.6120017  0.002561249     61.43931    61.487682    61.353882    3673.8581 
 1275000   -204903.79    1.6216224 -0.0033543249    61.664287    61.522107    61.399482    3693.4797 
 1280000   -204846.98    1.5925038 0.00018228462     61.28806    61.614007    61.529477    3713.1094 
 1285000   -205012.15    1.6209907 -0.002772628    61.273459    61.549594    61.694429    3732.6971 
 1290000    -205019.2    1.6008087 0.0031899038    61.364262     61.39498    61.495262    3752.2782 
 1295000    -204975.6    1.5531632 -0.00089182382    61.542119    61.400419     61.43875    3771.8915 
 1300000   -204679.43    1.6209989 -0.0010816373    61.392835    61.598805    61.650246    3791.4863 
 1305000    -204824.3    1.5888116 0.00013140587    61.533835    61.586099    61.666466    3811.1457 
 1310000   -204743.84    1.6224771 -0.0024001957    61.576035    61.681874    61.649447    3829.6887 
 1315000   -205045.95     1.608843 -0.00076458563    61.724811    61.419555     61.52057    3848.6303 
 1320000   -204619.72    1.5746598 0.0010265749    61.794336    61.576181    61.382406    3868.1421 
 1325000   -204742.45    1.6319996 -0.001047834    61.514803    61.586628    61.634492    3887.6747 
 1330000   -204729.53    1.6100743 0.00057538995     61.59895    61.711948    61.508184     3907.146 
 1335000   -204791.82    1.6468011 0.0043754314    61.704524    61.565489    61.295694    3926.6641 
 1340000   -204923.29    1.6016632 0.0024326568    61.733927    61.457665    61.186574    3946.3993 
 1345000   -204706.77    1.5920398 -0.0055643068    61.618637    61.599114     61.75182    3966.0184 
 1350000   -204669.74    1.5794656 0.00061624516     61.54236    61.747799    61.660967    3985.6161 
 1355000   -204869.44    1.6115153 -0.00016482919    61.689532    61.279749    61.642006    4005.1354 
 1360000   -204643.88    1.5885816 0.0016793857    61.476731    61.751395    61.554823    4024.7829 
 1365000   -205028.66    1.6464718 -0.0014598501    61.494021     61.57462    61.470486    4044.3744 
 1370000   -205013.41    1.5654502 0.0044165319    61.370184    61.309363    61.623908    4063.9068 
 1375000   -205142.24    1.6140738 0.00090545488     61.60671     61.08946    61.569839    4083.4975 
 1380000   -204932.89     1.612048 0.0058115683    61.374493     61.45937    61.319626    4103.1002 
 1385000   -205022.38    1.5866813 -3.4743812e-05    61.383276    61.471164    61.397781    4122.8426 
 1390000   -204935.51    1.6012832 0.0038632045    61.358384    61.413635    61.556647    4142.4508 
 1395000   -205092.69    1.6033964 -0.0021012762    61.598583    61.488005    61.241347    4162.0596 
 1400000   -204979.94    1.6302531 0.0010274715    61.288921    61.541525    61.569883    4181.5603 
 1405000    -205044.1      1.58427 0.0050800234    61.532929    61.326081    61.359547    4201.1551 
 1410000   -204899.07     1.608772 -0.002834065    61.588313    61.788169    61.322052    4220.8348 
 1415000    -205004.8    1.6458222   -0.0016359    61.482054    61.523274    61.395233     4240.406 
 1420000   -204877.37    1.6091759 0.0088849162    61.331343    61.537027    61.380363    4260.0161 
 1425000   -204902.52    1.5630998 -0.0052175062    61.573056    61.450178    61.636751    4279.5871 
 1430000   -204822.56     1.654635 0.0018447459    61.771118    61.381879    61.504994    4299.2434 
 1435000   -204797.98    1.5895075 0.0026642273    61.487302    61.461746    61.662801    4318.9208 
 1440000   -205043.52    1.5964629 0.0014158265    61.457032    61.635499    61.321145    4338.4529 
 1445000    -205183.5    1.6084812 0.0013052685    61.422269    61.327523    61.406733    4357.9892 
 1450000   -204930.31    1.6144841 -0.0028943072    61.565993    61.459408    61.542135     4376.579 
 1455000   -204876.47    1.5814354 0.0042876496    61.355443    61.321943     61.66157    4395.0788 
 1460000   -204619.88    1.5600158 -0.006009945    61.793318    61.573555    61.569943    4414.6891 
 1465000      -205031    1.6053952 0.0037217449    61.438352    61.557685    61.304247    4434.3337 
 1470000   -204893.46    1.6050322 0.0031634797    61.504628    61.397902    61.500206    4453.9094 
 1475000   -204902.74     1.629422 -0.00052605772     61.52226    61.629937    61.401636    4473.5713 
 1480000   -205098.68      1.60252 0.00057755902    61.371223    61.602073    61.363421    4493.2591 
 1485000   -204916.59    1.5707575 -0.0021076161    61.569628    61.682426    61.340294    4512.9084 
 1490000   -204937.83    1.5950496 0.0042953968    61.431534    61.438986    61.490089    4532.5319 
 1495000   -204819.86    1.6030716 -0.0015496936    61.356209    61.547204    61.839014    4552.0489 
 1500000   -205067.39    1.5855269 -0.0059706975    61.381467    61.881856    61.464949    4571.6654 
 1505000   -204975.95    1.5539721 -0.0035958027    61.501227    61.621626    61.496928    4591.2323 
 1510000   -205048.47    1.5844209 -0.00028599585    61.492804    61.461627    61.439029    4610.8712 
 1515000   -204918.58    1.6157611 -0.0031584105    61.545919    61.562465    61.436445    4630.5012 
 1520000   -204891.92    1.5817283 0.0046353411    61.681153    61.447272    61.204374    4650.2005 
 1525000   -204851.55    1.5804105 -0.0012057467    61.707752    61.444015    61.546152    4669.8384 
 1530000   -204846.61    1.5797904 0.0058201619    61.423289    61.497076    61.444707    4689.4533 
 1535000   -205003.68    1.6024912 -0.0020430941    61.410144    61.572294    61.476802    4708.9898 
 1540000   -204922.38    1.5880869 -0.0031208365    61.520658    61.576669    61.481578    4728.5764 
 1545000   -204848.14    1.6010121 0.0020778848    61.362208    61.442414    61.508951    4748.1874 
 1550000   -204924.13    1.6152196 -0.0065136852    61.680158     61.55965    61.503125    4767.8238 
 1555000   -204766.28    1.6350689 -0.0027834665     61.59037    61.681064    61.437758    4787.3743 
 1560000   -204646.79    1.5897806 0.0040058284    61.478547    61.729968     61.49614     4806.939 
 1565000   -204829.18    1.6524458 0.0014628542    61.494574    61.479801    61.529407    4826.5304 
 1570000   -204755.61    1.6080944 0.0044448993    61.365257    61.671867      61.4325    4846.2179 
 1575000   -204892.03     1.625717 0.00012109494    61.621514    61.595518    61.466628    4865.8706 
 1580000   -204910.76    1.6016964 0.0028140249    61.548519    61.612327    61.388228    4885.4622 
 1585000   -205037.29    1.5835413 0.00025424399    61.310342    61.569234    61.586173    4905.1901 
 1590000   -204852.41    1.6506485 -0.0031892157    61.793861    61.558149     61.55167    4924.8107 
 1595000   -204859.02    1.5928329 6.9817062e-05    61.593948    61.486544    61.486464    4944.4477 
 1600000   -204955.96    1.6439387 0.00065892977    61.193212    61.745073    61.622973    4964.0391 
 1605000   -205041.71    1.5692859 -0.0085820672    61.450845    61.625189    61.619827    4983.5658 
 1610000   -205023.78     1.605374 0.0053468422    61.423063    61.428058    61.442509    5003.0855 
 1615000      -205070    1.5711969 -0.002359754    61.540233    61.540343    61.437631    5022.6915 
 1620000   -205029.75    1.5649652 -0.00034133455    61.514401    61.575877    61.451057    5042.3364 
 1625000   -205050.11    1.6073046 0.0009295162    61.335596    61.951132    61.244359    5061.8591 
 1630000   -205098.17    1.5753115 0.0020807121    61.273374    61.512004    61.532033    5081.3965 
 1635000    -205164.9    1.5792032 0.0054266763      61.3012    61.315436     61.42029    5101.0882 
 1640000   -205066.11    1.5986728 -0.0011652791    61.397463    61.534091    61.395014     5120.725 
 1645000   -205208.15    1.6142921 0.0040224264    61.399595    61.449087    61.306355    5140.3983 
 1650000   -205142.02    1.6073649 0.00095722389     61.56705    61.304502    61.504786    5159.9881 
 1655000    -205108.7    1.5642455 0.0038253859    61.247842    61.532265    61.415212     5179.729 
 1660000   -205060.58    1.5689169 0.0018291318    61.606442    61.557749    61.369417    5199.4521 
 1665000   -205238.66    1.6197364 0.0069984182    61.301494    61.333363     61.45379    5219.0488 
 1670000   -204773.93    1.6056045 0.0015784286    61.682574    61.553856    61.495869    5238.7092 
 1675000   -204850.03    1.6424083 -0.0013559362    61.672222    61.574725    61.449599     5258.297 
 1680000   -204956.45    1.6139263 -0.0023031372    61.644154    61.563615    61.427108    5277.9312 
 1685000   -205112.72    1.5759893 0.00056459492    61.327523    61.481865    61.640187     5297.613 
 1690000   -205103.61    1.6036888 0.0031172531    61.281584    61.453105    61.575317    5317.2585 
 1695000   -205012.12     1.571646 -0.00021633291    61.490756    61.706283    61.277277    5336.8397 
 1700000   -205126.57    1.5862941 -0.0022440025     61.58429     61.43244    61.475474    5356.4501 
 1705000   -204815.98    1.5690455 0.0029846619    61.579328    61.499281    61.281917    5376.1041 
 1710000   -205019.03    1.6405744 -8.5556299e-05    61.525114    61.357027     61.50183    5395.7582 
 1715000   -205120.34    1.5821388 0.0036062806      61.4827    61.150995     61.40753    5415.3908 
 1720000   -205011.58    1.6010029 -0.00063722362    61.545923    61.400619    61.414228    5435.0225 
 1725000   -204846.42    1.5987295 -0.0019447624    61.500607    61.744491    61.546073    5454.6254 
 1730000   -204988.64    1.5893149 -0.0035111698    61.264271    61.870547    61.365027    5474.1533 
 1735000   -204931.99    1.5838618 0.0012566542    61.637205    61.442708    61.285044    5493.7363 
 1740000   -204934.56    1.5838851 -0.00037096548    61.564415    61.425303    61.505449    5513.3158 
 1745000   -204980.09    1.6635429 0.0033843029    61.460977    61.545648    61.458202    5532.8935 
 1750000   -204742.48    1.5643461 0.0016877396    61.573573    61.464338     61.57783     5552.431 
 1755000   -204736.89     1.620348 0.0081362905     61.50039     61.49492    61.472003    5571.9138 
 1760000   -204579.85    1.6311085 -0.0031813393    61.580291    61.757089    61.702564    5591.5011 
 1765000   -204680.55    1.6157214  0.001156685    61.467579    61.495722    61.673428    5611.1735 
 1770000   -204751.82    1.5960974 0.0018493125    61.675825    61.642093    61.310637    5630.7949 
 1775000   -204832.61    1.5723587 0.0031559105    61.513101    61.315625    61.788578    5650.4709 
 1780000   -204540.89    1.5751879 0.0009315971    61.691671    61.635542    61.586631    5670.0164 
 1785000   -204802.69    1.5702659 -0.0022934776    61.653933    61.369384    61.714274    5689.6312 
 1790000   -204931.47     1.597743 -0.0018204378    61.638084    61.532135    61.409053    5709.2316 
 1795000   -204914.05    1.5712077 -0.00012439313    61.392673     61.79974    61.313505    5728.8293 
 1800000   -204886.15    1.5725067 -0.003310621    61.594319    61.607328    61.552649    5748.3663 
 1805000   -204825.36    1.6434767 0.00042003693     61.48268    61.753041    61.488758    5768.0255 
 1810000   -204713.81    1.5777195 0.0037764569    61.146854       61.553    61.880481    5787.6952 
 1815000   -204914.86     1.604538 -0.0020157278    61.642037    61.583266    61.556896    5807.2579 
 1820000   -204859.91    1.6016879 0.0042166418    61.496561     61.45607    61.549671    5826.8796 
 1825000    -204916.7    1.5953263 -0.0057662335    61.887464    61.263237    61.642426    5846.5604 
 1830000   -204885.58    1.5588538 -0.00089490898    61.410883    61.538607    61.537363    5866.1717 
 1835000    -204910.8    1.6104964 -0.0012943889    61.679078    61.560989    61.416507    5885.7655 
 1840000   -204830.87    1.6030864 0.0012945988    61.534069    61.546145    61.619188    5905.2856 
 1845000    -204902.7    1.6134697 -0.00066281854    61.393043    61.574756    61.507107    5924.8618 
 1850000   -204909.02    1.5982453 0.0045084274    61.455152    61.277588     61.60524    5944.4928 
 1855000    -204730.6    1.5450386 -0.0028468622    61.397237    61.501987     61.95036    5964.1122 
 1860000   -204918.82    1.5741985 0.00050945757    61.447618    61.469014    61.588123    5983.7509 
 1865000   -205020.41    1.5648227 -0.007520001    61.568057    61.568928    61.449796    6003.4097 
 1870000   -205068.47    1.6178868 -0.00099841344    61.483826    61.531722    61.423171    6023.1824 
 1875000   -204966.25     1.612833 -0.0061527197    61.533518    61.694819    61.444803    6042.8212 
 1880000   -204956.96    1.5964205  0.003019115    61.430139    61.472296     61.44293    6062.4712 
 1885000   -205145.54    1.6330787 0.00067584572    61.315693    61.636853    61.376085    6081.9681 
 1890000   -205073.59    1.6021819 0.00048385853    61.377933     61.41506    61.540316    6101.7021 
 1895000   -205129.51    1.6512731 -0.0017352841    61.381821    61.394035    61.648439    6121.2674 
 1900000   -204852.19    1.6404389 -0.0026778019    61.563814    61.513867    61.601043    6140.8821 
 1905000   -204694.59    1.6055911 -0.0047674414    61.409801     61.80708    61.540117    6160.5309 
 1910000   -204824.24    1.6030652 0.0047553413    61.516698    61.360106    61.540376    6180.1307 
 1915000   -204782.41     1.586796 -0.0020580169     61.46422    61.483986    61.762756    6199.7021 
 1920000   -204812.23    1.6176356 0.00028716893    61.440398    61.783334    61.489944    6219.3328 
 1925000   -204943.07    1.5827384 -0.0027958197     61.44509    61.639866    61.581918    6238.9076 
 1930000    -205125.8    1.6403265 -0.002027958    61.464302    61.565023    61.374006     6258.565 
 1935000   -204924.72     1.600505 0.00085658493    61.547086    61.396595    61.517206    6278.0404 
 1940000   -204850.52    1.5858277 -0.0036412726     61.56918    61.557196    61.400828    6297.6006 
 1945000   -204789.93    1.5734981 -0.0077771893    61.480462    61.726218    61.553366    6317.2624 
 1950000   -204775.71    1.5755309 -0.0017354315    61.779706    61.320933    61.634287    6336.9159 
 1955000   -204851.73    1.5816571 -0.00099729757    61.840974     61.44661    61.405678    6356.5556 
 1960000   -204906.62    1.5575017 -0.0040638499    61.592126    61.568078    61.568471    6376.1619 
 1965000   -204772.54    1.5469419 -0.0033436565     61.39156    61.553482    61.716888    6395.7436 
 1970000   -204988.27    1.6379927 -5.3541859e-05      61.5413    61.341662    61.637533     6415.285 
 1975000   -204952.72    1.5946332 -0.0028111198    61.556533    61.523465    61.530647    6434.8079 
 1980000   -205266.87    1.5830707 0.00095998278    61.262881    61.316013    61.616884    6454.2952 
 1985000   -205030.19    1.5935693 0.00047155801    61.375613    61.621491    61.338355     6473.888 
 1990000   -205160.94    1.6281226 0.0010776394     61.49713     61.57719    61.253214    6493.4825 
 1995000    -205021.2    1.6013735 -0.0012798599    61.408994    61.553926    61.412002    6513.1452 
 2000000    -205023.9    1.6058967 -0.00068794342    61.525738    61.342228    61.342968    6532.6452 
 2005000   -205056.56    1.6311755 -0.0031912049    61.522483    61.521631    61.438677    6552.2633 
 2010000    -204815.3    1.5844171 0.0012917651    61.389117    61.801735    61.344018    6571.9271 
 2015000   -205027.71    1.5471365 -0.0030373396    61.545031    61.683681    61.276667    6591.5795 
 2020000   -205053.57    1.5884469 -0.0019995732    61.309507    61.691794    61.532247    6611.3283 
 2025000    -205074.4     1.597805 0.0043222458    61.462233    61.264423    61.407658    6630.8859 
 2030000   -204921.59    1.6390869 0.0057157424    61.518692    61.316141    61.340819     6650.497 
 2035000   -204950.82    1.6168169 -0.011900696    61.730554    61.605161    61.543712    6670.0584 
 2040000    -205031.4    1.5827913 0.0032360559    61.479173    61.404926    61.433841    6689.5583 
 2045000   -205031.64    1.6185443  -0.00488891    61.462055    61.489303    61.574182    6709.1458 
 2050000   -204878.71    1.5780808 0.0012399554    61.485775     61.41818    61.583987    6728.8197 
 2055000   -204966.34    1.5825468 -0.0038550437     61.82815    61.460194    61.437028    6748.5384 
 2060000   -204945.41    1.6109244 0.0032813881    61.591063    61.494303    61.327163    6768.1491 
 2065000   -205035.25    1.6821006  0.001660247    61.561968    61.500424    61.484909    6787.7537 
 2070000   -204892.13    1.5869966 0.0014120589    61.641551     61.65124    61.318117    6807.2504 
 2075000   -204947.17    1.6369087 -5.4526959e-06    61.461727    61.499801     61.55908     6826.882 
 2080000    -205055.8     1.624135 -0.00073702014    61.434188    61.381171    61.557357    6846.5508 
 2085000   -204910.29    1.6290235 -0.0029089536    61.524612    61.305897    61.741693    6866.2143 
 2090000   -204781.77    1.6428616 0.0020295456    61.672464    61.401077    61.549083    6885.7451 
 2095000   -204735.23    1.6336065 0.0038880565    61.395399     61.67901    61.503968    6905.3576 
 2100000   -205003.42    1.6230188 -0.00048053277    61.679718    61.213592    61.482762    6925.0001 
 2105000   -205084.12      1.58435 -0.0024512217    61.484522    61.524218    61.460755    6944.7594 
 2110000   -205121.59    1.5876822 0.0010260828    61.532481     61.19255    61.514411    6964.3352 
 2115000   -205115.15     1.609143 0.00062972606    61.497848    61.218253    61.454784     6983.922 
 2120000    -204938.3      1.64958 -0.0012265291    61.592168    61.185999    61.687415    7003.5818 
 2125000   -205182.41    1.6337401 -0.001612165    61.515048    61.390005    61.432535    7023.1573 
 2130000   -204752.45    1.6155578 0.0062980082    61.308775    61.570123    61.483792     7042.794 
 2135000   -204742.61    1.5999823 -0.0072532545    61.687751    61.567138    61.596568    7062.2818 
 2140000   -204978.74    1.5940688 -0.0035689882    61.463886    61.553123    61.569414    7081.9026 
 2145000   -204890.43    1.6396059 0.0063953237    61.485736    61.261535    61.732143    7101.5351 
 2150000   -204999.48    1.6144059 -0.00059571981    61.424268    61.593131    61.492068    7121.1737 
 2155000    -204816.5    1.5622341 -0.0022970862    61.703279    61.478082    61.617343    7140.8204 
 2160000   -204813.67    1.5694398 0.0029854785    61.604751    61.374304      61.4236    7160.4247 
 2165000   -204944.47    1.6406822 0.00019841817    61.607174    61.438417    61.470144    7180.0655 
 2170000   -205033.94    1.6237279 0.0032023033     61.38739     61.52933    61.346705     7199.695 
 2175000   -205065.89    1.5849037 -0.0070993097    61.329263    61.476624    61.720524    7219.2902 
 2180000   -205012.71    1.5484429 -0.0016424135     61.50168    61.637577     61.29569    7238.8894 
 2185000   -204925.34     1.626575 -0.0050341279    61.548852    61.605949    61.583747    7258.4789 
 2190000   -204827.56     1.578362 0.0058285082     61.59252    61.315867    61.488232    7278.1063 
 2195000   -204874.77    1.6269538 -6.9648348e-05    61.458512    61.430318     61.61851    7297.7428 
 2200000   -204632.65    1.5436314 -0.0012499509    61.544654    61.784741    61.454497    7317.4131 
 2205000   -204783.41    1.6061596 -0.0043575523    61.772818    61.656124    61.366035    7336.9725 
 2210000   -204966.41    1.5932809 -0.0026935272    61.397944    61.537054    61.603625    7356.5078 
 2215000   -204928.51    1.6277162 0.0025285821    61.522967    61.517124    61.458617    7376.1334 
 2220000   -204877.39    1.6370755 -0.0025741817    61.565011    61.436651    61.769753    7395.6702 
 2225000   -205016.75    1.5946428 -0.00094502155    61.553167    61.611387    61.245141    7415.1661 
 2230000   -205027.92    1.5626919 -0.00079987779    61.696107     61.35815    61.495112    7434.7531 
 2235000   -205117.45    1.6237444 0.0073609177     61.19063    61.307744    61.643637    7454.3137 
 2240000   -204961.54     1.605557 0.0075668444    61.412629    61.391169    61.388505    7473.8887 
 2245000    -204979.3    1.5798124 0.00089500471    61.443233    61.163707    61.663406    7493.5439 
 2250000    -204936.6    1.5961359   0.00111981    61.462062    61.404303    61.565837    7513.1294 
 2255000   -204952.81    1.5773582 -0.0029513421    61.253057    61.579912    61.631659    7532.8482 
 2260000   -204835.36    1.5562613 -0.0034570058    61.627506    61.562966    61.451785    7552.5562 
 2265000   -204881.35    1.6229792 0.0037774407    61.494893    61.473395    61.528003    7572.1353 
 2270000   -204815.39    1.6462267 0.00039326768    61.360298    61.564066    61.732401    7591.8384 
 2275000   -204593.79    1.5908647 0.0028138772    61.602752    61.452398    61.770149    7611.4841 
 2280000   -204642.31    1.5761077  -0.00249922     61.61385    61.750594    61.464194     7630.978 
 2285000    -204533.8    1.5594885  0.001938822    61.542378    61.613317    61.597553    7650.5641 
 2290000   -204603.02    1.5663671 0.0036195677    61.789574    61.593927    61.381173    7670.1959 
 2295000   -204656.47    1.6010409 -0.0050816831    61.746687    61.609906    61.632198     7689.773 
 2300000   -204789.47    1.5825037 -0.0046955716    61.908331    61.226311    61.574476    7709.3388 
 2305000    -204795.6    1.6299891 0.00048100828    61.557273    61.438078    61.514669    7728.8854 
 2310000   -204932.64    1.6163596 0.0034776808    61.611533    61.322848    61.458365    7748.4256 
 2315000   -204764.04    1.5961925 -0.00021795698    61.694946    61.181281    61.699408    7767.9924 
 2320000   -204866.54    1.5781559 0.0061725462    61.251552    61.385928    61.517804    7787.5272 
 2325000   -204712.41    1.6273349 -0.0011386965    61.687397    61.282134    61.734561    7807.1872 
 2330000    -204787.2    1.6237766  -0.00185765     61.59163    61.530254    61.662175    7826.8505 
 2335000   -204748.19    1.6720047 0.00089351995    61.437027    61.565118     61.49081    7846.4188 
 2340000   -204656.46    1.5820553 -0.00031388327    61.564563    61.516426    61.570713    7866.1513 
 2345000   -204906.04    1.5763605 0.0041031558    61.475496    61.577525    61.312199    7885.7117 
 2350000   -204813.15    1.5681259 0.00023641979    61.632199    61.469512    61.338248    7905.2629 
 2355000   -204723.66    1.6156197 -0.0044096649    61.766996    61.472121    61.578379    7924.8467 
 2360000   -204816.89    1.5756044 -0.007414684    61.702261    61.585142    61.475684    7944.4898 
 2365000   -204809.51    1.5912763 -0.0051226682    61.647252    61.327679    61.675521    7964.0685 
 2370000   -205005.84    1.6309318 -0.0027411678    61.628018    61.339052    61.510196    7983.8504 
 2375000   -204809.52    1.6176689 0.0042971518    61.437127      61.2804     61.68742    8003.4374 
 2380000    -204727.2    1.6500137 0.0028902173    61.454684    61.408269    61.617936    8023.0633 
 2385000   -204785.74    1.5548884 0.0028854055    61.522467    61.490077    61.340596    8042.6334 
 2390000    -204698.6    1.6063513 0.00025523695    61.416282    61.573934    61.601104    8062.2498 
 2395000   -204641.69    1.6041195 -0.0051329671    61.849243    61.445215    61.761224    8081.9392 
 2400000   -204818.93    1.5907382   0.00141167    61.474741    61.719583     61.48139    8101.5427 
 2405000   -204714.18    1.6599922 0.0017590646    61.621485    61.311342    61.922912    8121.1121 
 2410000   -204804.72    1.6444266 -0.002587516    61.751508    61.635663    61.498544    8140.6423 
 2415000   -204853.47    1.5686227 0.0033972412    61.663459    61.495403    61.511056    8160.2462 
 2420000   -204589.81    1.6242731 -0.005514257    61.952635    61.499121     61.69285    8179.7471 
 2425000   -204609.57    1.5796243 -0.0010384583    61.831627    61.602913    61.584101    8199.3745 
 2430000   -204386.19    1.6273401 -0.0015963065    61.832815     61.44556    61.782256    8219.0002 
 2435000   -204783.31    1.5880292 -0.0030268449    61.430177     61.75571    61.658211    8238.6737 
 2440000   -204616.68    1.5581397 0.0016562992    61.636023     61.48582    61.635631    8258.3059 
 2445000   -204832.15    1.5754451 0.0015675357    61.614099    61.482458    61.640327    8277.9425 
 2450000   -204663.88    1.5818184 0.0040258844    61.684427    61.439914    61.547022    8297.6001 
 2455000   -204645.31    1.6286631  0.002461254    61.640427    61.711933     61.64114    8317.1759 
 2460000   -204954.14    1.6138606 0.0044559809    61.537624    61.571815    61.411644    8336.8614 
 2465000   -204980.84    1.5760637 -0.0052445283    61.591535    61.672058    61.478304    8356.4864 
 2470000   -204890.23     1.661768 0.00079019713    61.565694    61.583841    61.492462    8376.0969 
 2475000   -204623.76    1.5990979 0.0017713391    61.429937    61.620658    61.826586    8395.5974 
 2480000    -204907.6    1.5996787 -0.00029857286    61.541594    61.518294    61.622264    8415.2021 
 2485000   -204816.62    1.5973535 -0.0044070753    61.767988    61.465886    61.581431    8434.8073 
 2490000   -204914.52    1.6090231 0.0025800607     61.56427    61.574292     61.52466    8454.3841 
 2495000   -204886.93    1.6072403 -0.0025720208    61.721413    61.388272    61.560878    8474.0262 
 2500000    -204945.4     1.601509 -0.006484726    61.570747    61.564491    61.569827    8493.5984 
 2505000   -204930.53    1.6006206 0.0040884392    61.556863    61.480063    61.296369    8513.1402 
 2510000   -204895.23    1.5938677 0.0005938453    61.406507    61.482781    61.526512    8532.6688 
 2515000   -204849.75    1.5827647 -0.00047975284    61.503183    61.580109    61.442187    8552.2357 
 2520000   -204885.71    1.5831312 0.00057064515    61.742201    61.337921    61.451827    8571.8752 
 2525000   -204885.84    1.6239494 0.0034334727    61.603238    61.285807    61.531445    8591.4919 
 2530000   -204913.35    1.6051609 -0.0010910397    61.500733    61.754438    61.324839    8611.0274 
 2535000   -204843.33    1.5358625 -0.00052010811    61.527688    61.878669     61.29299    8630.6265 
 2540000   -204958.09    1.5801258 0.0029355059    61.416913    61.588116    61.528196    8650.2297 
 2545000   -204871.13    1.5647644 -0.0020290585    61.445009    61.534849    61.773954    8669.8305 
 2550000   -205084.64    1.6000363 -0.00065374744     61.47219    61.568371    61.368454    8689.4096 
 2555000   -205296.51    1.6349923 0.00027276858    61.445926    61.508087    61.352422    8709.0399 
 2560000   -205003.06    1.5861312 -0.0032999229    61.672602    61.579384    61.443276    8728.7799 
 2565000   -205195.23      1.62011 0.0053242543    61.566704    61.294093    61.253882    8748.4632 
 2570000   -204775.37    1.5805521 -0.0042146421     61.62746     61.79549    61.370596      8768.06 
 2575000   -205029.97    1.6117774  0.010581883    61.098589    61.585362    61.519552    8787.5708 
 2580000   -205117.83     1.598853 0.0016093165    61.448696    61.504396    61.291434    8807.1314 
 2585000    -205048.5    1.6351279  0.001758355    61.307699     61.49788    61.550715    8826.7846 
 2590000   -205019.78    1.6025107 0.0015934719    61.496624    61.415629    61.478038     8846.421 
 2595000   -204937.28    1.6244548 0.00079517522     61.34936    61.683841    61.581154    8865.9455 
 2600000   -204924.85    1.5818644 -0.0039511706    61.459401    61.649089    61.422251    8885.5161 
 2605000    -204937.3    1.6205563 -0.0012479135    61.483655    61.499658     61.48818    8905.0656 
 2610000   -204957.12     1.581359 -0.0015061447    61.180058     61.52209    61.673495    8924.6913 
 2615000    -205022.2    1.5814866 0.0027248845    61.266097    61.387751     61.59739    8944.2436 
 2620000   -204970.22    1.5837872 -0.0035331316    61.476854    61.430661    61.629536    8963.8377 
 2625000   -205084.32    1.5708434 -0.0011281018    61.571084    61.295172    61.485544    8983.4391 
 2630000   -204948.18    1.5988224 0.00079032918    61.681935    61.344811    61.386196     9003.066 
 2635000   -205001.36    1.5943177 0.0019631288    61.506457    61.389467    61.429335    9022.6243 
 2640000   -204870.85    1.5882435 0.0019711853    61.380949    61.583601    61.336106    9042.3263 
 2645000   -205046.84    1.5815766 0.0051593028    61.326587    61.331303    61.344985    9061.9855 
 2650000   -204872.08    1.6289472 -0.0025900188    61.557724    61.475531    61.480457    9081.5562 
 2655000   -205021.97    1.6189736 -0.0018608518    61.411276    61.426055    61.553325    9101.2526 
 2660000   -204918.07    1.5868325 -0.0039586329    61.558335    61.749872    61.355463    9120.8816 
 2665000   -205015.71    1.6375315 0.0021111106    61.493874    61.286495    61.602027     9140.438 
 2670000   -204864.63    1.6014817 -0.0013620784    61.709944     61.36534    61.526288    9160.0494 
 2675000   -204957.13    1.6300827 -0.00041347946    61.509495    61.602586    61.408877    9179.7903 
 2680000   -205012.64    1.5828633 0.0001928391    61.747873    61.388772    61.139213    9199.3927 
 2685000   -204945.05    1.6400276 0.0021282303    61.492594    61.447484    61.425584    9218.9622 
 2690000   -204949.11    1.6010178 0.0033302494     61.44489    61.530606    61.374244    9238.5822 
 2695000   -204824.87    1.5611774 0.00060745606    61.560349    61.396731    61.559033     9258.276 
 2700000   -205018.54    1.5977588 0.0026105913    61.327777     61.55317     61.57433    9277.8572 
 2705000   -204881.18    1.6495954 0.00040708286    61.458745    61.638084    61.502418    9297.4807 
 2710000   -204785.85    1.5785811 -0.0012307679    61.593228    61.405424    61.614686    9317.0226 
 2715000   -204906.35     1.602247 -0.00074159005    61.476462    61.465783    61.613878    9336.6042 
 2720000   -205133.08    1.6083478 0.00030893397    61.392773    61.446677    61.539599    9356.2876 
 2725000   -204893.15     1.587728 -0.0057111789    61.671922    61.538592    61.669244    9375.9837 
 2730000   -204975.75    1.5992618 0.0014293554    61.565908    61.393448    61.575685    9395.7203 
 2735000   -204730.67    1.5790192 0.0012462863    61.485019    61.444049    61.639489    9415.3651 
 2740000   -204863.23    1.5920366 -0.0027816392    61.486567    61.562625     61.66056    9434.9578 
 2745000   -205003.54    1.6594791 0.0047011999    61.346604    61.344564    61.577682    9454.5441 
 2750000   -204999.86    1.5944857 -0.0026999135    61.382624    61.313744    61.746089     9474.145 
 2755000    -204846.5    1.6098536 -0.0022060431    61.465901    61.436551    61.771522    9493.6975 
 2760000   -204950.73    1.6084204 0.0053099188     61.32075    61.517694     61.43982    9513.3262 
 2765000   -205136.54    1.5790285 -0.0001166526    61.410943    61.413957    61.580986    9532.9784 
 2770000   -204914.05    1.5997386 0.0022301519    61.436492    61.500725    61.719351    9552.5438 
 2775000   -204784.59    1.5890696 0.00035183058    61.507385    61.584724    61.723735    9572.1061 
 2780000   -204912.82    1.6078186 0.00036495882    61.378817    61.529069    61.707564    9591.7012 
 2785000   -204848.16    1.5918162 -0.0019057089    61.640953    61.682374    61.239105    9611.3394 
 2790000   -205077.08    1.5917415 0.0012869819     61.42819    61.666543    61.183367    9630.9439 
 2795000    -205023.1    1.5850288 -0.0031362117    61.508493    61.298651    61.675143     9650.582 
 2800000   -205109.57    1.5994578 0.0040975816    61.317679    61.571648     61.46294    9670.2137 
 2805000   -205185.12    1.5682315 0.0027935692    61.491262    61.346532    61.399904    9689.8309 
 2810000   -204928.62    1.5750729 -0.0016017133    61.395888    61.464947    61.590882    9709.6003 
 2815000   -205147.66    1.6003098 0.0022913865    61.499873    61.231417    61.454703    9729.1857 
 2820000   -205160.85     1.612265 0.00033680434    61.527436    61.374153     61.36763    9748.7663 
 2825000    -205034.3    1.6574331 0.0016353611    61.481638    61.454829    61.413897    9768.4135 
 2830000   -205123.32    1.6157613 0.0052070103    61.332195    61.515773    61.337826    9788.1336 
 2835000   -205049.34    1.5383487 -0.0021959419    61.378508    61.550829    61.456081    9807.6619 
 2840000   -204876.58    1.6256779 -0.0016883724    61.625012    61.512947    61.513512    9827.4071 
 2845000   -204740.83    1.5936907 -0.0021352307    61.767438    61.725333    61.425966    9847.1318 
 2850000   -205068.59    1.5584088 0.00038754398    61.661652    61.439872    61.263379    9866.7755 
 2855000   -204957.18    1.5661604 -0.00011042139    61.501479    61.602371     61.30279    9886.3727 
 2860000    -204894.7    1.6099869  0.002742977    61.378751    61.475456    61.598388    9905.9996 
 2865000   -204673.41     1.599318 0.0043713818     61.41566    61.602633    61.709828     9925.619 
 2870000   -205006.39    1.6576918 0.0012400808    61.344667    61.662476    61.560988    9945.3014 
 2875000   -204837.59    1.6374031 -0.0034326466    61.689757    61.456994    61.735476    9964.9544 
 2880000   -204999.91    1.5846211 0.0013804978    61.476565    61.488149    61.538457    9984.6628 
 2885000   -204964.91    1.6040041 4.559987e-05    61.638699    61.355064    61.561125    10004.233 
 2890000   -205032.39    1.6366489 -0.0033296595    61.447212     61.61692    61.498395    10023.882 
 2895000   -205080.63    1.5832428 0.0066497334     61.38049    61.548194    61.248237    10043.468 
 2900000   -204934.25    1.5782224  0.004393466    61.491065    61.244352    61.560341    10063.001 
 2905000   -204889.68    1.5889047 -0.0019368077     61.62799    61.493352    61.580654    10082.649 
 2910000   -204906.76    1.5820787 0.0018390827    61.559321    61.546047    61.490029    10102.398 
 2915000    -204836.8    1.6000478 0.0029992933    61.445882    61.716899    61.419213     10122.01 
 2920000   -204827.06    1.5988427 -0.0012183501    61.699484    61.558099    61.477399    10141.724 
 2925000   -205032.06     1.573341 0.0035352376    61.496302    61.380333    61.397189    10161.286 
 2930000   -205063.38    1.5658891 0.0025449079    61.409936    61.350584    61.520749    10180.855 
 2935000    -205090.6    1.5565228 -0.0022118082    61.192175     61.47638    61.681479    10200.421 
 2940000   -204692.98    1.5521644 -0.003095168    61.228632    61.511206    62.017244    10220.074 
 2945000    -204927.9    1.5943516 -0.0011600047    61.448869    61.660576    61.423525    10239.788 
 2950000   -204922.47    1.5979704 -0.0011585348    61.539797    61.446757    61.584433    10259.384 
 2955000   -204907.77    1.6077932 0.00051172313    61.420968    61.463335    61.473782    10279.121 
 2960000   -205236.28    1.5913827 0.0049767806    61.338644    61.374834    61.333261    10298.803 
 2965000   -204873.88    1.5811222 -0.0012719014    61.175446      61.7124    61.544814    10318.428 
 2970000   -204962.61    1.5621766 -0.00053592064    61.365116      61.7081    61.584261    10337.937 
 2975000   -205006.89    1.5909377 -0.0024629088    61.396509     61.40676    61.694282    10357.521 
 2980000    -205274.2    1.6410638 0.00010882441    61.602005    61.320047    61.352508    10377.102 
 2985000   -205176.78      1.64291 -0.0043625543    61.530332    61.481432    61.469092    10396.659 
 2990000   -205310.33    1.6200881 -0.0011940031    61.422271    61.485968    61.343681     10416.22 
 2995000   -205046.56    1.5508202 0.0014028855    61.600656    61.177424    61.498286    10435.817 
 3000000   -204898.24    1.6068958 0.0026019571    61.447854    61.670235    61.293552    10455.482 
 3005000   -204963.07    1.5922719 -0.0023021168    61.472749    61.632554     61.55989    10474.943 
 3010000   -204949.03    1.5876109 0.0015076458    61.386757    61.495598    61.626544    10494.544 
 3015000    -204771.8    1.5968562 -0.0032331369    61.608667    61.606778    61.572188    10514.064 
 3020000   -204845.27    1.6002019 -0.0056511468    61.722375    61.616797    61.689792    10533.554 
 3025000   -204649.85    1.6236486 -0.0019809514    61.504152    61.602844    61.823998    10553.073 
 3030000   -205023.22     1.605558 -0.0010441393     61.65566    61.487529    61.512209    10572.583 
 3035000   -204893.88    1.6176625 0.0045954631    61.521962    61.391051    61.516678    10592.143 
 3040000   -204842.01    1.6262099 -0.0077958006    61.609059    61.649957    61.638459    10611.701 
 3045000   -205063.47    1.5906119 0.0053395768    61.364568     61.25212    61.556569    10631.252 
 3050000   -204719.91    1.6164589  0.002124879    61.503641    61.615411    61.475246    10650.872 
 3055000   -204767.06    1.6335759 0.00015992916    61.522314    61.620689    61.472891    10670.467 
 3060000   -204776.14    1.6108585 0.00085099614    61.594191    61.564279    61.482885    10689.988 
 3065000   -204843.18    1.6053287 0.0050871304    61.689328    61.396759    61.383641     10709.69 
 3070000   -204810.86    1.6067503 0.0052812379      61.4259    61.579118    61.404734    10729.294 
 3075000   -204742.62    1.5716312 -0.0028465748    61.564726    61.565336    61.644017    10748.892 
 3080000    -204650.7     1.629241 0.0058369175    61.531061    61.477201     61.47492    10768.533 
 3085000   -204809.71    1.6068336 -0.0011077116    61.538574    61.576521    61.523456    10788.175 
 3090000   -204884.88    1.6098946 0.00027142247    61.383169    61.694021    61.479319    10807.761 
 3095000   -204955.55    1.5885563 -0.0021802533    61.595732    61.458057    61.506117    10827.277 
 3100000   -204939.47    1.5730665 0.00010351753    61.633815    61.270733    61.507864    10846.801 
 3105000   -205140.84    1.5733867 -0.0041565316    61.562258    61.394371    61.593631    10866.425 
 3110000   -205190.29    1.5728478 -0.00045868876    61.458554    61.327147    61.505545     10886.02 
 3115000   -205035.64    1.6459813 0.00084764729    61.173496    61.553691    61.535649    10905.678 
 3120000   -205108.61    1.6545012 0.0015034469    61.504875    61.362202    61.470334    10925.356 
 3125000   -204945.56    1.5931906 0.00021380559       61.611    61.472901    61.459668    10945.006 
 3130000   -205073.42    1.6073148 0.0021516945    61.407954    61.442371     61.42152    10964.661 
 3135000   -205175.23    1.6076457 0.0017538577    61.377192    61.533877     61.32504     10984.19 
 3140000   -204893.83    1.6313007 0.0029474444    61.409015    61.483283    61.418655     11003.72 
 3145000   -204947.78    1.5553902 -0.0081440404    61.456868    61.616069     61.56705    11023.287 
 3150000   -205013.85    1.6339464 0.0036892956    61.359946    61.313462    61.730955    11042.891 
 3155000   -204996.62    1.6112381 -0.00029588447    61.431096    61.468841    61.672471    11062.497 
 3160000   -205006.56    1.6212909 0.0050546236     61.54239    61.547224    61.263347    11082.142 
 3165000   -204985.16    1.5658414 0.00019324297    61.617269    61.537299    61.387216    11101.734 
 3170000   -204827.94    1.6390314 0.0020154522    61.498976    61.823509    61.305214    11121.361 
 3175000   -204947.45    1.5988605 0.00035411069    61.625767    61.331189    61.597441    11140.981 
 3180000   -204847.38     1.594506 -0.0056197043    61.708669    61.553499     61.58743     11160.54 
 3185000   -204820.23    1.5459305 0.0028864948    61.443829    61.524715    61.501988     11180.18 
 3190000   -205064.48    1.6444482 -0.0038304741    61.698553    61.169263    61.567498    11199.788 
 3195000   -205309.11    1.5782042 -0.0010016253    61.263133    61.625157    61.355732    11219.422 
 3200000   -205049.67    1.6215788 -0.0018396727    61.569443    61.377956    61.430138    11239.081 
 3205000   -205011.65    1.6382886 -0.0013617377    61.595146     61.58354    61.259863    11258.685 
 3210000   -204933.35    1.6099602 0.0025238202    61.511784    61.432868    61.627316    11278.265 
 3215000   -204998.99    1.6047309 -0.001214099    61.513022    61.574529    61.613639    11297.849 
 3220000   -205067.62    1.6460861 -0.0030572829     61.58986    61.530499    61.462627    11317.441 
 3225000   -205038.66    1.5897638 0.00056472484     61.30146    61.561066    61.630996    11336.973 
 3230000   -204962.53     1.599027 -0.0023504288    61.466149    61.600925    61.468331    11356.553 
 3235000   -205073.13    1.6436259 0.0033655576    61.501494    61.448333    61.498218    11376.203 
 3240000    -204894.4    1.6199485 0.0030275868    61.462012    61.482924     61.56742    11395.807 
 3245000   -204989.19    1.5765908 -9.243839e-05    61.359461    61.519098    61.672293    11415.472 
 3250000   -205160.18    1.6099196 -0.0012898363    61.386431      61.5173    61.478861    11435.112 
 3255000   -204958.31    1.5840854 0.0061154855    61.337579    61.408764    61.445566    11454.684 
 3260000   -204866.77    1.5685405 0.0039094306    61.298352    61.618761    61.353519    11474.337 
 3265000   -205075.42    1.6339011 -0.0029207697    61.478427    61.459988    61.403746     11493.89 
 3270000   -205042.78    1.5719246 -0.0017841836    61.542192    61.440093    61.410439    11513.558 
 3275000    -205138.4    1.6263699 0.0021416088    61.350955    61.466917    61.380288    11533.212 
 3280000   -205032.84    1.5829704 -0.0017530544    61.169666    61.911838     61.43986    11552.693 
 3285000   -205207.93    1.5752538 -0.00038298269    61.553269    61.363016    61.280611    11572.221 
 3290000    -204890.3      1.58031 -0.0035440088    61.325437    61.730564    61.690434    11591.828 
 3295000   -204867.51    1.6215422  0.003000265    61.495055    61.726047    61.383506    11611.493 
 3300000   -204802.66    1.5877431 -0.0021342649    61.617502    61.461017    61.770998     11631.05 
 3305000   -205030.42    1.5658883 -0.00097361817     61.38087    61.458984    61.621767     11650.63 
 3310000   -205026.77    1.5895271 -0.00068451547    61.404851    61.369844    61.607158    11670.356 
 3315000   -205022.41    1.5808223  0.001247932    61.125564    61.649799    61.571341     11689.95 
 3320000   -204988.19    1.5942676 -0.0030473398    61.533111    61.615541     61.37484    11709.574 
 3325000    -205048.6    1.5839169 -0.0062780764    61.474791     61.54591     61.50748    11729.206 
 3330000   -204891.15     1.631184 0.0017487002    61.568637     61.47643    61.411577    11748.771 
 3335000   -205150.64    1.6085802 -0.0040696673      61.4535    61.635586    61.461537    11768.429 
 3340000   -204952.98    1.5950377 -0.00064320123    61.567736    61.698214    61.298615    11788.043 
 3345000   -204955.77    1.6005414 -0.00069960884    61.625004    61.409317    61.427792    11807.705 
 3350000   -204889.59    1.5866094 -0.0069836363    61.743979     61.49762    61.625194    11827.301 
 3355000   -204858.47    1.5732934 0.0019397934    61.495964    61.605257    61.356743    11846.906 
 3360000   -204994.68     1.581823 0.00075614179    61.549829    61.504424    61.436593    11866.572 
 3365000   -204926.92    1.6067541 0.00066754813    61.530889    61.799873    61.071426    11886.156 
 3370000   -204869.64    1.5855163 0.0020408099     61.56854     61.61942    61.296464    11905.785 
 3375000    -204992.8    1.6549364 0.0038608849     61.27811     61.76735    61.226423    11925.553 
 3380000   -204999.11    1.6271721 -0.0021730588    61.512052    61.622023    61.398724    11945.162 
 3385000    -205076.8     1.582481 0.0014277893     61.63553    61.467598    61.198736     11964.77 
 3390000   -204835.18    1.6723307 0.0021115131    61.533243    61.437916    61.436856    11984.372 
 3395000   -205011.45    1.6169468 0.00064319083    61.341523    61.500803     61.45909    12003.909 
 3400000   -205096.85    1.6292263 -0.0052884732    61.552547    61.354322    61.524908    12023.532 
 3405000   -204995.34    1.6071696 -0.0014118754    61.344651    61.470974    61.501151    12043.129 
 3410000   -204977.93    1.5916519 0.00041845966    61.509388    61.406434    61.583699    12062.668 
 3415000   -205043.93    1.5610015 -0.00082306646    61.250363    61.404773    61.579693    12082.296 
 3420000   -205116.87    1.5696556 -0.0015873867    61.205958    61.701672    61.572945    12101.972 
 3425000   -205035.47    1.6256637 0.0024760267    61.399699    61.521543    61.368964    12121.663 
 3430000   -205028.66    1.5650794 -0.0012835388    61.364504    61.725475    61.423337    12141.249 
 3435000   -204942.41      1.57836 -0.0040677478    61.644912    61.546007    61.422401    12160.891 
 3440000   -204884.22    1.6103678 0.0032748849    61.236868    61.525886    61.625371    12180.424 
 3445000   -204873.96    1.5929776 -0.0097568957    61.511456    61.595054    61.845449    12199.993 
 3450000   -204929.13    1.5829905 0.0070945919    61.450359    61.354303    61.366959    12219.495 
 3455000   -205095.76    1.5990605  0.009461159    61.232213    61.395237    61.448648     12239.13 
 3460000   -205022.32    1.6173683 -0.00026720151    61.359222    61.480031    61.604845    12258.709 
 3465000   -205041.89    1.5887629 0.0026930727     61.42976    61.482379    61.457668    12278.393 
 3470000   -205114.46    1.5952615 -0.00046697953     61.41926       61.356    61.680249    12298.003 
 3475000   -205041.12    1.5901121  0.006124658    61.562427    61.257581    61.377485    12317.682 
 3480000   -204984.96    1.6362473 0.0042542731    61.555134    61.377142    61.333634    12337.267 
 3485000   -204925.79    1.5737967 0.0054509993    61.313805    61.536931    61.529578    12356.821 
 3490000   -204981.15    1.5528162 -0.0040183729    61.478754     61.61533    61.584466     12376.36 
 3495000   -204950.45    1.5953931 0.0015252482      61.4266     61.66387    61.379763    12395.916 
 3500000   -204796.62    1.6168017 -0.0043967048    61.609884    61.596824    61.533533     12415.41 
 3505000   -204932.59    1.6116573 0.0033380223    61.360704    61.611556    61.495059    12435.081 
 3510000   -204833.85    1.6432915 -0.0038120822    61.980662    61.412839    61.351773    12454.738 
 3515000   -205016.54    1.5728033 -0.0014390347    61.792334    61.232314     61.35477    12474.311 
 3520000   -205096.56    1.6126697  0.005157326    61.472139    61.324433    61.394948    12493.817 
 3525000   -204848.18    1.6149331 0.0030007283    61.580223    61.426485    61.562301    12513.383 
 3530000   -204790.42    1.6066555 0.0040410791    61.501576     61.52832    61.373604    12532.968 
 3535000   -205068.51    1.5811975 -0.00065752582    61.519163    61.465213     61.51501    12552.576 
 3540000   -204961.51    1.6308425 0.0051262287    61.581202    61.389125    61.526365    12572.157 
 3545000    -204952.4    1.5939661 -0.0013427305    61.536254    61.660407    61.306249    12591.641 
 3550000    -204842.3    1.5659577 0.0018395771    61.338153    61.536596    61.672682    12611.296 
 3555000   -204742.23    1.6250819 0.0013164795    61.567755    61.594981    61.613267     12630.91 
 3560000    -204688.8    1.5710516 -0.0056722967     61.88006    61.780386    61.426571     12650.49 
 3565000   -204661.17    1.6072286 0.0008149537     61.72599      61.5655    61.625785    12670.029 
 3570000   -204594.84    1.6461504 -0.0019648231     61.44657    61.669282    62.062394    12689.566 
 3575000   -204621.24    1.5738063 -0.0093128821    61.885818    61.753663    61.599009    12709.126 
 3580000   -204683.46    1.5736954 0.00026253814    61.737591    61.529494    61.647343    12728.709 
 3585000   -204606.28    1.5515417 0.0049440203    61.526976    61.672138    61.538352    12748.245 
 3590000   -204575.93    1.5986973 -0.0013661243    61.645525    61.657529    61.890312    12767.848 
 3595000    -204594.6    1.5726183 -0.0031825675    61.845847    61.575348    61.646602    12787.478 
 3600000   -204662.68     1.612335 -0.00087072266    61.700888    61.712013    61.494448    12807.045 
 3605000   -204807.62    1.6109007 0.0033266729    61.432196    61.507928    61.566319    12826.674 
 3610000   -204798.09    1.5940019 -0.0092421572    61.492744    61.547499    61.905185    12846.355 
 3615000   -204757.22    1.6251184 -0.0062308643    61.701223    61.466082    61.700453    12865.892 
 3620000   -204640.74    1.6185832 -0.001129945     61.70662    61.577678    61.578511    12885.481 
 3625000   -204861.73     1.646906 0.0037175902    61.551037    61.575928    61.383036    12905.085 
 3630000   -204811.94    1.5640418 -0.0069813665    61.663817    61.723411    61.564587    12924.727 
 3635000    -204615.2    1.6480549  0.001783045    61.503245    61.626385    61.710939    12944.324 
 3640000   -204561.53    1.5887607 -0.0024968675     61.71706    61.546232    61.719283    12964.057 
 3645000   -204822.97    1.5870639 0.00018011319    61.574436    61.398396    61.577449    12983.884 
 3650000   -204971.01    1.5999283 -0.0025596662    61.462451    61.705874    61.413937    13003.474 
 3655000   -204954.22    1.5555803 -0.00039257569    61.468511    61.524408    61.358991    13023.079 
 3660000   -204694.17    1.6241412 -0.00075053811    61.284236    61.798881     61.50923    13042.723 
 3665000   -204853.82    1.6409921 0.0027764611    61.434393    61.655223    61.297087      13062.3 
 3670000   -204781.88     1.595759 0.0013349443    61.358547    61.382203    61.799565    13081.821 
 3675000    -204896.3    1.6246707 0.0019613411    61.403376    61.538862    61.670786     13101.47 
 3680000   -205095.54    1.5487645 -0.0013672962    61.345863    61.541422    61.469022    13121.084 
 3685000   -204910.08    1.5930793 0.0011554373    61.525383    61.480513    61.370181     13140.68 
 3690000   -205137.04    1.5625801 -0.0028262914    61.342846    61.830342    61.224774    13160.306 
 3695000   -205024.05    1.5886833 0.00057545897    61.336106    61.377076    61.778358    13179.979 
 3700000   -204966.48    1.6070516 0.00063271531    61.312615    61.762665    61.378734    13199.583 
 3705000   -205184.51    1.5760919  0.007116626     61.31408    61.361691     61.36561    13219.227 
 3710000   -205084.95    1.6071079 -0.00033924822    61.635328    61.337176    61.375684    13238.828 
 3715000   -205029.11    1.6138238 -0.00041093147    61.559302    61.518004    61.441104    13258.392 
 3720000   -205061.03     1.621718 0.0019106458    61.341079    61.305666    61.542631     13278.01 
 3725000   -205061.23    1.6144918 0.0059680358    61.261928    61.544318    61.253136    13297.537 
 3730000   -205158.35    1.5862752 0.0038777298    61.062613    61.560056     61.49496    13317.216 
 3735000   -205029.94    1.5817662 0.0055776965    61.193705    61.597353     61.41049    13336.844 
 3740000   -205020.25    1.6172204 -0.003762571     61.70953    61.262628    61.578772    13356.549 
 3745000   -205114.51     1.635231 0.0022363111     61.46936    61.527341      61.2483     13376.23 
 3750000   -205072.69    1.5990585 0.0025050499    61.358662    61.491883    61.482771    13395.854 
 3755000   -205160.77    1.6026525 -0.0035605005    61.539558    61.529145    61.367292     13415.49 
 3760000   -205013.99    1.6230595 -0.0047696736    61.692512    61.380804    61.397622    13435.087 
 3765000   -205348.74    1.6280813 0.0093646266     61.51416    61.113689    61.188776    13454.641 
 3770000    -205262.6    1.5766024 -0.0026744523    61.426151     61.39645    61.531508    13474.256 
 3775000   -205204.78    1.6238475 0.0021121826    61.175582    61.617003    61.569881    13493.889 
 3780000   -205119.32    1.6461859 0.0066061507    61.255232    61.425816    61.437111    13513.415 
 3785000   -205047.19    1.5842631 -0.0034679095    61.479233    61.665492    61.411093    13533.052 
 3790000   -205166.06    1.6390889 0.00094124985     61.39552    61.683043    61.194545    13552.597 
 3795000   -204964.45    1.5718021 0.00018936314    61.516455    61.511891    61.454888    13572.293 
 3800000   -204967.44    1.6034542 -0.0016513762    61.292486    61.574783    61.732884    13591.869 
 3805000   -205189.97    1.6582552 0.0038044021    61.292173    61.458265    61.361087    13611.434 
 3810000   -204988.53    1.5755926 -0.0017069783    61.411793    61.491986    61.541122    13631.112 
 3815000   -204949.17    1.5736143 0.0004885263    61.536247    61.487329    61.386162    13650.744 
 3820000    -204926.9    1.6199945 -0.0090667056    61.608916    61.844657    61.331888    13670.449 
 3825000   -204929.95    1.6060924 -0.0020782648    61.492273    61.494418    61.509539    13690.041 
 3830000   -204923.33    1.5830083 0.00056371416    61.470078    61.697463    61.092894    13709.616 
 3835000   -205077.44     1.577079 -0.0021982912    61.400939    61.224772    61.676972     13729.18 
 3840000   -205065.17    1.5807418 5.2688663e-05    61.453033    61.511882    61.291638    13748.788 
 3845000   -205215.56    1.6017809 -0.0016213525    61.393927    61.451331    61.492262    13768.371 
 3850000   -205139.33    1.5596609 0.0016880942    61.473705     61.34098    61.387467    13788.021 
 3855000   -204818.88    1.6441856 0.0027305275    61.426315    61.204507    61.816896    13807.623 
 3860000   -204820.62     1.623164 0.0015215717    61.555306    61.553081     61.48864    13827.213 
 3865000   -204800.57      1.57411 -0.0018718308    61.434047    61.681241    61.673999    13846.855 
 3870000   -204903.81    1.6035641 -0.001812632    61.509017    61.335362    61.632798    13866.392 
 3875000   -204637.58    1.6228785 0.0034802347    62.013139    61.432006    61.313844    13885.989 
 3880000   -204510.44     1.539596 0.0016997124    61.847709    61.498895    61.475683    13905.535 
 3885000   -204524.71    1.5754209 0.0079283148    61.414375    61.608409    61.596976    13925.074 
 3890000   -204616.91    1.6430144 -0.0014340889    61.713423    61.595367    61.721195    13944.697 
 3895000   -204708.68    1.5936857 0.0037501806    61.637047    61.681369    61.374697    13964.357 
 3900000   -204909.58     1.569011 -0.0045854435    61.588903    61.661347     61.61479    13983.887 
 3905000   -204877.07    1.6034366 -0.0024226531    61.459088    61.456988    61.644171    14003.489 
 3910000   -204925.13    1.6210136 -0.0029231313    61.469358    61.460748    61.648555    14023.108 
 3915000   -204863.43    1.5838669 0.0015263928    61.520243    61.610863    61.348215     14042.78 
 3920000   -204736.85    1.5869118 0.0039025898    61.523834     61.51282    61.603061    14062.345 
 3925000   -204686.34    1.6145329 0.0031351277    61.606255    61.822869    61.200502    14081.982 
 3930000   -204736.31    1.5493159 -0.0021802554    61.487656     61.69359    61.658262    14101.531 
 3935000   -204641.98    1.5363021 -0.003186362    61.829752    61.468107    61.510484    14121.221 
 3940000   -204713.01    1.6054817 0.0023293274    61.539191    61.416734    61.647567     14140.85 
 3945000   -204966.34    1.5938709 0.00029304224    61.490399     61.42938    61.441121    14160.491 
 3950000   -205262.39     1.592604 0.0028609809     61.55602    61.119194    61.378223    14180.084 
 3955000   -205069.85     1.613892 0.0042930806    61.202316     61.30859    61.531853    14199.714 
 3960000   -204781.91    1.6376729 0.0051300787    61.383612     61.52067    61.579192    14219.234 
 3965000   -204868.46    1.5751249 -0.001992357    61.514979    61.803713    61.368361    14238.875 
 3970000      -204837    1.6494585 0.0005153001    61.410877    61.438314    61.650991    14258.424 
 3975000   -205013.27    1.6104243 0.00092301106    61.523181    61.220955    61.487779    14277.968 
 3980000   -204901.03    1.6213284 -0.00043429136    61.618075    61.503651    61.482804    14297.676 
 3985000   -204872.96    1.5562517 0.0028334125    61.606451    61.606633    61.289743    14317.192 
 3990000   -204756.32    1.5983028 -0.0031642365    61.487361    61.676958    61.612504    14336.729 
 3995000   -204778.52    1.5928917 0.0043718751    61.581548    61.569635    61.324929    14356.382 
 4000000   -204880.99    1.6139683 -0.00089226667    61.324038    61.589185    61.590194     14375.96 
 4005000    -204918.6    1.6211229 0.0028716778     61.46867    61.482843    61.527572    14395.597 
 4010000    -204891.9     1.600884 0.00013656631    61.348381    61.588409    61.573878    14415.208 
 4015000   -204657.55    1.5774311 -0.0051242395    61.821051    61.461687     61.63661    14434.794 
 4020000   -204666.87    1.6096658 0.0051402606    61.492083    61.432574    61.385842    14454.293 
 4025000   -204690.92    1.5616409 -0.0014134581    61.691055    61.584748    61.448442    14473.791 
 4030000   -204745.56      1.59851 -0.0050313088    61.331392    61.541258    61.928909    14493.314 
 4035000   -204463.51    1.5879038 -0.0042039286    61.664752    61.766343    61.556226    14512.853 
 4040000   -204692.47    1.5892637 -0.003679887    61.688089    61.588215    61.704168    14532.411 
 4045000   -204735.55    1.5893275 -0.0029919525     61.63103    61.737795    61.434148    14551.923 
 4050000   -204669.86    1.6206408 0.0028932687    61.609162    61.663435    61.504068      14571.6 
 4055000    -204757.4    1.6267681 0.00037381627    61.604393    61.476803    61.726486    14591.222 
 4060000   -204473.35    1.5814624 -0.002349499    61.832726    61.637269    61.766909    14610.777 
 4065000    -204450.2    1.5886551 -0.001669269    61.771309    61.627579    61.656442    14630.363 
 4070000   -204632.29    1.5624805 -0.0095889541     61.74796    61.838431    61.632785    14649.988 
 4075000   -204687.58    1.5633751 -0.0025806482    61.627378    61.748435     61.56803    14669.565 
 4080000   -204725.49    1.6103936 0.0038515974     61.54737    61.622487    61.425187    14689.253 
 4085000   -204661.44    1.6282467 -0.0024188515    61.825071    61.397914     61.66281    14708.808 
 4090000   -204825.51    1.5698931 0.00020736594     61.53285    61.494497     61.61312    14728.333 
 4095000   -204664.95    1.6093319 -0.00071769952    61.755306    61.403134    61.571176    14747.837 
 4100000   -204782.57    1.5625919 -0.0021932361    61.432643    61.620769    61.591488    14767.419 
 4105000   -204677.26    1.6332053 0.00077744533    61.584351    61.618007    61.614632    14787.059 
 4110000   -204527.23    1.6396761 0.0035130955    61.507957    61.600912    61.470287    14806.606 
 4115000   -204746.76    1.5771167 0.0038286802    61.450948     61.42809    61.568277    14826.161 
 4120000    -204766.6    1.6007478 -0.0033991787    61.596204    61.792016    61.547471    14845.761 
 4125000   -204792.34    1.6301713 0.0036174643    61.540425    61.538772    61.430936     14865.26 
 4130000   -204963.33    1.5852128 -4.0317737e-05    61.474399    61.364728    61.694616    14884.915 
 4135000   -204779.82    1.5923939 -0.0027525493    61.578786    61.568158    61.716432    14904.418 
 4140000   -204712.36    1.6077262 0.0045935902    61.702531    61.375284    61.585791    14923.995 
 4145000    -204600.4    1.6031081 0.00050876469    61.619457    61.578552    61.624048      14943.6 
 4150000   -204710.87     1.578306 -0.0025849595    61.695393    61.492474    61.500555    14963.256 
 4155000   -205037.85    1.6073538 0.0061342772    61.278658    61.486982    61.404248    14982.818 
 4160000   -205043.03    1.6001034 0.0027270185    61.290474    61.274594    61.676925    15002.463 
 4165000   -205124.16    1.6123523 0.0028206624    61.333181    61.505207    61.244651    15022.116 
 4170000   -204998.52    1.6601698 -0.0011885178    61.658173    61.264433     61.32485    15041.668 
 4175000   -204902.69    1.5840975 0.0047391733    61.292347    61.751979    61.291214    15061.261 
 4180000   -204977.29    1.5800969 -0.00059646913    61.646657    61.498059    61.382264    15080.807 
 4185000   -205114.93     1.613541 0.00029144849    61.382825    61.323207    61.533187    15100.462 
 4190000   -204799.21    1.6116181 -0.0045745283    61.729086    61.500873    61.554559        15120 
 4195000   -204689.07    1.6728379 0.0042480873    61.574203    61.430758    61.556206    15139.643 
 4200000    -204718.9    1.6047465 0.00078185178    61.455546    61.639505    61.499829    15159.162 
 4205000   -204781.71    1.6187615 0.00093492539     61.68726    61.557001    61.391911    15178.709 
 4210000   -204813.72    1.6268762 -0.0020194839    61.653228    61.740946    61.468811    15198.306 
 4215000   -204728.97    1.5815414  0.002705589    61.496219    61.678942    61.486825    15217.964 
 4220000   -204659.21    1.5953121 -0.00068493779    61.594612    61.770452    61.491455    15237.503 
 4225000   -204843.09    1.5767978 -0.00093337077    61.564006    61.530088    61.586159    15257.133 
 4230000   -204779.34    1.6456452 0.00079396174    61.502041    61.519834    61.570384     15276.73 
 4235000   -204937.45    1.5895663 -0.0049959582    61.555913    61.608914    61.445491    15296.295 
 4240000   -204853.72    1.6083932 -0.0026726373    61.406126    61.744479    61.577779    15315.913 
 4245000   -204866.89    1.6039847 0.0037106998    61.376589    61.581794    61.476534    15335.509 
 4250000    -204851.8     1.568539 -0.0032067279    61.444043    61.551097    61.703665    15355.155 
 4255000   -204631.66    1.6261606 0.0036110069    61.617818    61.622846     61.50283    15374.718 
 4260000   -204749.11    1.5944578 0.0051482302    61.431573    61.621838    61.584353    15394.271 
 4265000   -204884.63    1.6087287 -0.0034950185    61.687291    61.425477    61.515979    15413.791 
 4270000   -204768.78    1.6455329 0.0019624817    61.711778    61.457892    61.560202    15433.322 
 4275000   -204871.15    1.6451309 0.00040382398    61.511402    61.567179    61.566562    15452.858 
 4280000   -204682.71    1.6065314 0.00089469301    61.655961    61.616079    61.467166    15472.615 
 4285000   -204917.19    1.6275707 -0.0020775873    61.484767    61.394831    61.547376    15492.141 
 4290000    -204859.6    1.5881383 0.0024846085    61.563847    61.443884    61.465891    15511.745 
 4295000   -204639.97    1.5843817 0.0027254864    61.593058    61.581239    61.528937    15531.436 
 4300000   -204923.52    1.6234657 -0.00056191865    61.683189    61.340895    61.422853    15551.044 
 4305000   -204885.92    1.6034128 -0.0080749113    61.586854    61.447245    61.844181     15570.67 
 4310000   -204823.88    1.5835641 -0.0051046203    61.695651    61.412795    61.586457    15590.267 
 4315000   -204817.44    1.6344051 -0.0027908216    61.629543     61.60241    61.540051    15609.792 
 4320000   -204831.37    1.5909381 -0.0024535298    61.765045    61.528311    61.336898    15629.328 
 4325000   -204974.21    1.5656156 0.0035637094    61.377935    61.530844    61.405009    15648.908 
 4330000   -204725.33    1.5413359 -0.00054213247     61.36983    61.612717    61.545742    15668.518 
 4335000   -204851.38    1.5736503 -0.0051893672    61.595281    61.473517     61.71281    15688.108 
 4340000   -204718.19    1.6061101 -0.0023683063    61.596938    61.452523    61.658852    15707.777 
 4345000   -204871.76     1.597281 0.0011100895    61.436008    61.493802    61.458826    15727.432 
 4350000   -204815.54    1.5648027 -0.0010393094    61.644671    61.528155    61.450565     15746.94 
 4355000   -204808.72     1.623301 0.0068259238    61.432122     61.56362    61.432257    15766.421 
 4360000   -204852.79    1.5556949 0.0033626035     61.57193    61.470446    61.375471    15785.939 
 4365000   -205029.34    1.6283729 0.00098245315    61.662887    61.352976    61.369123    15805.525 
 4370000   -205184.77    1.6387137 0.00067736152    61.526364    61.389984    61.434836    15825.144 
 4375000   -204996.28    1.6063992 0.0072841962    61.510567    61.486803    61.154081    15844.748 
 4380000   -204947.68    1.6255085 -0.00076800015    61.465141    61.497743    61.477099    15864.324 
 4385000      -205013     1.621383 -0.0046020197     61.50684    61.454198    61.645525    15883.895 
 4390000   -204942.84    1.6054631  0.001933397    61.307821    61.633481    61.423962    15903.657 
 4395000   -204651.25    1.6077066 0.00016956342    61.524052    61.622363    61.792075    15923.306 
 4400000   -204696.36    1.6441803 4.6032141e-05     61.62102    61.525241    61.451521    15942.928 
 4405000   -204979.73    1.6532571 0.0054208886    61.369837    61.592178    61.411915    15962.476 
 4410000   -204697.31    1.5776974 -0.0031338861    61.526185    61.675412    61.659152    15981.991 
 4415000   -204779.74    1.6263532  -0.00191709    61.582754    61.583429    61.587054    16001.536 
 4420000    -204960.6    1.5724663 -0.0021332739     61.53197    61.396333    61.439565    16021.156 
 4425000    -204859.6     1.607139  0.003913395    61.666681    61.182241    61.569609    16040.727 
 4430000   -204842.51    1.5985656 -0.0021123807    61.527195    61.307738    61.571626    16060.301 
 4435000   -204578.92    1.5664617 -0.0035554674    61.382345    61.535979    61.850663    16079.963 
 4440000   -204802.79    1.6023867 0.00043307144    61.532545    61.536595    61.389167    16099.633 
 4445000   -204815.58    1.6012025 -0.0029779575    61.590583    61.629045    61.590743     16119.24 
 4450000   -204692.28    1.5633269 0.0042556352    61.629737    61.460574    61.317582     16138.74 
 4455000    -204783.2    1.6122386 0.0023883542    61.273612    61.576721    61.736494    16158.284 
 4460000   -204768.35    1.6101492 0.0060878234    61.535885    61.324748    61.607054    16177.858 
 4465000   -204922.43    1.6170842 0.00022144565    61.640379     61.27734      61.5493    16197.373 
 4470000   -204839.29    1.6061384 -0.0015781032    61.421662    61.595334     61.52954    16216.993 
 4475000   -204936.71    1.6270913 0.00040074045    61.696268     61.31611    61.439269    16236.689 
 4480000   -205060.19    1.5668489 -0.0014047741    61.627903    61.432124    61.511611    16256.401 
 4485000   -205065.82    1.6261129 0.0013624417    61.252143    61.544951    61.523558     16275.96 
 4490000   -204968.66    1.5671034 0.00011318884     61.43145    61.289371    61.685593    16295.622 
 4495000   -205083.35    1.5343257 0.0041380041    61.445706    61.227869    61.389001    16315.227 
 4500000   -204955.22    1.5928449 -0.00022750457     61.72825    61.348435     61.39328    16334.779 
 4505000   -204889.13    1.5975668 -0.0017758402    61.833072    61.334916    61.553506    16354.353 
 4510000   -204882.49    1.6401507  0.004423411    61.613586    61.198627     61.56389    16373.896 
 4515000   -204938.16    1.6517218 0.00027736557    61.763973    61.452831    61.379624    16393.503 
 4520000    -205056.1    1.5767053 -0.002490293    61.507086    61.448852    61.595428     16413.11 
 4525000   -205043.69    1.5649078 0.0022405407    61.624301    61.241375    61.430761    16432.756 
 4530000   -205026.34     1.577189 -0.0028797982     61.54178    61.607431    61.380674    16452.405 
 4535000   -205043.36    1.5694953 0.00034206788    61.322657    61.640522    61.393439     16471.92 
 4540000   -205039.18    1.6220201 0.0040821091    61.388831    61.531644     61.35842    16491.443 
 4545000   -205052.43    1.5668791 -0.0053719521    61.702043     61.54018     61.29276    16510.973 
 4550000   -204946.42    1.5922449 -0.0019923694    61.453413    61.662086    61.435543    16530.505 
 4555000   -204818.55    1.5993136 -0.004413414    61.570339    61.503453    61.770507    16550.057 
 4560000   -204868.88    1.5361181 -0.004940368    61.805145    61.573183    61.456887    16569.621 
 4565000    -204951.2    1.6026869 -0.00044590944      61.2974     61.59819    61.559278    16589.186 
 4570000   -204983.17    1.6194303 0.00059481786    61.144785    61.615495    61.671461    16608.787 
 4575000   -205038.22    1.5897932 0.00046766644    61.662018    61.324779    61.399457    16628.342 
 4580000   -205016.78    1.6270876 -0.0019706316    61.649898    61.402705    61.496355    16647.846 
 4585000   -205073.88     1.555004 -0.0015982664    61.654502    61.331137    61.503161    16667.391 
 4590000   -204908.42    1.5735682  0.002595169    61.262336    61.820752    61.404815    16687.028 
 4595000   -204873.98    1.6569007 -0.00015744183    61.493583    61.772512     61.48131     16706.68 
 4600000   -204750.79    1.5945349 0.00098107656    61.680794    61.525601    61.471125    16726.349 
 4605000   -204768.96    1.5891576 -0.0037703336     61.76468    61.491648    61.509417    16746.068 
 4610000   -204745.53    1.6343292 -0.0021217047    61.703323    61.536042    61.601149    16765.691 
 4615000   -204802.67    1.5752453 0.00025806281    61.661374    61.404513    61.671971    16785.313 
 4620000   -204742.34    1.6181898 0.0045491398    61.577134    61.450191    61.597703    16804.968 
 4625000   -204717.54    1.6193475 -0.0052967671    61.708994    61.653283    61.612634    16824.578 
 4630000   -205002.71    1.5729327 0.0045538045    61.637944    61.385563     61.40086     16844.19 
 4635000   -205041.55    1.6152569 -0.005913034    61.526185    61.547976    61.539179    16863.741 
 4640000   -204873.68    1.5905107 -0.0038840136    61.725825    61.553286    61.374414    16883.311 
 4645000    -204955.3    1.5789955 0.00048201813    61.205015    61.507291    61.687329    16902.953 
 4650000   -204954.11    1.5877039 0.0034508388    61.612051    61.299178    61.325421    16922.559 
 4655000   -204953.43    1.6502247 -0.0024649622    61.679721    61.371782    61.433573    16942.154 
 4660000    -205002.4    1.5862686 -0.00096156441    61.667002    61.257001    61.468362    16961.656 
 4665000   -205125.26    1.6069724 -0.0040938543    61.599065    61.432181    61.479907    16981.243 
 4670000   -205148.77     1.582504 0.0017615344    61.358552    61.461763    61.415074    17000.775 
 4675000   -205168.46     1.624803 0.0005028212    61.384303    61.493465    61.483993    17020.355 
 4680000    -204954.9    1.6021594  0.002502759    61.608942    61.291875    61.467816    17040.078 
 4685000   -205074.87    1.5997561 -0.0063415676     61.51964    61.495187    61.526354    17059.686 
 4690000   -205071.47    1.5904472 0.0041066246     61.80253    61.566665    61.015587    17079.207 
 4695000   -204979.41    1.6394587 0.0053027522    61.315452    61.669418    61.440735    17098.822 
 4700000   -205043.21    1.6120748  -0.00328851    61.456653    61.612125    61.556104    17118.331 
 4705000   -205062.98    1.6053312 -0.00013649079    61.291724    61.497832    61.708835    17137.854 
 4710000   -204939.63     1.543924 0.0036088705    61.772125    61.230549    61.456632    17157.567 
 4715000   -204917.22    1.6117162 0.0011240194    61.452666    61.549316    61.501723    17177.318 
 4720000   -204983.75    1.5692125 -0.0074198587    61.553849    61.562828    61.517277    17196.978 
 4725000   -204955.98    1.5940537 -0.00094938074    61.711467    61.605387    61.336554    17216.519 
 4730000   -205083.28    1.6101337 0.0049094282     61.53578    61.426483    61.397012    17236.096 
 4735000   -205184.94    1.6204994  0.004963583    61.532037    61.321677     61.26296    17255.693 
 4740000    -205099.9    1.6041095 0.0046380082    61.188639    61.628324    61.429238    17275.299 
 4745000   -205100.95    1.5538311 0.00097712099     61.28666    61.535534    61.586324    17294.957 
 4750000   -205023.62    1.6085288 -0.0029027122    61.684518    61.578504    61.303329    17314.512 
 4755000   -204725.43    1.5941113 -0.0022226706    61.561168    61.448062    61.715658    17334.157 
 4760000   -204876.23    1.6284441 0.0016493525    61.797626    61.261273    61.592468    17353.642 
 4765000   -204678.22    1.6053979 -0.0020697736    61.715114    61.521518    61.573294    17373.157 
 4770000    -204631.9    1.6252041 -0.0015346432    61.725418    61.669155    61.506269    17392.752 
 4775000   -204717.12    1.5781026 0.0049550213    61.602958    61.612517    61.337918    17412.369 
 4780000   -204920.33    1.6091406 -0.0011772762    61.455362    61.471674    61.456639     17431.93 
 4785000   -204817.89     1.644848 -0.0015325431    61.517731    61.729869    61.391876    17451.536 
 4790000   -205050.75     1.605763 0.00028308552    61.428599    61.575246    61.485719    17471.066 
 4795000   -205033.44    1.5760446 -0.0067582462    61.380642    61.603028    61.556637    17490.652 
 4800000   -204964.49    1.6092858 -0.00053821132    61.401424    61.537537    61.566596     17510.26 
 4805000      -204781    1.6080407 0.0009004191    61.697869    61.616359    61.444532    17529.822 
 4810000   -204909.89    1.6201247 0.0066889797     61.36726    61.338332    61.425608    17549.431 
 4815000   -204981.05    1.6211949 -0.0064332898    61.659917    61.132115    61.964403    17568.928 
 4820000   -204984.69    1.5788932 0.00069110036    61.658668    61.258732    61.534589    17588.503 
 4825000   -204929.04    1.6043014 -0.0028772541    61.377762    61.558139    61.524393     17608.06 
 4830000   -205015.33    1.5859777 -0.0030224824     61.50589    61.481234    61.384216    17627.767 
 4835000   -204959.23    1.5828072 0.00037177531    61.478028    61.554655    61.399013     17647.42 
 4840000   -205088.13    1.6152418 0.00017535815    61.616102    61.414557    61.471384    17667.082 
 4845000    -204932.6    1.6089522 -0.001580045     61.19203    61.666402     61.52163    17686.685 
 4850000   -205040.56    1.6520777  -0.00102138    61.519083    61.469802    61.300312    17706.299 
 4855000   -204988.57    1.6040299 0.0015699933    61.371273    61.433479    61.590793    17725.911 
 4860000   -204901.39    1.5773167   -0.0056046    61.589957    61.577818      61.5136      17745.5 
 4865000   -204890.69    1.6168835 0.0033373132    61.566475    61.539137    61.324345    17765.065 
 4870000   -204983.48    1.6302692  0.006120909    61.225462    61.264653    61.711455    17784.632 
 4875000   -205042.32    1.5808667 -0.0014713006    61.508902    61.397248    61.549167    17804.145 
 4880000   -204919.12    1.6301646 2.0393291e-05    61.541841     61.23915    61.627988    17823.662 
 4885000   -205062.54    1.5946662 0.0026230834    61.470232    61.214501    61.482964    17843.163 
 4890000   -205022.76    1.5803115 0.0053230202    61.188859     61.50673    61.459999     17862.76 
 4895000   -204791.67    1.6226568 -0.0028727958    61.638665    61.540574    61.552437    17882.305 
 4900000    -204802.5    1.5980985 0.0041913412    61.646605    61.406199    61.439622    17901.926 
 4905000   -205018.69    1.5772588 -0.0053722471    61.599124    61.565398    61.623775    17921.521 
 4910000   -204823.62    1.5720736  0.001706634    61.560482    61.539454    61.630328    17941.075 
 4915000   -204830.98    1.5866589 -0.0037813216    61.630755    61.451593    61.794622    17960.703 
 4920000   -204965.26    1.6025629 -0.00039234051    61.482477    61.691112    61.451843    17980.414 
 4925000   -204774.36    1.6109736 0.0037588712    61.713492    61.515122    61.337358     18000.04 
 4930000   -204945.49    1.6117402 -0.005542004     61.42934    61.640897    61.748889    18019.656 
 4935000   -204872.42    1.6096273 -0.0013978857    61.663749    61.570301    61.497043    18039.211 
 4940000   -205013.01    1.6035693 0.0013290117    61.394413     61.69241     61.50474     18058.98 
 4945000   -204977.82    1.5544063 0.00060246282    61.635381    61.478569    61.317685    18078.649 
 4950000   -205032.25    1.5981847 -0.00077518009     61.54081    61.334374    61.582373    18098.272 
 4955000   -205047.48    1.5740428 -0.0022809199    61.375056    61.596245    61.472649    18117.895 
 4960000   -205131.57    1.5939479 -0.0040408084    61.499638     61.46276    61.493352    18137.612 
 4965000   -204881.07    1.5928597 0.00095766222    61.553439    61.499699    61.421577    18157.283 
 4970000   -204980.37     1.582256 0.0011172779    61.637958     61.53359    61.306535     18176.99 
 4975000   -205075.37    1.5909462 -0.00032004742     61.37222    61.459864    61.538867    18196.613 
 4980000   -205040.91    1.6045832 9.5217498e-05    61.759445    61.415286    61.226287    18216.288 
 4985000    -205069.6    1.6045287 -0.0022340283    61.612866      61.5693    61.322601      18235.8 
 4990000   -205030.97    1.6019601 -0.0030231515    61.494736    61.320842    61.632284    18255.395 
 4995000   -205074.04    1.6054237 0.0028116308    61.511238    61.187657    61.476539    18274.914 
 5000000   -204923.56    1.6069227 0.00023064806    61.615693    61.365004    61.471685    18294.433 
 5005000   -205213.53    1.5919021 -0.0013034915    61.617783    61.360307    61.240536    18314.016 
 5010000   -205113.51     1.607456 -0.0011298079    61.608287    61.537417     61.23095    18333.716 
 5015000   -205090.09    1.5903868  0.003236859     61.43587    61.417969    61.638557    18353.442 
 5020000   -204846.57    1.6304986 0.00095470846    61.585656    61.381045    61.568315    18372.998 
 5025000   -205050.52    1.6162391 -0.0028961606    61.300633    61.606716    61.539631    18392.567 
 5030000   -204960.61     1.636661  0.002116785    61.452792     61.41969    61.552526    18412.239 
 5035000   -205008.26    1.5884597 0.0015083146    61.500004    61.296205    61.586934     18431.89 
 5040000   -205020.13    1.6081333 0.00078028697    61.590469     61.34257    61.429098    18451.434 
 5045000   -205016.45    1.6166236 0.0022213802    61.487566    61.570885     61.36311    18471.039 
 5050000   -204974.99    1.5345226 -0.000674789    61.644335    61.451745    61.415878    18490.635 
 5055000   -205084.08    1.6159737 -0.00077004364    61.491343    61.762542    61.217398    18510.222 
 5060000   -204890.02    1.5946594 0.0002951397    61.628685     61.69553    61.220636    18529.794 
 5065000   -204854.41    1.6000819 0.0029993446    61.433905     61.60647     61.38603    18549.399 
 5070000      -204976    1.6332505 0.0043593051    61.646329    61.267872     61.48121    18568.942 
 5075000   -204916.35    1.6032597 0.0040812154    61.437257      61.5193    61.310086    18588.548 
 5080000   -204928.34    1.6090773 0.0012185482    61.631865    61.603559    61.224551    18608.062 
 5085000    -204904.7    1.5556529 0.00079239296    61.297377    61.589806     61.73403     18627.65 
 5090000   -204920.74    1.5883959 -0.0077093363    61.553214    61.594533    61.556914    18647.226 
 5095000   -204889.15    1.5757847 0.0014586621    61.510271     61.44331    61.426803    18666.852 
 5100000    -205178.7    1.5393939 -0.0012340923    61.277598    61.531796    61.559525    18686.575 
 5105000   -204878.86    1.6128225 -0.0015089741    61.226118     61.66658    61.731504    18706.206 
 5110000   -204841.15    1.5663645 -0.0012213548    61.600903    61.599539    61.325168    18725.823 
 5115000   -204811.86    1.5616942 0.0023663562    61.451074    61.412087    61.596076    18745.549 
 5120000    -204835.4    1.5714117 -0.0041375954    61.536859    61.481984    61.634641    18765.193 
 5125000   -204882.03    1.6067229 0.0051489041    61.661713    61.577345    61.197247    18784.789 
 5130000   -205052.94    1.6058285 -0.0040467081    61.666093    61.328786    61.526712    18804.391 
 5135000   -204936.22    1.5936866 -0.0016793862    61.512459    61.535031     61.43788    18823.973 
 5140000   -205058.33    1.5869374 -0.0029137317    61.553574    61.326787    61.589181    18843.564 
 5145000   -205123.12    1.5848962 -0.00038391917    61.615727    61.390645    61.415055    18863.189 
 5150000   -204944.01    1.6072524 -0.0010633269    61.443425    61.573068    61.565841    18882.796 
 5155000   -204807.67    1.6304481 -0.0011172523    61.606478    61.647783    61.492572    18902.481 
 5160000   -204836.05    1.6362588 0.0025929601    61.420027    61.442722     61.59574    18922.009 
 5165000   -204824.43    1.6008521 -0.0022557197    61.334628    61.852819    61.526993    18941.628 
 5170000      -205030    1.6233361 -0.0035857279    61.634937    61.315049    61.477659    18961.231 
 5175000   -205045.15    1.5549342 -0.0039283453    61.739589    61.307256    61.520183    18980.845 
 5180000   -205038.31    1.6129958 0.0021596984    61.580867    61.385802    61.489848    19000.426 
 5185000   -204793.91    1.5434996 0.0019504756    61.314914     61.30648    61.872559    19020.049 
 5190000   -204990.57    1.6005089 0.0033728544    61.600128    61.330707     61.47086    19039.694 
 5195000   -204945.32    1.6618762 0.00026768492    61.525442    61.596359    61.452992    19059.357 
 5200000   -204900.85    1.6161752 -0.0051279403    61.344561    61.729548    61.459147    19078.967 
 5205000   -204764.27    1.6099928 0.00042432691    61.598189    61.641052    61.330437    19098.582 
 5210000   -204940.47    1.5848543 -0.0016253111    61.582104    61.400647    61.507135    19118.119 
 5215000   -204920.38     1.615856 0.00071982016    61.305376    61.529364    61.669032    19137.746 
 5220000   -204736.01    1.5974751 -0.0023397477    61.432584    61.714326    61.575101     19157.29 
 5225000   -204976.33    1.5620148 0.0017988331    61.541872    61.386388    61.484444    19176.811 
 5230000   -204903.29     1.631961 0.0073522969    61.335862    61.417828    61.641454    19196.463 
 5235000   -205138.34    1.5743726 0.0028176944    61.297174    61.465344    61.501969    19216.033 
 5240000   -204959.34    1.6310012 -0.0024914167    61.434987    61.426224    61.857298    19235.555 
 5245000   -204982.88    1.5813766 -0.00094194801    61.630041    61.203584    61.667761    19255.062 
 5250000   -204950.15    1.6372943 0.00082377798    61.786274    61.377016    61.449794    19274.659 
Loop time of 19274.7 on 8 procs for 5000000 steps with 2304 atoms

Performance: 22412.848 tau/day, 259.408 timesteps/s
93.3% CPU use with 8 MPI tasks x 1 OpenMP threads

MPI task timing breakdown:
Section |  min time  |  avg time  |  max time  |%varavg| %total
---------------------------------------------------------------
Pair    | 6361.5     | 6858.6     | 7235.7     | 344.0 | 35.58
Bond    | 0.4602     | 0.55612    | 0.64883    |   9.2 |  0.00
Kspace  | 5533.1     | 5548       | 5563.1     |  12.5 | 28.78
Neigh   | 750.63     | 752.53     | 755.94     |   6.1 |  3.90
Comm    | 615.7      | 626.22     | 643.99     |  34.0 |  3.25
Output  | 0.89707    | 0.9183     | 1.0646     |   5.8 |  0.00
Modify  | 4013.7     | 5111.8     | 5900.6     | 861.5 | 26.52
Other   |            | 376.1      |            |       |  1.95

Nlocal:        288.000 ave         292 max         282 min
Histogram: 1 0 0 1 1 0 1 0 2 2
Nghost:        7219.25 ave        7228 max        7212 min
Histogram: 1 0 1 2 2 0 0 1 0 1
Neighs:         0.00000 ave           0 max           0 min
Histogram: 8 0 0 0 0 0 0 0 0 0
FullNghs:      307247.0 ave      312207 max      301334 min
Histogram: 1 1 1 0 0 1 0 2 1 1

Total # of neighbors = 2457978
Ave neighs/atom = 1066.8307
Ave special neighs/atom = 0.0000000
Neighbor list builds = 72426
Dangerous builds = 0

    timestep 0.0005
    variable fbig equal $b*-80
    variable fbig equal .04*-80
    variable fsmall equal $b*10
    variable fsmall equal .04*10
    unfix zeromom
    fix field1 big addforce v_fbig 0 0
    fix field2 small addforce v_fsmall 0 0
    run 30000000
PPPM initialization ...
  using 12-bit tables for long-range coulomb (src/kspace.cpp:340)
  G vector (1/distance) = 0.11911337
  grid = 30 30 30
  stencil order = 5
  estimated absolute RMS force accuracy = 0.00049180483
  estimated relative force accuracy = 0.00049180483
  using double precision KISS FFT
  3d grid and FFT values/proc = 8000 3600
  generated 0 of 1 mixed pair_coeff terms from geometric mixing rule
Per MPI rank memory allocation (min/avg/max) = 11.01 | 11.04 | 11.06 Mbytes
Step PotEng Temp c_press Lx Ly Lz CPU 
 5250000   -204950.15    1.6372943 0.00082399673    61.786274    61.377016    61.449794            0 
 5255000   -204916.36    1.6443432 -0.0010110268    61.737073    61.422267    61.569194    19.004299 
 5260000   -204933.54     1.610413  0.000805316    61.644856    61.439041    61.480804    38.016405 
 5265000   -204855.45    1.5982611  0.003252072    61.403796    61.404219     61.60466    57.117705 
 5270000   -204912.16    1.5856122 -0.0065617573    61.632869    61.504161      61.6851    76.130848 
 5275000   -205120.81    1.5920402  0.001157485     61.52761    61.469362    61.391749    95.094057 
 5280000   -204910.93    1.6103583 -0.00018860905    61.565653    61.487507    61.315683    114.06872 
 5285000   -205067.34    1.6526668 -0.0020780902    61.511054    61.517539    61.365125    133.13993 
 5290000   -204835.45    1.5364878 -0.0022961628    61.493205     61.41026    61.609906    152.20796 
 5295000   -205053.68    1.6339023 0.0024363695    61.688358    61.318583    61.342452    171.19935 
 5300000   -204860.91    1.5651589 0.0015923221    61.435299    61.592102    61.526723     190.2592 
 5305000   -204898.33    1.5954337 0.0061519674    61.647128    61.232426    61.402349    209.26906 
 5310000   -204874.83    1.5158056 0.0010482566    61.466666    61.424865    61.704394    228.32179 
 5315000   -204946.53    1.5934788 -0.0031956694    61.526869    61.571544    61.570081    247.31993 
 5320000   -204754.42    1.6078122 -0.00037331228    61.532701    61.798998    61.441368    266.32335 
 5325000   -204689.74    1.6444755 0.0061613499     61.60438    61.446702    61.652593    285.29463 
 5330000   -204781.62    1.5484415 0.0080568627    61.515248    61.520575    61.454915    304.24031 
 5335000   -204786.43    1.6103788 -0.0041311931    61.555247    61.666181    61.710611    323.24371 
 5340000    -204623.3    1.5810358 -0.0058523604    61.526096    61.449234    61.993979    342.27265 
 5345000   -204635.24    1.6222803 0.0058975858    61.542158    61.417501    61.641346    361.26289 
 5350000   -204685.99    1.5584609 0.0024385212    61.784805    61.323037     61.60012    380.31135 
 5355000   -204486.22     1.609639 -0.0028572243     61.60208    61.550032    61.834241    399.32599 
 5360000   -204656.03    1.5970938 -0.002033943    61.616647    61.682573    61.625344    418.30254 
 5365000   -204601.15    1.6347013 0.0031461804    61.426701    61.546274    61.705815    437.33086 
 5370000   -204610.28    1.6077963 0.00072283832    61.567162     61.55594    61.707217    456.29526 
 5375000   -204872.03    1.6415586 -0.0036421028     61.74123    61.467397    61.524659    475.35613 
 5380000    -204721.9    1.6065495 -0.0032537712    61.765249    61.656843    61.377821    494.33941 
 5385000   -204769.36    1.6079906 0.0011829343    61.480495    61.509209    61.542794    513.30845 
 5390000   -204577.04    1.5942377 0.0018906688    61.422586    61.658958    61.683678    532.28449 
 5395000   -204727.88    1.6248845 0.00064135122    61.636339    61.585741    61.649065    551.23424 
 5400000   -204791.38    1.5704487 0.0041838863     61.68783    61.430982    61.287023    570.25648 
 5405000   -204742.16    1.5980962 -0.0014144147    61.614751    61.531568    61.499998    589.22326 
 5410000   -204930.34    1.6174321 -0.0015191795    61.363311     61.56731    61.534647    608.20552 
 5415000   -204838.55    1.5984202 -0.00046741895    61.477097    61.507097    61.397986    627.26338 
 5420000   -204755.33    1.6121855 -0.0039596022    61.551427    61.667079    61.578789    646.28679 
 5425000   -205029.83    1.6081702 0.0029181716    61.700438    61.309499    61.356362    665.33284 
 5430000   -204920.33    1.6150899 -0.0079458725    61.645824    61.557492    61.547803    684.29532 
 5435000   -204812.53    1.5825653 -0.0027579814    61.548598    61.296395    61.810023    703.26222 
 5440000    -204913.6    1.6067064 -0.0028871527    61.713799    61.483789    61.411581    722.25127 
 5445000   -204782.38    1.5874863 -0.0054889076    61.726439    61.278034    61.626048     741.3074 
 5450000   -204870.93    1.5487612  -0.00143084    61.302914    61.785977    61.400766     760.3024 
 5455000   -204839.62    1.6140621 0.00085958179    61.284371    61.922497    61.300036    779.31977 
 5460000   -204881.32    1.5766113 0.0015069873    61.362372    61.473449    61.570316    798.36325 
 5465000   -204714.81    1.6163823 0.0037482905    61.408821    61.363677    61.747073    817.47012 
 5470000    -204908.4    1.5862943 -0.0046170661    61.558871    61.575816    61.502153    836.46187 
 5475000   -204755.29    1.5730895  0.007400818    61.786536    61.368178    61.221112    855.40906 
 5480000   -204787.42    1.6126091 -0.0001661527    61.417613    61.440345    61.838709    874.40299 
 5485000   -204640.75    1.6059588 -0.0015824545    61.557043    61.487814    61.670335    893.42418 
 5490000   -204689.76    1.6379418 -1.7447406e-05    61.729793    61.455211    61.517935    912.43928 
 5495000   -204896.31    1.6045303 0.0015926874    61.608737    61.407504    61.421476    931.46938 
 5500000   -204858.74    1.5656296 0.00051676517    61.546479    61.483564    61.516221    950.48606 
 5505000    -204952.7    1.5912094 -0.0017902709    61.300835    61.800426    61.494266    969.47483 
 5510000   -204873.01    1.6372134 0.00080067198    61.549658    61.665045    61.321685    988.54694 
 5515000    -204699.9    1.5940551 0.0047959269    61.621158     61.74579    61.250211    1007.4908 
 5520000   -204798.78      1.59038 0.00074169378    61.506201    61.419825    61.754745    1026.5483 
 5525000   -204715.41    1.6298961 0.0025964541    61.449259    61.549418    61.647848    1045.5621 
 5530000   -204764.26    1.5833849 -0.0019862885    61.367028    61.590411    61.766261    1064.6398 
 5535000   -204583.99    1.5847753 -0.00038724566    61.757646    61.729629    61.527154    1083.7303 
 5540000   -204649.25    1.6308962 0.0055183402    61.678963    61.391478    61.559213    1102.7599 
 5545000   -204751.01    1.6108317 0.0031635892    61.651397    61.492852    61.512408    1121.8096 
 5550000   -204608.46    1.5784538 -0.0039832156    61.557391     61.67887    61.626077    1140.8427 
 5555000    -204667.4    1.5922434 0.00036722986    61.562663     61.63084    61.579612    1159.8199 
 5560000   -204743.16    1.5467416 -0.0021595939    61.487775    61.732524    61.633377    1178.8292 
 5565000   -205030.12    1.6059305 0.0032391008    61.547847    61.415987    61.396148    1197.9053 
 5570000   -204851.05    1.6036482 0.00092695315    61.516754    61.660063    61.285584    1217.0268 
 5575000   -204873.12    1.5968099 0.00090143003    61.450591    61.603537     61.49491    1236.1212 
 5580000   -204838.13    1.6062555 -0.006400094    61.691083     61.57332    61.365211    1255.2025 
 5585000    -204797.7    1.6175659 0.00093841055    61.383967    61.651245     61.41337    1274.2443 
 5590000   -204852.36    1.6422898 0.0023899124    61.692042    61.597839    61.188118    1293.2242 
 5595000   -205022.41    1.5911357 0.0014408882    61.512666    61.717461    61.236612    1312.2768 
 5600000   -204902.58    1.6518862  0.003761432    61.717507    61.393922    61.260007     1331.283 
 5605000   -204978.39    1.6098916 -0.0041942212    61.506748    61.529632    61.593952    1350.2545 
 5610000   -204948.17    1.6664584 1.8390778e-06    61.418744    61.406719    61.719662    1369.3004 
 5615000   -204779.24    1.5894467 0.0018352152    61.724364    61.345461     61.48801    1388.3336 
 5620000   -204871.44    1.5899104 0.0030692165    61.615833    61.465516    61.385215    1407.4128 
 5625000   -205043.73    1.6030958 -0.0024344461    61.597581    61.582892    61.301936    1426.4458 
 5630000   -204916.26    1.5828443 0.0046858159    61.688252    61.354572    61.377607    1445.5042 
 5635000   -205024.39    1.6227428 -0.00060915913    61.617655     61.39585    61.451953    1464.4967 
 5640000   -205018.03    1.5482154 -0.0048969994    61.604046    61.459214    61.485868     1483.579 
 5645000   -204934.04    1.5766601 -0.00099546039    61.564789    61.445093    61.578571    1502.6451 
 5650000   -204933.21    1.5710943 -0.00013132976    61.400293    61.563228    61.591977    1521.7132 
 5655000   -205025.89    1.6114318 -0.0030626006    61.538751    61.624019    61.322592    1540.6634 
 5660000   -204959.03     1.621402 0.00079777296    61.572429    61.609972     61.34412    1559.6122 
 5665000   -205034.66    1.6017818 -0.006335456    61.604691     61.57236    61.571841    1578.5994 
 5670000   -204980.13    1.6161259 0.0052929508    61.556535    61.579474    61.112657     1597.623 
 5675000   -204878.67    1.5811439 -0.0044826075    61.638627    61.532491    61.432706    1616.6804 
 5680000   -205047.72      1.59756 0.0015747793    61.472501    61.394155    61.429633    1635.7895 
 5685000    -205186.3    1.6210755 -0.00032057557    61.414968    61.486723    61.399246    1654.7486 
 5690000   -205019.82    1.6164079 0.0068219446    61.307448    61.530877    61.397303    1673.7913 
 5695000   -204979.18    1.5864517 -0.00057317635    61.650144    61.424628    61.450138    1692.8618 
 5700000   -205127.22    1.6202955 0.0013456879    61.778726    61.170077    61.343212    1711.8936 
 5705000   -204894.37    1.5950419 0.0023272355    61.482471    61.446041    61.520917    1730.8945 
 5710000   -205012.51    1.6031546 0.0034135036    61.475981    61.558151    61.406562    1749.9403 
 5715000    -204754.2    1.6001586 -0.0058548575    61.709013    61.605209    61.690713    1769.0377 
 5720000   -204689.97    1.5909129 0.0033714831    61.489443    61.701175    61.472055    1788.1015 
 5725000   -204760.06    1.6222389 0.0025530354    61.257231    61.609842    61.748855    1807.1306 
 5730000   -204707.12    1.6412317 0.0020079532    61.467316    61.647912     61.62665     1826.132 
 5735000   -204685.03    1.5920969 0.0012795197    61.544452    61.513984    61.641588    1845.0572 
 5740000   -204796.47    1.5653683 0.0059799761    61.626089    61.563115    61.356253    1864.1158 
 5745000   -204760.95    1.6109796 0.00099314763    61.827104    61.302442    61.611413    1883.2132 
 5750000   -204778.56    1.5901972 -0.0025274975    61.733439    61.376003    61.665107    1902.2419 
 5755000   -204745.37    1.6174469 0.00068078987    61.608773    61.493946    61.583807    1921.3381 
 5760000   -204795.91    1.5760624 -0.0036683228    61.564262    61.544198    61.618577       1940.4 
 5765000   -204673.82     1.616972 -0.0047216778    61.648076    61.494129    61.696057    1959.4492 
 5770000   -204824.89    1.6354854 0.0014202255    61.601571    61.368636    61.575879    1978.3977 
 5775000   -204983.26    1.6244612 0.0020462685    61.361219    61.358567    61.546749    1997.4275 
 5780000   -204768.67    1.6329141 0.00054683037    61.501032    61.806091    61.478018    2016.4132 
 5785000   -204734.71    1.5920161 0.00058046215    61.640946    61.636011    61.479538    2035.4225 
 5790000   -204732.45    1.6008419 0.0055908934    61.343313    61.449267    61.680012    2054.3791 
 5795000   -204840.95    1.5805196 -0.0039808647    61.604137    61.540203    61.707043     2073.395 
 5800000   -204796.24    1.5986662 -0.0018855045    61.593192    61.481603    61.684138    2092.4202 
 5805000   -204836.53    1.5940999 -0.00056579327    61.658375     61.57188    61.439935    2111.4825 
 5810000   -204634.12    1.6093427  0.005955562    61.583287    61.365539    61.625518     2130.591 
 5815000   -204741.83    1.6010214  0.006893601     61.63442     61.30349    61.590683    2149.6637 
 5820000   -204715.33    1.5735398 0.0045880099    61.749625    61.397352    61.544371    2168.6976 
 5825000    -204619.6    1.6000113 -0.00046255981    61.779086    61.363985    61.843042    2187.6762 
 5830000   -204702.13    1.6099667 0.0012943532    61.521676    61.854473    61.565712    2206.6657 
 5835000    -204545.3    1.5891096 -0.0048003247     61.81471     61.67227    61.601535    2225.7723 
 5840000    -204688.8    1.5950857 -0.0044917224    61.681651    61.496956    61.714494    2244.7844 
 5845000   -204544.88    1.6368447 0.0044542005    61.533983     61.66109     61.72017    2263.7806 
 5850000   -204685.88    1.5975199 -0.0052344628    61.543788    61.823369    61.644471     2282.745 
 5855000   -204604.49    1.5782289 0.0020259313    61.480047    61.612916    61.617062    2301.6835 
 5860000   -204448.34    1.5906159 -0.0088765803    61.740766    61.660871    61.820727    2320.7176 
 5865000   -204558.35    1.6624478 -0.0018844677     61.61876    61.824309     61.56233    2339.7358 
 5870000   -204656.27    1.6274089 0.0052239644    61.684931    61.471136    61.612861    2358.7764 
 5875000      -204530    1.5776088 -0.00065590722    61.692119    61.803552    61.592607     2377.793 
 5880000   -204660.69    1.6410904 -0.0042921409    61.983173    61.610475    61.633075    2396.8159 
 5885000   -204667.57    1.6050437 0.00088296343    61.525774     61.76571    61.531634    2415.8889 
 5890000   -204427.93    1.6138657 0.0046375534    61.650748    61.753277    61.514657    2434.9398 
 5895000   -204547.65    1.6243391 -0.0063164669    61.841875    61.730254    61.661839     2453.914 
 5900000   -204499.35    1.5816447 0.0027444974    61.675723    61.754968    61.317522    2472.9388 
 5905000   -204583.12    1.6108185 0.00039262801    61.839831    61.554979    61.557137    2491.9667 
 5910000   -204324.99    1.5856804  0.004165988    61.783226    61.673538    61.566704    2510.9494 
 5915000   -204706.48    1.5716342 -0.0044385552    61.475723    61.680611    61.806841    2529.9828 
 5920000    -204704.2    1.5987879 -0.0034483521     61.70542    61.727942    61.673019    2549.0039 
 5925000   -204652.01    1.6098844 0.00066050977    61.776749    61.432053    61.678152    2568.0119 
 5930000   -204877.82    1.6141241 0.0011802311    61.691581    61.400668    61.484633    2587.0471 
 5935000   -204649.46     1.597673 -0.002143697    61.675269     61.47349     61.62428    2606.1118 
 5940000   -204651.89    1.6286952 0.0015040548    61.772629     61.41629    61.533888    2625.1342 
 5945000   -204709.58    1.6229825 -0.0028441372     61.69008     61.50269    61.717966    2644.1488 
 5950000   -204732.79    1.5615703 0.00027098419    61.571449    61.571441    61.550862    2663.2048 
 5955000   -204693.72    1.6152279 -0.0033456203    61.609442    61.745226    61.484229    2682.2637 
 5960000   -204576.45    1.5881085 -0.001533963    61.771678     61.67716    61.572458    2701.3562 
 5965000   -204723.39    1.6095473 -0.0028276138    61.813569    61.596248     61.53078    2720.4184 
 5970000   -204790.08     1.621456 -0.005571414    61.670014    61.621094    61.678597    2739.4207 
 5975000   -204680.55    1.6093077 -0.00045594619    61.798398    61.269025    61.684368    2758.5371 
 5980000    -204727.5    1.5697102 0.00011367839    61.588697    61.455427     61.75086    2777.6598 
 5985000   -204540.26     1.604627  0.001140667    61.526563     61.67158    61.763239    2796.7194 
 5990000   -204630.59     1.600434 0.0045860831    61.642255    61.627859    61.459027    2815.6832 
 5995000   -204782.66    1.6090448 0.0019803852    61.549109    61.518769    61.666725    2834.6988 
 6000000   -204793.43    1.5903612 -0.0009220551    61.637508    61.409507    61.718609    2853.6613 
 6005000   -204587.18    1.5847972 0.0063336892    61.608705    61.659275    61.358801    2872.6447 
 6010000   -204738.66    1.5803851 -0.00060357142    61.487286    61.819101    61.447777    2891.6238 
 6015000   -204588.46     1.602305 -0.0010694816    61.830077    61.663014    61.426592    2910.6475 
 6020000   -204735.22    1.5622337 0.0043952201     61.63057    61.742463    61.411811    2929.6624 
 6025000   -204662.87    1.6197604 0.0047542098    61.602894    61.649496    61.435254    2948.5835 
 6030000   -204663.82    1.6142687 -0.003737264    61.611158    61.751129    61.634243    2967.5211 
 6035000    -204744.7    1.5789441 -0.0014509966    61.539699    61.657574    61.576205    2986.5741 
 6040000   -204651.76    1.5781497 -0.00037242918     61.99426    61.661291    61.249711    3005.6758 
 6045000   -204666.05    1.5628665 -0.0024537773    61.591365     61.95401     61.54606     3024.711 
 6050000   -204553.12    1.5998857 -0.0032777832    61.485379     62.01703    61.792045    3043.7611 
 6055000   -204469.13    1.5638038 -0.0086078161    61.538814    62.046901    61.721631    3062.7248 
 6060000    -204689.8    1.6240062 0.0012809855    61.395335    61.636084    61.780959    3081.6779 
 6065000   -204730.19    1.6250335 0.0045947429    61.384092     61.71344    61.647167    3100.6841 
 6070000    -204618.1    1.6098128 0.0015140153    61.472057    61.661131    61.890048    3119.7594 
 6075000   -204483.94    1.5901238 0.0031659777    61.825102    61.553426    61.606645    3138.8115 
 6080000   -204610.89    1.6194769 0.0065134098    61.575204    61.569739    61.570506    3157.8707 
 6085000   -204596.78    1.6032093 -6.4942066e-05    61.563634    61.737083    61.592128     3176.909 
 6090000   -204661.99    1.5921782 0.0032811427    61.622814    61.692429    61.277703    3195.9587 
 6095000   -204716.16    1.6222524 0.0044377989    61.389851    61.520281    61.486477    3215.0546 
 6100000   -204846.81     1.587953 -0.00083359793    61.600947    61.549929    61.559834    3234.0783 
 6105000   -204750.23    1.6117189  0.001724032     61.71768    61.393945    61.538179    3253.0499 
 6110000   -204774.12    1.6246834 0.0019996861    61.631922    61.480933    61.571825    3271.9908 
 6115000   -204898.45    1.6147471 -0.0018829989    61.455826    61.617774    61.557425    3290.9954 
 6120000   -204713.54    1.6113458 -0.0044337195    61.390451     61.79725    61.534245    3310.0061 
 6125000   -204687.02    1.6452328 0.0019269626    61.402474    61.572102    61.632163    3329.0192 
 6130000   -204978.62    1.5914966 0.0011307032    61.577491    61.408229    61.398523    3347.9934 
 6135000   -204848.23    1.6154541 -0.003206168    61.649305    61.334368    61.627303    3366.9915 
 6140000   -204748.22    1.5629938 0.0013335154    61.673966    61.441179    61.538297    3385.9725 
 6145000   -204748.19    1.6079176 0.0024544484     61.72985    61.630959    61.257776    3404.9974 
 6150000   -204752.36    1.6173538 -0.0038564808    61.572148    61.553103      61.6702    3423.9919 
 6155000   -204878.27    1.5812826 -0.0042232392    61.490869    61.507167    61.627262    3442.9256 
 6160000   -204777.95    1.5847602 0.0064057742    61.503737    61.399384    61.560922    3461.8797 
 6165000   -204763.99    1.6434534 -0.0026091912    61.678976     61.52098    61.591195    3480.8917 
 6170000   -204631.04    1.6422662 0.0021646936      61.4692    61.611683     61.46911    3499.9092 
 6175000   -204704.77    1.5937008 0.0017017002    61.663079    61.471783    61.313191    3518.9479 
 6180000   -204928.86    1.6130444 -0.0049621035    61.462629    61.341762    61.636255    3537.9298 
 6185000   -204730.22    1.6134869 0.0023047859    61.365589    61.474878    61.609136     3556.962 
 6190000    -204932.2    1.6138038  -0.00378052    61.601379    61.196423    61.859631    3575.9324 
 6195000   -204623.79    1.5694396 -0.0036766439    61.677161     61.48082    61.607236    3594.8994 
 6200000   -204870.21    1.6119015 0.0011374646    61.667455    61.208521    61.497194    3613.8724 
 6205000   -204798.98    1.6002396 -0.00073169715    61.526524    61.310432     61.60338    3632.9092 
 6210000   -204940.41    1.5390933 -0.0036211506    61.442321    61.374919     61.85979     3651.893 
 6215000   -204818.61    1.6281078 0.00082076388    61.317783    61.757759    61.554566    3670.8736 
 6220000   -204768.91    1.5795571 0.0061756867    61.545801     61.22308    61.718428     3689.914 
 6225000   -204772.14    1.6382878 0.0036269682     61.54772    61.589413    61.427101    3708.9213 
 6230000   -204604.71    1.5572859 -0.00080147315    61.686706    61.419307    61.621436    3727.8824 
 6235000    -204700.1    1.5776571 0.00096133569    61.633707    61.533674    61.425161    3746.9364 
 6240000   -204813.17    1.6408184 -0.00059145112    61.666396    61.502568    61.466626     3766.002 
 6245000   -204853.73    1.5799433 0.00081437097    61.471873    61.627874    61.481851    3785.0556 
 6250000   -204870.95    1.5713779 0.0050425084    61.238715    61.801969    61.387777    3804.1485 
 6255000   -204693.57    1.6218327 0.00019194193    61.540082    61.758271    61.439654    3823.1651 
 6260000   -204810.16    1.6033362 -0.0053509066    61.629273    61.612456    61.615879    3842.1294 
 6265000   -204852.38    1.5721612 -0.001382417    61.788307     61.28187    61.528114    3861.1505 
 6270000   -204766.89    1.6168153 -0.0021875414    61.641738    61.597803    61.444794    3880.1658 
 6275000    -204782.4    1.6124979 -0.0026064725    61.691497    61.335691    61.662464    3899.1393 
 6280000   -204868.07    1.5612588 2.7130697e-05    61.350609    61.683655    61.615532    3918.2235 
 6285000   -204602.52    1.6830047 -0.00045346772    61.556119    61.511366    61.783917     3937.231 
 6290000   -204624.93    1.5806225 -0.00037949621    61.859836    61.534096     61.48955      3956.18 
 6295000   -204684.88    1.6101441 0.0025118627     61.62166    61.501811    61.451382    3975.1376 
 6300000   -204742.49      1.58822 0.0032066902    61.428772    61.515946    61.598548    3994.1498 
 6305000   -204761.41    1.5706547 -0.0005527202    61.502118    61.409267    61.754755      4013.13 
 6310000   -204727.86     1.600413 -0.0012863284    61.625375    61.440939    61.659328    4032.1428 
 6315000   -204809.19    1.6448238 0.0061570657    61.549791    61.316831    61.452309    4051.1043 
 6320000   -204750.21    1.6187927 0.0025186114    61.632509    61.558714    61.300206    4070.1119 
 6325000   -204717.87    1.6127289 -0.0016436323    61.489147    61.668847     61.47347    4089.1342 
 6330000   -204867.74    1.6341357 -0.0032735729    61.605062    61.575755    61.484614    4108.1616 
 6335000   -204886.85    1.6180328 -0.0018472729     61.55418    61.585381    61.411014    4127.1989 
 6340000   -204830.21    1.5539808 0.0019348434    61.354776    61.615386    61.373324    4146.2583 
 6345000   -204708.01    1.5757195 5.7933317e-05    61.406043    61.410472    61.710131    4165.2744 
 6350000   -204614.87    1.6265837 0.00068680948    61.483292    61.573104    61.657326    4184.2894 
 6355000   -204545.68    1.6119507 0.0019631056    61.439021     61.52964    61.575761    4203.3053 
 6360000   -204733.74    1.6111487 -0.0034852457    61.547736    61.498499    61.593202    4222.3122 
 6365000   -204623.82     1.586049 0.0013191772     61.57874    61.353869    61.740533    4241.3093 
 6370000   -204573.89    1.6293913 0.0096782015    61.302752    61.340181    61.656709     4260.274 
 6375000    -204680.1     1.558992 -0.0076909074    61.602182    61.705605      61.6642    4279.2218 
 6380000   -204623.28    1.5674515 0.0010359794    61.530132    61.616239    61.479548    4298.1779 
 6385000   -204805.08    1.5584011 -0.0025608665    61.725169    61.470142    61.481246    4317.1746 
 6390000   -204766.27    1.5784005 0.00085405931    61.524281    61.648035    61.380829     4336.177 
 6395000   -204725.52    1.5701463 8.7265881e-05    61.287545    61.605283    61.704886    4355.1675 
 6400000   -204837.66    1.6107702 -0.00099446802    61.330084    61.598055    61.662298     4374.185 
 6405000   -204394.55    1.6068439 -0.0039108195    61.640745    61.766198    61.670783     4393.191 
 6410000   -204677.78    1.6353832 -0.00073653263    61.714675    61.573698    61.462672    4412.2166 
 6415000   -204596.51    1.6685547 -0.000703892    61.493121    61.585508    61.753419    4431.2473 
 6420000   -204736.49     1.595624 -0.00019374639      61.0724    61.857851    61.731266    4450.3171 
 6425000   -204792.79    1.6005166 -0.0001426756    61.594149    61.510404    61.530155    4469.3442 
 6430000   -204798.85    1.6215522 -0.00047371561    61.832782    61.401747     61.33495    4488.3832 
 6435000   -204849.42    1.6004022 0.0031703837    61.694202    61.187417    61.487002    4507.3763 
 6440000   -204980.39    1.6107755 -0.0092029038    61.597242    61.553898    61.625721    4526.3581 
 6445000   -204863.33    1.6234711 0.0047922543    61.334041    61.514359      61.5468    4545.4084 
 6450000   -204903.69    1.6039959  0.002964786     61.14707    61.747114    61.450493    4564.3941 
 6455000   -204709.91     1.595419  -0.00378075    61.406603    61.657064    61.658421     4583.433 
 6460000   -204715.36    1.5834704 -0.0048748767    61.471626    61.870638    61.375684    4602.4348 
 6465000   -204777.96    1.5681073 -0.0012890123    61.468331    61.563925    61.592548    4621.4886 
 6470000   -204694.01    1.6169033 -0.001739136    61.771475    61.564242    61.497765    4640.5651 
 6475000   -204685.39    1.6047765 0.00034443003    61.780361    61.380339    61.535392    4659.5884 
 6480000   -204850.45    1.6059663 0.0027084446    61.558053     61.25638    61.752657    4678.6261 
 6485000    -204830.8    1.6421649 0.0069148019    61.622138    61.398265    61.495067    4697.6497 
 6490000   -204775.37    1.5843803 -0.0025763771    61.807814    61.541548    61.471262    4716.6176 
 6495000   -204781.33    1.6333264 -0.0038834649    61.576838    61.661777    61.512623    4735.6256 
 6500000   -204677.58    1.5462891 -0.00030239773    61.654138    61.750546    61.376252    4754.7119 
 6505000   -204763.49    1.5972341 0.0051367958    61.663704    61.440569    61.541417    4773.7411 
 6510000   -204847.79    1.5562786 -0.00099453242    61.774413    61.515255    61.420115    4792.8396 
 6515000   -204937.43    1.5818856 -0.00094475223    61.620927    61.451461    61.510945    4811.8272 
 6520000   -204886.36    1.6192361 -0.00038857851    61.591314    61.266262    61.672956    4830.8563 
 6525000    -204765.8    1.5851324 -0.001159778    61.663178    61.408843    61.589044    4849.8713 
 6530000   -204792.73    1.6307415 -0.0019909736     61.72312    61.420448    61.495471    4868.8553 
 6535000   -204700.15    1.6102811 0.0027412943    61.720484    61.468877    61.399651    4887.8105 
 6540000   -204407.78    1.6119934 -0.0016535586    61.801597    61.643374    61.611762    4906.7843 
 6545000   -204757.51    1.5494786 0.0017238258    61.735654    61.447045    61.426088      4925.78 
 6550000   -204677.75    1.6171885 0.00040279645    61.670358    61.494764    61.310071    4944.7413 
 6555000   -204685.21    1.5767405 -0.0069392494    61.421518    61.543811    61.754908    4963.7358 
 6560000   -204829.44    1.5876161 0.0042531198    61.190919    61.610218     61.65074    4982.6799 
 6565000   -204655.67    1.5844385 0.0036050364    61.419744    61.585807    61.482741    5001.7127 
 6570000   -204812.46    1.5597249 -0.0068906093    61.651826    61.627646    61.429095    5020.7395 
 6575000      -204761    1.5909598 0.0027157789    61.610446    61.832003    61.053956    5039.7992 
 6580000   -204516.39    1.5884468 0.0075086456    61.608157    61.921534    61.185556    5058.7926 
 6585000   -204592.37    1.6049296 0.0016815324    61.462918    61.711496    61.633668    5077.7849 
 6590000   -204687.61    1.6201894 -0.0013017339    61.494279    61.740702     61.62759    5096.8101 
 6595000   -204697.73    1.6467718 -0.0039682736    61.687107    61.673987     61.51884    5115.8452 
 6600000   -204707.37    1.5949922 0.0014457303    61.584837    61.672603    61.411407      5134.87 
 6605000   -204716.04    1.5821776 0.0051151271    61.308348    61.626795    61.512666    5153.8367 
 6610000   -204625.64    1.5734072 -0.0030685605    61.518074    61.781238    61.574948    5172.8503 
 6615000   -204690.78    1.6120231 -0.0065279377    61.761475    61.569232    61.626693    5191.7777 
 6620000   -204872.28    1.6484005 0.0025176585    61.492867    61.488193    61.547548    5210.7923 
 6625000   -204830.84    1.6053525 -0.002726845    61.664405    61.528284    61.614823    5229.8044 
 6630000   -204920.41    1.6054774 0.0020672382    61.368097    61.373514    61.641474    5248.7304 
 6635000   -204813.69    1.5937054 -0.000934259    61.479693     61.66932     61.57395    5267.7351 
 6640000   -204945.13    1.5749758 -0.00098215661    61.402876    61.610305    61.567286    5286.6848 
 6645000   -204937.78    1.5827099 0.0071200894    61.239744    61.455419    61.479042    5305.6211 
 6650000   -204769.48    1.5933436 -0.0053320856     61.63208    61.670213    61.464282    5324.5567 
 6655000   -204852.02     1.689311 0.0054406399    61.508031    61.443736    61.446565     5343.546 
 6660000   -204737.56    1.5779471 0.0015929298    61.415573    61.555592    61.699566    5362.4799 
 6665000   -204746.77    1.6060401 -0.0033829391    61.676721    61.482459    61.733736    5381.4724 
 6670000   -204757.87    1.6085738 -0.0020176611    61.591696    61.425895    61.617562    5400.4002 
 6675000   -204910.94    1.5445065  0.010440011    61.560567    61.111155    61.389786    5419.3211 
 6680000   -204962.28    1.5827935 -0.0050391157    61.532947    61.638029    61.498979    5438.2795 
 6685000   -204986.93    1.5639207 0.0028784225     61.45463    61.247619    61.561221    5457.2425 
 6690000   -204894.13    1.5926643 -0.006845418    61.577871    61.625452    61.518624    5476.2737 
 6695000   -204928.78     1.550027 0.0027719141    61.507762    61.505882    61.495521       5495.3 
 6700000   -205048.52    1.6135318 -0.00043265061    61.254369    61.643844    61.437655    5514.3597 
 6705000    -204718.6    1.6721464 0.0012457853    61.534934    61.502785     61.70638     5533.393 
 6710000   -204759.48    1.6520473 -0.0013818348    61.729536    61.809216    61.366834    5552.4525 
 6715000   -204841.77    1.5972063 -0.0023797642    61.883453     61.55944    61.388987    5571.5012 
 6720000   -204760.21    1.5516482 -0.0037159235    61.734039    61.643394    61.552956    5590.5724 
 6725000   -204893.28    1.5636326 0.00015652195    61.641909    61.559865    61.420995    5609.5441 
 6730000   -204605.78    1.6121246 0.0016392786    61.730835    61.388735     61.54527    5628.5588 
 6735000   -204747.33    1.6231291 0.0010899793    61.576472    61.472825    61.542826    5647.6571 
 6740000   -204727.37     1.579908 -0.00037094046    61.880094    61.375782    61.495517    5666.6681 
 6745000   -204959.59    1.5889504 0.0049607593    61.426988    61.374241    61.625777    5685.6866 
 6750000   -204863.73    1.6064719 -0.0027079395    61.659835    61.704264    61.369997     5704.717 
 6755000   -204900.09    1.6460324 -0.0028183951    61.606699    61.397635    61.529648    5723.7402 
 6760000   -204829.21    1.5802093 0.0039779807    61.496483    61.653516     61.37551    5742.7182 
 6765000   -204833.36    1.6228242 0.0039603412    61.326743    61.590293    61.602568    5761.7223 
 6770000   -204590.63    1.6014592 -0.0033674609    61.672628    61.556837    61.638205    5780.7528 
 6775000    -204732.3    1.5936685 0.0045884592    61.562875    61.465446    61.498595    5799.8088 
 6780000   -204828.53    1.5968649 0.0032126014    61.597373    61.562501    61.436344    5818.8451 
 6785000   -204915.14     1.602468 -0.0040502417    61.666055    61.540387    61.670667    5837.8113 
 6790000   -204777.21    1.5830098 0.0013056657    61.523903    61.566048     61.62031    5856.7937 
 6795000   -204669.21    1.6009436 0.0034919938    61.755517    61.334345    61.672912    5875.7925 
 6800000   -204530.44    1.6170599 0.0008100861    61.640933    61.776706    61.504077    5894.7219 
 6805000   -204533.05    1.5877218 -0.0046974609    61.755925    61.811663    61.520029    5913.6382 
 6810000   -204566.07    1.6131873 -0.0040507956    61.610452    61.972844    61.424522    5932.6063 
 6815000   -204852.08    1.6083374 0.0040753262    61.495295    61.663526    61.287738    5951.6474 
 6820000   -204659.48    1.6490862 0.0076374753    61.287776    61.762287    61.543353    5970.6165 
 6825000   -204835.08    1.6150602 -0.002409591    61.625746    62.072482    61.291294    5989.6343 
 6830000   -204612.92    1.6096709 -0.0015070062    61.468168    61.896559    61.675354    6008.6052 
 6835000   -204771.54    1.6749885 0.0068678513    61.506914    61.485091    61.614199     6026.718 
 6840000    -204614.6    1.6304326 -0.0044529352    61.526137    61.656297    61.817519    6045.2448 
 6845000   -204588.69    1.6322184 0.00080919693    61.404222    61.724372    61.699897    6064.2197 
 6850000   -204489.88    1.5914429 0.0023469463    61.742156    61.523867    61.599401    6083.2192 
 6855000   -204770.74    1.6017525 -0.00012792215    61.468867    61.639614    61.590784    6102.2298 
 6860000   -204672.56    1.6135566 -0.0026908674    61.819934    61.566101    61.483057    6121.2962 
 6865000   -204779.06    1.6449546 -0.0035298119    61.889132    61.585574    61.429059    6140.3179 
 6870000   -204621.29     1.565996 0.00023994985    61.939069    61.462385     61.42946    6159.2946 
 6875000   -204703.83     1.543746 0.0054280598    61.665958    61.681096    61.350633    6178.2916 
 6880000   -204767.82    1.5927362 -0.0041094839    61.482027    61.894346    61.485043     6197.262 
 6885000   -204931.33      1.59389 0.0027623996    61.191008    61.574454    61.739864    6216.2434 
 6890000   -204820.37    1.5562223 -0.00071123475    61.460443    61.872933    61.288221    6235.2161 
 6895000   -204813.76    1.5956549 0.0029256096    61.403887    61.671659    61.492646    6254.2111 
 6900000   -204784.45    1.5523692 -0.0015054597    61.647629    61.337606    61.575959    6273.2283 
 6905000   -204978.19    1.6372852 -0.002978525    61.608827    61.394132    61.422466    6292.2742 
 6910000    -204823.9    1.5609835 0.0046862197    61.494092    61.346437    61.520927    6311.2505 
 6915000   -204936.34    1.5852311 -0.0036933962    61.489813    61.610013    61.523089    6330.2277 
 6920000   -205070.79    1.6311843 -0.0045119662     61.44243    61.533595    61.514633    6349.2482 
 6925000   -204872.53    1.5884275  0.005994402    61.267187    61.458443    61.642806    6368.2487 
 6930000   -204787.06    1.6209397 -0.0019795155    61.411105    61.462555    61.815766    6387.2554 
 6935000   -204822.61    1.5900491 0.0053077906    61.443617    61.468299    61.550493     6406.238 
 6940000   -204751.66    1.5986046 -0.00047032298    61.623745    61.477412    61.664435    6425.2021 
 6945000   -205019.13    1.5654308 0.0024874253    61.565326    61.418566    61.569941    6444.1604 
 6950000   -204935.85    1.6040263 -0.003459815     61.70064    61.367763    61.640984    6463.1564 
 6955000   -204915.16    1.6156786 0.0014409802    61.556481    61.498901    61.423793    6482.1611 
 6960000   -204970.17    1.6035361 0.0025385809    61.545463    61.245257    61.580066    6501.1777 
 6965000   -204915.99    1.6016098 0.0028291126    61.511476    61.252944    61.638195    6520.1285 
 6970000   -205092.94    1.5966347 -0.0042037431    61.671233    61.292459    61.554004    6539.1723 
 6975000   -204786.62    1.6350673 0.0037464568    61.425278    61.343784    61.665818     6558.252 
 6980000   -204921.65    1.5806997 0.0018964683    61.316711    61.773228    61.482829    6577.2705 
 6985000   -204795.65    1.5602652 -0.0026423406    61.316474    61.625263    61.675719    6596.2539 
 6990000   -204935.36    1.5945514 0.00030740317     61.36711    61.522892    61.698868    6615.2568 
 6995000   -204824.56    1.5624197 0.0056663815    61.415282    61.399653    61.500295    6634.3152 
 7000000   -204961.54     1.606693 -0.0014446882    61.565502    61.475046    61.345527    6653.3749 
 7005000   -205056.42    1.5999227 -0.00030390975    61.274181    61.594416    61.414846    6672.3657 
 7010000   -204954.07    1.5672999 -0.0053546122    61.575627    61.623903    61.427138    6691.3728 
 7015000   -204834.23    1.5705162 0.0010169336    61.404884    61.488015    61.586612    6710.3407 
 7020000   -204684.29    1.5626766 0.0048682925      61.5755    61.576801    61.429551    6729.3603 
 7025000   -204704.25    1.5524342 -0.0051949021    61.663878     61.71145    61.422774    6748.2735 
 7030000   -204732.42    1.6289975 0.0057613057    61.254153    61.551789    61.587349    6767.2335 
 7035000    -204637.7    1.6224877 -0.0036196616     61.76393    61.498792     61.61858    6786.2245 
 7040000   -204615.04    1.6362432 -0.00052401713    61.662668     61.51928    61.550143    6805.1777 
 7045000   -204502.13    1.5685557 0.0067143569    61.502065    61.550955    61.508702    6824.1776 
 7050000   -204613.54    1.5714262 -0.0005721489    61.680756    61.621931    61.618613     6843.187 
 7055000   -204526.96    1.6086184 -0.00023131952    61.795478     61.63886     61.67312    6862.1831 
 7060000   -204659.42    1.6236289 0.0076774472    61.577282    61.487192    61.688784    6881.1854 
 7065000   -204628.46    1.6373119 -0.00055306901      61.6702    61.751912    61.553101    6900.2294 
 7070000   -204561.73    1.6188783 -0.0014921798     61.85021    61.463297    61.570777    6919.2701 
 7075000   -204654.69    1.6571518 -0.0019452416    61.628147    61.507587    61.723976    6938.2381 
 7080000   -204626.88     1.559613 0.0021949676    61.619678    61.542486    61.600688    6957.2206 
 7085000   -204697.53    1.6027297 -0.0052571132    61.797012    61.685925      61.4862    6976.2424 
 7090000   -204817.11    1.5836538 0.0013579128    61.396778    61.386936    61.664082    6995.2235 
 7095000   -204858.69    1.5799629 -0.00059519113    61.435066    61.548024    61.581088    7014.2415 
 7100000   -204653.06    1.6068187 -0.0003214422    61.545619     61.77545    61.446501     7033.231 
 7105000    -204432.2    1.6153711 0.0017077918    61.904104    61.467229    61.508362    7052.1878 
 7110000   -204627.49    1.5519611 0.0026600391    61.431025    61.718143    61.546224    7071.1939 
 7115000    -204671.4    1.5892999 -0.00096506775     61.61234    61.386378    61.814992    7090.1826 
 7120000    -204757.5    1.6407765 0.0029142878    61.454014     61.60509     61.47637    7109.1854 
 7125000   -204661.21    1.6122972 -0.0014289536    61.657295    61.573615    61.480479    7128.1819 
 7130000   -204628.26     1.570408 -0.0037537995    61.683109     61.87284    61.285836     7147.158 
 7135000   -204547.43    1.6480876 0.0024574888    61.799626    61.752154    61.300929    7166.1427 
 7140000   -204701.48    1.6110033 0.0011780184    61.460501    61.645345    61.495499    7185.0599 
 7145000    -204546.3    1.5846567 -0.00018892319    61.521411    61.825415    61.544741    7204.0419 
 7150000   -204724.55    1.5414083 -0.0022282216     61.69623    61.641514    61.385645     7223.026 
 7155000   -204786.49    1.5955724 1.4664539e-05    61.654235    61.397471    61.410012    7241.9826 
 7160000   -204660.44     1.604899 0.0018378975    61.247162    61.669317    61.701964    7260.8713 
 7165000   -204594.41    1.6133208 0.0029695558    61.511235    61.731596    61.426834    7279.8045 
 7170000   -204664.87    1.6342488 0.00067299098    61.847665    61.520805     61.53699    7298.7671 
 7175000   -204608.04     1.569637 -0.0056326356    61.630779    61.679322    61.836018    7317.7589 
 7180000   -204717.55    1.6139957 0.0084120663    61.344477    61.459076    61.570665    7336.7197 
 7185000   -204712.48    1.5773115 -0.00053695115    61.401349    61.450156    61.783916    7355.7104 
 7190000   -204778.66    1.5949314 -0.0020960735    61.424885    61.683581    61.637668    7374.7507 
 7195000   -204674.73    1.5844536 0.0059751277    61.309609    61.737651    61.475335    7393.7455 
 7200000   -204728.25    1.6217015 0.00066138356    61.759021    61.310693    61.541531    7412.8439 
 7205000   -204754.02    1.5923139 0.0024709038    61.672666    61.227788    61.724603    7431.8847 
 7210000   -204631.06     1.594161 -0.0016413331    61.750769     61.39133    61.527548    7450.9612 
 7215000   -204583.59    1.5957868 -0.00046310558    61.466437    61.719735     61.51057    7469.9852 
 7220000   -204672.71    1.5899382 0.00038035216    61.426353     61.63757    61.531739    7488.9884 
 7225000   -204736.63    1.6163027  0.003762214    61.544519    61.529325    61.426034    7508.0643 
 7230000   -204726.93    1.5819715 0.00027754415    61.444665    61.813066    61.457494    7527.0364 
 7235000   -204716.29    1.6099749 0.00067292378    61.459369    61.373819    61.799639    7545.9812 
 7240000   -204553.35    1.5790374 -0.0042024058    61.560938    61.481325    61.795302    7564.9497 
 7245000   -204548.82    1.6718697  0.002609888    61.682334     61.31972    61.599962    7583.9722 
 7250000   -204514.75    1.5649432 -0.00095940842    61.938804    61.506159    61.409052    7602.9167 
 7255000      -204399    1.6129093 -0.0022542354     61.92303     61.51308     61.62859    7621.8827 
 7260000   -204507.69    1.6120466 0.0013074054    61.622788    61.605393    61.588601    7640.8583 
 7265000   -204538.23    1.6005129 -0.0057485371     61.81185    61.562864    61.608475    7659.8553 
 7270000   -204573.86    1.6167213 -0.00023051004    61.729071    61.379911    61.592561    7678.8155 
 7275000   -204587.04    1.6586031 0.0015143711    61.485913    61.312562    61.790687    7697.7721 
 7280000   -204493.97     1.588085 0.0012398237    61.730758     61.34965    61.591623    7716.6984 
 7285000   -204608.36     1.591604 0.00048136331    61.712273    61.540647     61.52171    7735.6914 
 7290000   -204708.88    1.6367428 0.00076669268    61.696557    61.407749    61.725994     7754.678 
 7295000   -204893.51     1.612315 -0.0019637777    61.508686    61.802366    61.354746    7773.6547 
 7300000   -204731.03    1.5859783 0.0016848688    61.500114     61.47164    61.739452    7792.6279 
 7305000   -204694.64    1.5977391 0.0020730703     61.50559    61.630234    61.531847     7811.632 
 7310000   -204691.68    1.5958103 0.0043316458     61.77905    61.204385    61.372716    7830.6839 
 7315000    -204666.9    1.6456277 -0.0046842311    61.548749    61.666348    61.615322    7849.6512 
 7320000    -204660.4    1.5893927 -0.0040859181    61.605114    61.501623    61.782092    7868.6617 
 7325000   -204698.37    1.5983684 0.0022987064    61.640004    61.636675    61.334781    7887.6529 
 7330000   -204634.64    1.6205225 -0.0010318673    61.459282     61.65943    61.535716    7906.6491 
 7335000   -204693.38    1.5751465 0.0012836621    61.576258    61.806731    61.412668    7925.6404 
 7340000   -204491.06    1.6264247 -0.00044020835     61.58044    61.697852    61.759944    7944.5805 
 7345000   -204421.09    1.6027972  0.009098851    61.663758    61.502209    61.527685    7963.4866 
 7350000   -204634.76    1.6171639 -0.0031848884    61.469491    62.007001    61.598487    7982.3625 
 7355000   -204444.45    1.5957165 -0.0015389413    61.561231    61.907209    61.511761    8001.3028 
 7360000   -204543.14    1.6125319 0.0018831065    61.334191    61.698305    61.711111    8020.2556 
 7365000   -204563.93    1.6469751  0.002540984    61.613577    61.748816    61.332826    8039.2631 
 7370000   -204771.93    1.6134193 0.00015555069    61.396092    61.730422    61.610717    8058.2836 
 7375000   -204661.41    1.5744592 -0.0018977498    61.459472    61.692631    61.679547    8077.2328 
 7380000    -204514.1    1.5793259 -0.0013163219    61.965819    61.615209    61.483341    8096.1936 
 7385000   -204394.29    1.5821909 -0.0035808281    62.009716    61.654414    61.607322    8115.1261 
 7390000   -204348.66    1.6199883 0.0042314431    61.649296    61.624254    61.666004    8134.0313 
 7395000   -204225.56    1.5763349 -0.0067102393    61.806646    62.024596     61.61398    8152.9676 
 7400000   -204205.86    1.5710584 -0.003452187    61.886926    61.833584    61.686395     8171.919 
 7405000   -204293.37    1.6005057 0.0026575891    61.786079    61.709266    61.675362    8190.8295 
 7410000    -204193.4    1.6179904 -0.00068836211    61.809487    61.649948    61.947479    8209.8529 
 7415000   -204271.86    1.6139497 -0.00027359764    61.743418    61.839214    61.707564    8228.7899 
 7420000   -204285.04    1.5819523 -0.0025759431    61.837495    61.810174    61.783337    8247.7539 
 7425000   -204179.33    1.6147169 -0.0011274446    61.929827    61.789768     61.77783    8266.6321 
 7430000   -204189.02    1.6024304 -0.00025282294    61.853592    61.666934    61.757265    8285.5865 
 7435000   -204110.73    1.5683152 -0.0032872128     62.01497    61.665394    61.749818    8304.6049 
 7440000   -204373.87    1.6195426 0.0027698918    61.745986    61.809139    61.507081    8323.5533 
 7445000   -204303.33    1.6120683 0.00091629448    61.537338    61.733882    61.888245     8342.502 
 7450000    -204475.8     1.543086 -0.00052255024    61.664131    61.755152    61.599143     8361.455 
 7455000   -204420.23    1.5849216 -0.004925248    61.687054    61.751595    61.750836    8380.4686 
 7460000   -204406.97    1.6105109 0.0032741598    61.593254    61.686283    61.482071    8399.5289 
 7465000   -204528.26    1.5773142 0.0012957838    61.566178    61.654455    61.532998    8418.5428 
 7470000   -204417.49    1.5405281 -0.0044075593     61.92464    61.867535    61.370741    8437.4777 
 7475000   -204519.54    1.5984422 0.00073428452    61.789091    61.657349    61.468385    8456.5158 
 7480000   -204581.57    1.5923605 -0.0015213746    61.756721    61.514934    61.648037    8475.5251 
 7485000   -204667.27    1.5985634 -0.0008984541    61.692933    61.418161    61.682224    8494.4878 
 7490000   -204612.91    1.6063781 -0.0057010721    61.748876    61.676441    61.472376    8513.4495 
 7495000   -204423.91    1.6212532 0.0047428298    61.621919    61.550955    61.633421    8532.3341 
 7500000   -204481.48    1.6212108 -0.0020386955     61.54267    61.696369    61.684833    8551.2849 
 7505000   -204619.09    1.6080998 0.00098528326    61.684161    61.640539    61.375008    8570.2526 
 7510000   -204468.49     1.596514 0.0021928889    61.565602    61.835301    61.349838     8589.212 
 7515000   -204423.62     1.631447 -0.0017311774    61.902607    61.509038    61.529593    8608.1894 
 7520000   -204315.11    1.6048943 0.0013060374     61.60902    61.633176    61.640928    8627.1229 
 7525000   -204482.84    1.6105917 0.0034662975    61.603493    61.637251    61.476828    8646.0515 
 7530000    -204627.5    1.5886524 -0.00091214749    61.878282    61.432425    61.652393    8664.9624 
 7535000   -204508.15    1.5825738 -0.00048638219    61.605043    61.698912    61.737225    8683.9024 
 7540000   -204180.45    1.6009629 0.0004224568    61.765043    61.820441     61.54111    8702.8633 
 7545000   -204285.22    1.6104186 -0.00069597247    61.755643    61.580671    61.730302    8721.7444 
 7550000   -204098.79    1.6520353 -0.0023963603    61.821237    61.793971    61.689294    8740.6701 
 7555000   -204279.31    1.6130441 0.0030215095    61.498558    61.835877    61.667928    8759.5887 
 7560000   -204449.76     1.579191 -0.0013363694    61.555326    61.446465    62.004703    8778.5813 
 7565000   -204618.73    1.5825709 -0.0012464066    61.655264    61.606968     61.57312    8797.6227 
 7570000   -204697.18    1.6231078 -0.002327536    61.611636    61.585067    61.623754    8816.5311 
 7575000   -204699.19    1.5674818 -0.0029947669    61.570774    61.744346    61.573907    8835.4795 
 7580000   -204779.51    1.6410668 0.0029721414    61.695449    61.650068    61.399907    8854.4831 
 7585000   -204615.65    1.6046654 -0.0017425661    61.786806    61.665568    61.524207     8873.489 
 7590000   -204521.32    1.5815519 -0.0027778233    61.706449    61.619374    61.858445    8892.4392 
 7595000   -204728.13    1.5901756 0.00022520206    61.582339    61.508966    61.811346    8911.3072 
 7600000   -204395.75    1.5895817 -0.00074443241    61.930087     61.69552    61.559351    8930.2246 
 7605000   -204774.35     1.579739 0.0037097105    61.779812    61.477429    61.412001    8949.1553 
 7610000   -204675.94     1.583053 0.0020059627    61.713053    61.702818     61.42768    8968.1856 
 7615000   -204697.05    1.6218214 -0.0043441503    61.647849    61.827073     61.63777    8987.1827 
 7620000   -204466.31    1.6232359 -0.0051919024    61.869313    61.548353    61.756341    9006.0848 
 7625000   -204439.69    1.6354869 0.0096789425    61.702897     61.30744    61.647689    9025.0058 
 7630000   -204502.23    1.5700683 0.00030696022    61.720113    61.516597    61.737388    9043.9588 
 7635000   -204514.58    1.5906894 0.00019746542    61.729618    61.653994    61.655321    9062.9516 
 7640000   -204507.62    1.6214289 -0.0043066184    61.823141    61.580437    61.669758    9081.9204 
 7645000   -204405.66    1.6561446 -0.002331895    61.914052    61.479254    61.573988    9100.9128 
 7650000   -204411.66    1.5988266 -0.0012314238    61.752434    61.571777     61.64129     9119.961 
 7655000   -204549.25    1.5764162 0.00063782022    61.720945    61.671321    61.481178    9138.9671 
 7660000   -204562.59    1.5454832 0.0023970923    61.569012    61.695377    61.482313    9157.9662 
 7665000    -204567.1    1.6216866 0.0005982495    61.788862    61.449124    61.651685    9176.9702 
 7670000   -204403.17    1.6263902 -0.00081145542    61.865659    61.479281    61.767468    9195.9614 
 7675000   -204637.42    1.5761352 0.00040570488    61.465214    61.695551    61.699493    9214.9866 
 7680000   -204576.86    1.5651338 0.0016187758    61.714645    61.458872    61.627879    9234.0138 
 7685000   -204667.08    1.6307846 -0.00050837075    61.493986    61.593783    61.736107    9252.9669 
 7690000    -204824.9    1.5950226 0.0061278035    61.593465    61.595499    61.423836    9271.9251 
 7695000   -204602.89    1.5973734 -0.006714695    61.669617    61.862731    61.760454    9290.9265 
 7700000   -204569.34    1.6047468  0.005773268    61.592326    61.411077    61.764731    9309.8304 
 7705000   -204402.38    1.6326738 0.0018486913    61.785196    61.545343    61.689164    9328.7023 
 7710000   -204255.24    1.5809375 -0.0027603736    61.653633    61.896436    61.707028    9347.7024 
 7715000   -204412.62    1.5874643 0.0014448831    61.635775    61.622226    61.787383    9366.7437 
 7720000   -204295.09    1.6107431 0.0024755542    61.706996    61.804547    61.568471    9385.7119 
 7725000   -204308.43    1.5756985 -0.006625852    61.790635    61.878641    61.830735    9404.6373 
 7730000   -204548.56    1.6169724 0.0024591104    61.702075    61.743964     61.60324    9423.5797 
 7735000   -204468.24    1.6538819  0.003083552    61.560897    61.618789    61.800353    9442.5447 
 7740000   -204453.46    1.5540517 -0.0013222628    61.402323    61.757977    61.870002    9461.5062 
 7745000   -204675.74    1.5508939 -0.0011235035    61.933066     61.44078    61.537434    9480.4367 
 7750000   -204704.95    1.5962237 0.00088841993     61.74842    61.520888    61.650625    9499.4346 
 7755000   -204474.48    1.5652894 -0.0050005982    61.569093    61.695022     61.93207    9518.4051 
 7760000   -204391.67    1.5892788 -0.0039167702    61.477911    61.914625    61.836709    9537.3548 
 7765000   -204372.87    1.5851321 0.00026129371    61.692603    61.834179    61.555591    9556.3882 
 7770000   -204407.27    1.5525368 -0.001618466    61.643486    61.606609    61.773514    9575.3123 
 7775000   -204297.17    1.5882605 -0.00058804914    61.702842    61.554284    61.836574    9594.3539 
 7780000    -204400.8    1.5741057 0.0026402935     61.85908    61.754333    61.458798    9613.3652 
 7785000   -204402.81    1.6146172 8.4280546e-05    61.865754    61.536341     61.69408    9632.3038 
 7790000      -204430    1.5921104 0.0011228127    61.774157    61.788694    61.502071     9651.281 
 7795000   -204421.57    1.6148999 0.0023990814    61.810993    61.799791    61.448011    9670.1958 
 7800000   -204389.89    1.5859631 0.0025040221    61.698268    61.753958    61.508923    9689.2404 
 7805000   -204432.45    1.5658645 0.0010312746    61.724294    61.737966    61.634471     9708.208 
 7810000   -204361.48    1.5960846 0.0022500471    61.609484     61.79005    61.564639    9727.1528 
 7815000   -204369.33    1.6092356 0.0025871504    61.640274    61.699213    61.712143    9746.1514 
 7820000   -204258.41    1.5836276 -0.00066655017      61.9415    61.556203    61.751464    9765.1056 
 7825000   -204243.36    1.5891501 -3.7765963e-05    61.716476    61.810754    61.766505    9784.1472 
 7830000   -204532.91    1.6032196 0.0027961292    61.901662    61.780473    61.348124    9803.0884 
 7835000   -204438.79    1.6231374 0.0054981117    61.601489    61.600523    61.717079      9822.03 
 7840000   -204431.63    1.6057773 -0.0065621732    61.869913    61.680703    61.763565    9840.9782 
 7845000      -204398    1.6177489  0.003063902    61.817931    61.689757    61.578883    9859.8655 
 7850000   -204584.28    1.5896214 0.0041357775    61.668049    61.704087    61.531747    9878.8022 
 7855000      -204440    1.5802397 0.0008190358    61.632749    61.568935     61.74315     9897.805 
 7860000   -204636.79    1.6186046  0.004072246    61.516511     61.47615    61.740873    9916.7613 
 7865000   -204702.64    1.6116198 0.0013485888    61.292284    61.552588    61.842472    9935.6948 
 7870000   -204446.34    1.6039797 -0.0012651582    61.615745    61.567798    61.690433    9954.6696 
 7875000   -204522.84    1.6143843 0.0034782318    61.452308    61.671083    61.572138    9973.6933 
 7880000   -204448.12    1.6385887 -0.0022925677    61.532646    61.664406    61.757216    9992.7428 
 7885000   -204300.31     1.624899 1.5506759e-05    61.537459    61.643401    61.790103    10011.786 
 7890000   -204424.91    1.6431129  0.003469388    61.676847    61.520914     61.63896    10030.794 
 7895000    -204404.5    1.6066587   0.00024875    61.533929     61.73599    61.622347    10049.766 
 7900000    -204431.9    1.5750495 0.0018010034     61.51265    61.383129     61.87357    10068.718 
 7905000    -204384.1    1.5733841 -0.0020096773    61.704608    61.562609    61.777773    10087.677 
 7910000   -204387.99    1.5886936 -0.004646126    61.651725    61.482753    61.909372     10106.67 
 7915000   -204512.12     1.615865 0.0014861821    61.628367    61.650361     61.40352    10125.612 
 7920000   -204617.71    1.6114352 -0.00082680876    61.704774    61.659397    61.355285     10144.67 
 7925000   -204331.64     1.552675 0.0013013308    61.836484     61.57829    61.449982    10163.659 
 7930000   -204427.02    1.5935297 -0.0032094308    61.830183    61.567118    61.677733    10182.632 
 7935000   -204372.42    1.5928123 -0.0062065868    61.979218    61.573895    61.790075    10201.532 
 7940000   -204277.63     1.525677 0.0015676354    61.849561     61.59053    61.652971    10220.515 
 7945000   -204439.95    1.5758755 0.0017036345    61.762776    61.464757    61.747675    10239.543 
 7950000   -204339.48    1.6313166 0.00071850014    61.952778    61.608903     61.55555    10258.582 
 7955000   -204237.62    1.5879005 -0.0062378478    61.806677    61.712728    61.833978    10277.607 
 7960000   -204660.25     1.590284 -0.0027593694    61.548161    61.831206    61.711903    10296.651 
 7965000   -204438.68    1.6135242 0.00064508064    61.408783    61.717734    61.854775    10315.601 
 7970000   -204368.18    1.6262319 0.0069410627     61.85138    61.321449    61.673722    10334.546 
 7975000   -204366.25    1.5852376 -0.0015821617     61.69917     61.72063    61.836568    10353.515 
 7980000   -204474.01        1.631 -0.0045362977    61.846056    61.678813    61.689144    10372.556 
 7985000   -204559.21    1.5688704 -0.0055386257    61.624953    61.773701    61.813646    10391.552 
 7990000   -204329.11    1.5742905 0.0046782646    61.811596    61.717637    61.487319    10410.486 
 7995000    -204349.6    1.6135299 0.0051970526    61.468971    61.905447    61.570845    10429.488 
 8000000   -204388.65    1.5880235 -0.0033185416    61.830381    61.807374    61.657371    10448.535 
 8005000   -204363.27    1.5980123 0.0018649888    61.526744    61.868622    61.644867    10467.518 
 8010000   -204241.44    1.6026974 -0.002548985    61.829412    61.786706    61.667241    10486.534 
 8015000   -204255.43    1.6010464 0.0061759424     61.68316    61.839287    61.514719    10505.512 
 8020000   -204330.68     1.638143 -0.00056224914    61.974552    61.801947    61.532486    10524.453 
 8025000    -204170.4    1.6209146 -0.0076013286    61.938755    61.699849     61.91679    10543.429 
 8030000   -204215.48    1.6251678 -0.0016744168    61.852021    61.856438    61.639449    10562.388 
 8035000   -204216.32     1.629055 -0.002035014    61.808729     61.82374    61.671847    10581.346 
 8040000   -204281.83    1.5707719 -0.0019003658    61.679672    61.675773    61.841984    10600.275 
 8045000   -204216.44    1.6251632 1.3635464e-05    61.479029    61.972233    61.744004     10619.31 
 8050000   -204243.41    1.5659368 -0.0011603185    61.757229    61.629362    61.712268    10638.299 
 8055000   -204356.04    1.6307064 -0.005422086    61.902227    61.569617    61.680726     10657.27 
 8060000   -204354.64    1.5865318 -0.0025535236    61.630479    61.731385     61.71324    10676.231 
 8065000   -204349.25    1.5835257 0.0025567548    61.560217    61.673398    61.694334    10695.172 
 8070000   -204449.01    1.6032111 0.0014671424    61.505379    61.617169     61.77824    10714.209 
 8075000   -204515.31    1.5972486 -0.0039708924    61.631904    61.840469    61.626658    10733.255 
 8080000   -204352.34    1.6254639 -0.00094293118    61.504738    61.579685    61.858173    10752.304 
 8085000   -204335.97    1.6702994 0.0063348541    61.459475    61.456983    61.753889    10771.246 
 8090000   -204397.46    1.5972084 0.0013735468     61.69114      61.5862    61.664922    10790.206 
 8095000   -204342.72    1.5783693 0.0029797229     61.57665    61.957312    61.350745    10809.245 
 8100000   -204366.67     1.603439 -0.00053021443    61.567042    61.731228    61.588368    10828.323 
 8105000   -204263.22    1.6016418 0.00021783337    61.736741    61.628727    61.622692     10847.44 
 8110000   -204352.45    1.5295628 0.0022747857    61.687484    61.588981    61.701197    10866.459 
 8115000   -204368.93    1.5668249 -0.0017288429    61.727574    61.745489     61.56973     10885.51 
 8120000   -204394.93    1.5837603 -0.0051263985    61.916387    61.816331    61.576628    10904.621 
 8125000   -204342.18    1.5757416 0.0088569928    61.625891    61.666409    61.490081    10923.617 
 8130000   -204197.67    1.6263602 -0.0032845937    61.746236    61.775044    61.776908    10942.618 
 8135000   -204401.45    1.6065291 -0.0013107507    61.621714    61.658912    61.780506    10961.628 
 8140000   -204354.22    1.5418523 0.00048050468    61.728972    61.914801    61.488458    10980.621 
 8145000   -204352.43    1.6081065 0.0026848283    61.826106    61.672316    61.563524    10999.487 
 8150000   -204428.02    1.6429098 0.0017510498    61.761573      61.5923    61.517924    11018.448 
 8155000   -204429.59    1.5531922 -0.0045846512      61.8788    61.605776    61.504374    11037.447 
 8160000   -204594.52     1.611203  0.004019085    61.724129    61.457661    61.364734     11056.38 
 8165000   -204442.73    1.6297135 -2.955282e-05     61.45214    61.782953    61.624269     11075.38 
 8170000   -204589.82    1.5791216 0.0039793929    61.730941    61.459652    61.475605    11094.426 
 8175000   -204592.93    1.5677018 -0.0022664855    61.632849    61.634281    61.512958     11113.38 
 8180000    -204360.3    1.6193952 0.0016647736    61.579332     61.76225    61.611927    11132.309 
 8185000   -204422.12    1.6043611 0.0048018092    61.762013    61.403688    61.559165    11151.289 
 8190000   -204353.33    1.6660045 -0.0021020506    61.820186    61.413531    61.786885    11170.346 
 8195000   -204531.14    1.6146265 0.0034494522    61.761624    61.340242    61.577354    11189.401 
 8200000   -204506.98    1.6013727 0.0015534605     61.62021    61.636777    61.521998    11208.373 
 8205000   -204258.67    1.5764531 0.0018032356     61.57295     61.87673     61.67388    11227.367 
 8210000   -204327.64    1.5754054 -0.0015591654    61.952814     61.80708    61.418257    11246.345 
 8215000   -204442.47    1.5985686 -0.0028538837    61.515235    61.792285    61.666697    11265.308 
 8220000   -204518.51    1.5964521 -0.0006884593    61.432566    61.936081    61.689346    11284.293 
 8225000   -204455.78     1.582526 0.0070840995    61.419782     61.60621    61.591271    11303.242 
 8230000   -204466.47    1.5888316 -0.0045382977    61.643722    61.659061    61.767428    11322.251 
 8235000   -204330.35    1.6019595 0.00050825329    61.537189    61.649115    61.753241    11341.196 
 8240000   -204320.24    1.5652513 0.0027353512    61.674486    61.514472    61.694249    11360.125 
 8245000   -204348.78    1.6344136 7.7130002e-05    61.773173    61.509757    61.820966    11379.095 
 8250000   -204246.96    1.6060815 0.0012499699    61.614279    61.658566     61.76924    11397.965 
 8255000   -204305.33     1.627075 0.00076420556    62.034587     61.43426    61.742575    11416.865 
 8260000   -204325.49    1.6519689 0.0016631292    61.617477    61.883157    61.632958     11435.84 
 8265000    -204262.1     1.578798 -0.00093889867     61.80862    61.636679     61.86295    11454.885 
 8270000   -204262.35    1.5985711 -0.0049883747    61.983188    61.561587    61.790436    11473.873 
 8275000   -204223.72    1.6200313 0.0030931515    62.014922     61.57362    61.441108    11492.801 
 8280000   -204415.79     1.621793  0.001187606    61.658733    61.751677    61.567415    11511.739 
 8285000   -204456.76    1.5576038 0.0035500948    61.962792    61.482774    61.510196    11530.698 
 8290000   -204396.39    1.6557293 4.9997038e-05     61.82061    61.694856    61.478538    11549.686 
 8295000   -204603.08    1.5521744 -0.0017174572    61.463372    61.772391    61.579679    11568.652 
 8300000   -204368.96    1.5761227 0.0065303766    61.572029    61.850268    61.482908    11587.587 
 8305000   -204499.05    1.5973431 0.0049243822    61.671437    61.573302    61.537517    11606.547 
 8310000   -204517.25    1.6048379 0.0092987315    61.583469    61.652454    61.488724    11625.489 
 8315000   -204467.51    1.6092197 0.00012934836    61.503995    61.800311    61.732247    11644.409 
 8320000   -204646.18    1.5643837 -0.0028751255    61.686963    61.593293    61.950165    11663.332 
 8325000   -204358.62    1.5995909 5.731555e-05    61.702104    61.554172    61.914403    11682.275 
 8330000   -204642.44    1.5885921  0.001352534     61.56606    61.511444     61.88031    11701.267 
 8335000   -204692.97    1.5733261 0.0013985004    61.732925    61.458038    61.686815    11720.279 
 8340000   -204490.96    1.6103575 -0.0069021276     61.71353    61.688669    61.779328    11739.245 
 8345000   -204613.32    1.6216897 -0.0096254959    61.589991    61.658269    61.804303    11758.149 
 8350000      -204376    1.6303619 0.0097395087    61.686806    61.311893    61.595615    11777.094 
 8355000   -204429.21     1.629279 0.0033317767    61.612938    61.552123     61.57318    11796.042 
 8360000   -204444.89    1.5979872 0.0012096575    61.650309     61.56482    61.701038    11815.081 
 8365000   -204295.12    1.6146883 -0.0044606188    61.605949    61.661663    61.925848    11834.086 
 8370000   -204464.76    1.5313308 0.0016891046    61.406049    61.792364    61.651783    11853.089 
 8375000    -204433.4    1.6207029 0.0014315319    61.347354    62.003986    61.558985    11872.057 
 8380000   -204503.34    1.6205574 -0.00025577397    61.460589    61.681726    61.802447    11890.981 
 8385000   -204421.83     1.603015 -0.00054566274    61.661228    61.546272    61.766565    11909.929 
 8390000   -204477.14    1.5825353 -0.0020777223    61.941506     61.54937    61.455915    11928.925 
 8395000   -204653.42    1.6228041 0.00075315803    61.430227    61.961815    61.568635    11947.828 
 8400000   -204716.46    1.6436552 0.00053135311    61.447163    61.756707     61.46882    11966.767 
 8405000   -204579.29    1.5957003 0.00050744933    61.618648    61.734688    61.494116    11985.762 
 8410000   -204591.01    1.6188936 -0.0060833122    61.558912    61.755169    61.717491    12004.733 
 8415000   -204622.49     1.601075  0.002961975     61.84729    61.301365    61.487212    12023.721 
 8420000   -204650.55    1.6167027 0.0035035603    61.681569    61.610881    61.397924    12042.675 
 8425000   -204559.25    1.6147052 -0.0055824844    61.540626    61.779803    61.664049     12061.69 
 8430000   -204521.66     1.586137 -0.0020732314    61.608795    61.600518    61.578275    12080.649 
 8435000   -204617.56    1.6150194 0.0058572983    61.418677    61.382003    61.632345    12099.592 
 8440000    -204605.4    1.5940061 -0.00060064362    61.558223    61.590022    61.663997    12118.531 
 8445000    -204448.1    1.5585763 0.0005749553    61.577163    61.721139    61.603366    12137.552 
 8450000   -204562.51    1.5613195 -0.00070838531    61.623277    61.623954    61.672822    12156.482 
 8455000   -204561.29    1.5898267 -0.0015979992     61.42362     61.75983    61.741486    12175.684 
 8460000   -204470.94    1.5693269 -0.00049665398    61.580621    61.546857    61.917414    12194.665 
 8465000   -204388.46    1.6041863 -0.0025319115    61.707486    61.526995    61.862061    12213.651 
 8470000   -204440.58    1.6218414 0.0022349316    61.657663    61.673277    61.635385     12232.61 
 8475000    -204513.6    1.6119243 -0.0052972385    61.676102    61.828971    61.577171     12251.54 
 8480000   -204507.92    1.6039572 0.0040192691    61.665789    61.441711    61.718911    12270.476 
 8485000    -204486.7    1.5855498 -0.00085743639    61.709233    61.449719    61.817156    12289.397 
 8490000   -204459.01    1.5954022 -0.002028948    61.483505    61.655829    61.915237    12308.366 
 8495000   -204350.05    1.5823413 0.0031674844    61.554014    61.783708    61.586101    12327.355 
 8500000   -204446.03    1.5818724 -0.0044835749    61.704236    61.762573    61.694462    12346.274 
 8505000   -204519.09    1.6261112 0.0020556071    61.786857    61.449836    61.488163    12365.181 
 8510000   -204485.96    1.5840523 0.0026948742    61.807891    61.588839    61.363826    12384.065 
 8515000   -204584.86    1.6060829 -0.0019631849    61.463611    61.686836     61.67613    12403.051 
 8520000   -204640.64    1.6311811 0.0020283907    61.432533    61.446376    61.752033    12422.009 
 8525000   -204383.48    1.6554047 -0.0024086565    61.698558    61.594641    61.758145    12441.001 
 8530000   -204574.17    1.5858529 0.0033377298    61.706234    61.531989    61.604201    12460.001 
 8535000   -204539.44    1.6175402 -0.00083659781    61.564341    61.702408    61.633693     12479.03 
 8540000   -204679.09    1.6114239 -0.0023621929     61.63007     61.56566     61.70647    12498.083 
 8545000   -204705.29    1.6571973 0.0039754775    61.563671    61.518927    61.494865    12517.121 
 8550000   -204701.16    1.6206845 -0.00081090046    61.725782    61.607835    61.453221    12536.114 
 8555000   -204582.76    1.6499932 0.0042686324    61.558961    61.657334    61.656204    12555.046 
 8560000   -204492.57    1.6149239 -0.0033212131    61.802429    61.753061    61.693905    12574.056 
 8565000   -204335.16    1.6018153 0.00038929683    61.833601    61.521889    61.627728    12593.026 
 8570000   -204347.32    1.5659907 0.0028325528    61.749148     61.59169    61.583429    12612.059 
 8575000   -204364.17    1.6258131 -0.0076498984    61.767496    61.745022    61.739095    12631.077 
 8580000   -204408.61    1.5643011 0.00032759237    61.589168    61.425501    61.785917    12650.125 
 8585000   -204516.63    1.5575064 -0.0051542771    61.487992    61.595132    61.855955      12669.1 
 8590000   -204498.62    1.5931428 0.0036166454    61.666372    61.546686    61.468459    12688.143 
 8595000   -204530.53    1.6559312 0.0025836822    61.631703    61.617686    61.594245     12707.08 
 8600000    -204366.4    1.5750473 0.00072321037    61.537762    61.770771    61.521426     12725.98 
 8605000   -204455.01    1.5965758 -0.0013687731     61.69692    61.659662     61.68373    12744.965 
 8610000   -204649.66    1.5356208 -0.00086559796    61.901584    61.447225    61.712651    12764.043 
 8615000   -204469.39    1.6130337 -0.00046698618    61.921419    61.585836     61.56858    12782.978 
 8620000   -204447.23    1.6215215 -0.0037509333    61.926313    61.711671     61.63669    12801.966 
 8625000   -204532.35    1.5908869 0.0039188451    61.791083    61.600266    61.559696    12820.937 
 8630000   -204628.38    1.6102475 0.0012993969    61.560505    61.770263     61.51923    12839.913 
 8635000    -204628.1    1.5359251 -0.0027478308    61.706516    61.613402    61.583904    12858.871 
 8640000   -204425.94    1.5393242 -0.0049017882     61.81073    61.618707    61.804116    12877.937 
 8645000   -204642.01    1.5585061 0.0065124962    61.498552    61.529289    61.502788    12896.974 
 8650000   -204747.26     1.640168 -0.0032609729    61.747673     61.65125    61.603831    12916.015 
 8655000   -204720.22    1.6208718 -0.0028858998    61.568397     61.79512    61.438166    12934.994 
 8660000   -204687.07    1.5870117 0.0028489294    61.553027    61.723836    61.387244    12953.984 
 8665000   -204607.73    1.5990301 -0.0073488027    62.032488    61.835427    61.361577    12972.931 
 8670000   -204570.28     1.625164 -0.0049466808    61.623412    61.779179     61.70248    12991.901 
 8675000   -204349.09    1.6106738  0.005243915    61.889074     61.44557    61.513733    13010.861 
 8680000   -204451.17     1.607409 -0.00086547632    61.865899    61.727424    61.335198    13029.869 
 8685000   -204666.82    1.5568798 0.00017703484    61.665053    61.584028    61.603362     13048.86 
 8690000   -204517.86    1.5901666 0.0016703912    61.779424    61.352645    61.740521    13067.878 
 8695000   -204520.84      1.61316 -0.0055678667    61.619719    62.009253    61.424008    13086.841 
 8700000   -204523.08    1.6102822 -0.00013712801    61.678869    61.692992    61.486655    13105.861 
 8705000   -204664.52    1.5991805 -0.00034757969    61.657579    61.557203    61.641787    13124.889 
 8710000   -204400.13    1.5921626 -0.0075404511    61.695372    61.790922    61.726985    13143.977 
 8715000   -204597.03    1.6503333 -0.0014255596    61.450966    61.881791    61.468894    13163.032 
 8720000   -204502.49    1.5762468 0.0040834943    61.263415    61.724294    61.625583     13182.05 
 8725000   -204527.58    1.6466377 0.0062282586    61.358112    61.639153    61.557674    13201.101 
 8730000   -204453.63    1.5872632 -6.6900051e-05    61.730576    61.550496    61.642633    13220.145 
 8735000   -204676.78     1.590378 0.00089621687    61.428137    61.691486    61.638272    13239.142 
 8740000   -204690.12    1.6312571 -0.00030405247    61.364203    61.651284    61.735389    13258.144 
 8745000   -204591.26    1.6415934 -0.00077540321    61.582901    61.456493    61.771073    13277.168 
 8750000   -204551.03    1.5912104 -0.001190077    61.633801    61.717323    61.536183    13296.116 
 8755000   -204749.31    1.6293117 0.0053690597    61.530695    61.643496    61.432965    13315.148 
 8760000   -204630.46    1.5941201 -0.001986561    61.414702    61.763228    61.644554    13334.144 
 8765000   -204701.09     1.594774 0.0064495774    61.789979    61.401932    61.330596    13353.119 
 8770000   -204721.77    1.5491212 -0.0035591576    61.561513    61.556385    61.618248    13372.077 
 8775000   -204755.83    1.6001844 0.00033777989    61.183956    61.687143    61.593381    13391.097 
 8780000   -204668.28     1.591837 0.00071734764    61.588066    61.525473     61.53546    13410.036 
 8785000   -204622.89     1.604211 -0.00067129443    61.544607    61.446744     61.74449    13428.976 
 8790000   -204656.88     1.618328 0.0019395461    61.621503    61.563929    61.453693    13447.989 
 8795000   -204812.45    1.6059395 -0.0093076842    61.628928    61.471543    61.794624     13466.96 
 8800000   -204756.13    1.6019843 0.00039813101    61.684683    61.394179    61.519565    13486.007 
 8805000   -204839.48    1.5815519 0.0021720945      61.6306    61.405065    61.440888    13505.014 
 8810000   -204718.76    1.6047017 -0.0010038296    61.520187    61.620416    61.455095    13523.943 
 8815000   -204567.58    1.5843101 -0.0003372286    61.719711     61.46815    61.646583    13542.911 
 8820000   -204726.81    1.5775885 -0.0011057085    61.484071    61.554287    61.621357    13561.962 
 8825000   -204711.86    1.5710318 -0.0059274262    61.451686    61.586269    61.700293    13580.926 
 8830000   -204690.81    1.5634621 0.0089763029     61.26968    61.511844    61.561527    13599.931 
 8835000   -204950.45    1.5748453 -0.0027026056    61.380976    61.511483    61.794088    13618.948 
 8840000   -204831.52    1.6176449 0.0071546499    61.455375    61.360914    61.467648    13637.984 
 8845000   -204694.21    1.5937799  0.001765615     61.59649    61.198223    61.703123    13657.004 
 8850000   -204817.56    1.6094503 0.0063339121    61.384707    61.227281    61.649046    13675.952 
 8855000   -204750.86    1.5793571 -0.0089689741    61.869676    61.462827    61.632837    13694.907 
 8860000   -204592.56    1.6306565 -0.00096874445    61.823091    61.589261    61.442841    13713.963 
 8865000   -204475.81    1.5788663 -0.0026954415      61.6223    61.799935    61.623694    13732.949 
 8870000   -204721.98    1.6061271 0.0018497068    61.478914    61.542357    61.754786    13751.893 
 8875000   -204598.45    1.5860541 -0.0025059395    61.644494    61.635576    61.743896    13770.888 
 8880000      -204789    1.5902597 -0.004805881    61.763108    61.502111    61.619865    13789.899 
 8885000   -204522.64    1.5903681 0.0026443567    61.852013    61.543167    61.389849     13808.88 
 8890000   -204679.85    1.5419163 0.00063633062    61.581081    61.625484    61.530551      13827.9 
 8895000   -204576.19    1.6090978  0.001155767    61.700921    61.509467    61.742059    13846.904 
 8900000   -204469.06    1.5865289 -0.0024113764    61.646012    61.639686    61.739581     13865.87 
 8905000   -204400.57    1.5040964 0.0018329732    61.586467    61.630338    61.778063    13884.867 
 8910000   -204361.83     1.567986 -0.0050243058    61.701351    61.756936    61.840253    13903.875 
 8915000   -204638.51    1.5907968 0.00088349565    61.789649    61.483831    61.557202    13922.826 
 8920000   -204606.12    1.6099922 -0.0013971538    61.661328    61.787439    61.545799    13941.749 
 8925000   -204594.21      1.65342 -0.00018393684    61.740133    61.824542    61.481179    13960.689 
 8930000   -204557.06    1.5851005 -0.00056651884    61.702358    61.834726     61.48996     13979.66 
 8935000   -204337.52     1.583242 0.00023682204    61.862458    61.860238    61.366093    13998.625 
 8940000   -204705.71    1.6331044  0.001782219    61.607045    61.662904    61.610176     14017.64 
 8945000   -204563.88    1.5954892 -0.0031208023    61.576069    61.688169    61.753811    14036.694 
 8950000   -204520.34     1.637435 -0.0041626858    61.857233    61.819877    61.445795    14055.592 
 8955000   -204570.45    1.5465986 0.0023037279    61.710386    61.658505    61.469778    14074.545 
 8960000   -204417.08    1.6012893 0.0041893238    61.666923    61.670689    61.613699    14093.453 
 8965000   -204201.95    1.5849061 -0.0045975888    61.892722     61.75499    61.879907    14112.359 
 8970000   -204251.52    1.5614383 -0.0018424701    61.746304    61.448649    62.070771    14131.248 
 8975000   -204347.47    1.6108429 0.0056472892    61.592511    61.563926    61.940823    14150.134 
 8980000    -204381.7    1.6117989 0.0027793284    61.696577    61.572873    61.874027    14169.026 
 8985000    -204386.8    1.5712923 -0.0029890075    61.642272    61.762204    61.886589    14187.962 
 8990000   -204552.11    1.6569277 0.00025632847    61.764998     61.73094    61.604137    14206.956 
 8995000   -204399.24    1.6344114   0.00242625    61.493786    61.659189    61.950842     14225.96 
 9000000   -204335.03    1.6271868 0.0022970739    61.878008    61.448339    61.713256    14244.974 
 9005000   -204322.53    1.6064269 0.0011550571    61.956571    61.742789    61.492262    14263.896 
 9010000   -204366.77    1.6161451 0.00060078275    62.072532    61.686352    61.566091     14282.82 
 9015000   -204397.99    1.7061956 -0.0051829671    61.874478    61.796372     61.72457    14301.737 
 9020000   -204340.57    1.5776585 -3.6414023e-05     61.87958    61.723545    61.564087    14320.719 
 9025000   -204419.95    1.6056345 -0.0019656936    61.903154    61.643314    61.545665    14339.627 
 9030000   -204531.39    1.6210274 -0.0023394977    61.608674    61.649362    61.757953    14358.633 
 9035000   -204501.73    1.6238216 0.0034918999    61.472352    61.528219     61.71668    14377.648 
 9040000   -204571.84    1.6078353 0.0053957648    61.844185    61.251191      61.5323    14396.606 
 9045000   -204505.93    1.5858537 0.0009201087    61.744999    61.612975    61.538332    14415.616 
 9050000   -204497.48    1.6566671 -0.0013150189    61.642013    61.636623    61.727409    14434.613 
 9055000   -204553.15    1.6100377 -0.0024849984    61.633924    61.839713    61.623093     14453.53 
 9060000   -204543.32    1.6234003 0.0034987291    61.562631    61.867802    61.430987    14472.475 
 9065000   -204357.26    1.6477244 8.8664221e-05     61.50062    61.970959    61.646531    14491.402 
 9070000   -204533.34    1.6150363 0.0029929954    61.535543    61.655124    61.689727    14510.378 
 9075000    -204496.5    1.5925662 -0.0036998025    61.634305    61.767085     61.66469    14529.435 
 9080000    -204377.7    1.5979974 -0.00051831435    61.549786    61.530131    61.894212    14548.557 
 9085000   -204486.34     1.629644 0.0021152901    61.576924      61.6053    61.694543    14567.534 
 9090000   -204445.57    1.6083024 0.0059575246    61.477118    61.552833     61.55917    14586.487 
 9095000   -204428.07    1.6405869 0.0045634252    61.545505    61.758742     61.47933     14605.47 
 9100000   -204433.91    1.5890702 -0.0037836889    61.658832    61.786442    61.604536    14624.484 
 9105000   -204529.55    1.5904601 -0.0038114832    61.596154    61.674551    61.662354    14643.473 
 9110000    -204709.8    1.6335477 -0.00036872221    61.676848    61.525583    61.491784    14662.447 
 9115000   -204508.73    1.5878464 0.0036782535    61.518906    61.452339    61.600216     14681.47 
 9120000   -204506.17    1.6323211 0.0072833662    61.438567    61.475241     61.58827    14700.458 
 9125000   -204414.95    1.6200552  0.004584526    61.527636    61.281508    61.962846    14719.456 
 9130000   -204295.66    1.5799794 0.00084575635    62.030876    61.561754    61.477596    14738.409 
 9135000   -204275.94    1.6246426 0.0014342472      61.5778    61.772863     61.65615    14757.405 
 9140000   -204337.26    1.6253984 -0.0026552737    61.597713    61.673875     61.84361    14776.419 
 9145000   -204183.39    1.5869141 0.0043676151    61.593878    61.777885    61.592058    14795.427 
 9150000   -204452.44    1.5948798 0.0039122805    61.787292    61.387272    61.741139    14814.401 
 9155000   -204263.29    1.6091846 -0.0048885028     61.80647    61.743699    61.723455    14833.373 
 9160000   -204429.78    1.6478749 0.0021603212    61.599363    61.780546    61.585725    14852.369 
 9165000    -204429.8    1.6162022 0.0038045866    61.656014    61.660958    61.535255    14871.356 
 9170000   -204526.73    1.5742578 0.0029066373    61.744279     61.59301    61.398686    14890.329 
 9175000   -204300.27    1.6106617 -0.0042643595    61.866754    61.838268    61.559875    14909.311 
 9180000   -204137.15    1.6246692 0.0013292548    61.816695    61.938342    61.480365    14928.322 
 9185000   -204199.62    1.6081706 0.0010243356    61.803001    61.808921    61.672141    14947.267 
 9190000   -204240.89     1.591385 -0.0024048666    61.774841    61.831804    61.772195    14966.206 
 9195000   -204343.04    1.5706211 -0.0017985749    61.724012    61.680707    61.692704    14985.178 
 9200000   -204238.54    1.5852366 0.0017261006    62.071612    61.444352    61.779246    15004.189 
 9205000    -204288.9    1.6264906 -0.0017724554      61.9715     61.54407     61.66082    15023.141 
 9210000   -204249.12    1.5725996 -0.0015742642    61.680352    61.842576    61.650217      15042.1 
 9215000   -204380.46    1.6253628 -0.0039577107    61.865136    61.620247    61.842799    15061.094 
 9220000   -204299.33    1.6593399 -0.0038904019    61.861396    61.758607    61.756749    15080.016 
 9225000   -204368.31    1.5990915 -0.0024780862    61.824878    61.786283    61.560484    15098.913 
 9230000   -204388.26    1.6229199 0.0020976391    61.999615    61.692832    61.295517    15117.908 
 9235000   -204368.09     1.596042 0.0019192071    61.433082    61.814364    61.748253    15136.947 
 9240000   -204494.75    1.6074897 0.0039399913    61.700428    61.596488    61.557805    15155.911 
 9245000   -204495.14    1.5827184 -0.00099453779    61.596981     61.63414    61.748335    15174.884 
 9250000   -204384.84     1.611149 -0.0057259695    61.847745    61.796187    61.630885    15193.821 
 9255000   -204421.22    1.5792116 0.0050411209    61.802315    61.324297    61.620792    15212.804 
 9260000   -204564.68    1.6136518 -0.0046255863    61.793713    61.594843     61.69889    15231.822 
 9265000   -204665.51    1.6296485 -0.0013329416    61.502698    61.459568    61.565796    15250.832 
 9270000   -204743.48    1.6009288 0.0016253173    61.515551    61.533315    61.591391    15269.839 
 9275000   -204690.98    1.5905754 0.0025979985    61.425421    61.555271    61.567956    15288.834 
 9280000   -204688.59    1.5747879 0.0039817275     61.45715    61.721516    61.321406    15307.821 
 9285000   -204568.12    1.5873474 -0.0040121056    61.640061    61.629724    61.576668    15326.812 
 9290000   -204438.19    1.6036012 0.00057183829    61.627863    61.714134    61.498593    15345.777 
 9295000   -204572.25    1.5817256 -0.0026766317    61.641837    61.588612    61.635397    15364.794 
 9300000   -204687.17    1.6119999 0.0011453604     61.52657    61.442151    61.631231    15383.797 
 9305000    -204549.1     1.617554 -0.0046474434    61.711361    61.613428    61.696093    15402.757 
 9310000   -204448.39    1.6152234 -0.00044623135     61.50477    61.858115     61.76136     15421.68 
 9315000   -204654.29    1.6134376 0.0058597851    61.660295    61.212345    61.885031    15440.654 
 9320000   -204504.13    1.5927273 0.00062448142    61.864007    61.477585    61.741284    15459.553 
 9325000   -204557.35     1.595706 -0.0011457612    61.734757    61.555997    61.866059    15478.531 
 9330000   -204507.94    1.5414039 0.0033765392    61.668347     61.65687    61.585591    15497.515 
 9335000   -204474.77    1.5480268 -0.00099615184     61.86163    61.636993    61.569473    15516.498 
 9340000   -204462.41    1.5464653 -0.0070494673    61.834179    61.790683    61.568361    15535.453 
 9345000   -204589.85    1.6110249 0.0070731075     61.49992    61.760387    61.445277    15554.382 
 9350000   -204682.47     1.604347 -0.0044615332     61.65641    61.828751    61.404876     15573.41 
 9355000   -204425.27    1.6336585 -0.0012532103    61.767284    61.709647    61.551941    15592.398 
 9360000   -204501.62    1.6235139 0.0059002887    61.724918    61.807895    61.158247    15611.304 
 9365000    -204649.2    1.5514618 0.0031002397    61.694464     61.66154    61.416635    15630.274 
 9370000   -204726.63     1.566349 -0.0059238058      61.5741    61.823462    61.465035    15649.258 
 9375000   -204586.34    1.5672325 -9.8470718e-05    61.561534    61.537342     61.75552    15668.304 
 9380000   -204713.89    1.5805437 -0.00010775548    61.389359    61.774532    61.677301    15687.313 
 9385000   -204777.18    1.6216008 -0.0042064288    61.523798    61.707643    61.698084    15706.286 
 9390000   -204804.23    1.6153989  0.000742201    61.649022    61.687349    61.547088    15725.237 
 9395000   -204590.77    1.6552287 -0.0031646414    61.573581    61.796581    61.655806    15744.208 
 9400000   -204534.51    1.5798534 -0.00013217161     61.77565    61.592342    61.789142    15763.124 
 9405000   -204534.74    1.5813546 -0.001621767    61.895174    61.476493    61.817366    15782.092 
 9410000   -204636.16    1.6002933 0.0057246297    61.837143    61.557606    61.398503    15801.004 
 9415000   -204794.42     1.639908 9.6635161e-05    61.765803    61.258179    61.770358    15819.929 
 9420000   -204619.98    1.5662323 0.0089092187     61.55974    61.465171    61.482732     15838.89 
 9425000   -204530.12    1.5807373 -0.0026889186    61.655621    61.536275    61.626292    15857.903 
 9430000   -204723.89    1.5965679 0.0026256567    61.422652    61.553547    61.598063    15876.934 
 9435000   -204656.76    1.5687931 -0.00068911873    61.424461    61.840772     61.56298    15895.916 
 9440000   -204514.23    1.5747254 0.0027841683    61.630593    61.708351    61.550213    15914.876 
 9445000   -204597.49    1.6503365 -0.0021591255    61.611275    61.777911     61.57606    15933.926 
 9450000   -204662.11    1.6062711 0.00074424428    61.799064    61.494094    61.582956    15952.912 
 9455000    -204538.8    1.5919448 -0.0012686724    61.794437    61.563436    61.583953    15971.903 
 9460000   -204511.59    1.5958433 -0.0032538807    61.774822    61.624354    61.679834    15990.822 
 9465000   -204635.44    1.5444141 0.0012759635    61.721426    61.424005    61.650407    16009.796 
 9470000   -204580.88    1.5917045 0.0058454194    61.595718    61.597477    61.446903    16028.793 
 9475000   -204819.41    1.5812655 -0.0025987174    61.418361    61.816639    61.570347    16047.775 
 9480000    -204708.6    1.5675721 -0.0044018035    61.678025     61.65096    61.650352    16066.686 
 9485000   -204742.69    1.5738352 0.0011160432    61.518653    61.731059    61.538543    16085.681 
 9490000   -204511.02    1.6454071 0.0033010941    61.699948    61.564117    61.586907    16104.619 
 9495000   -204564.04    1.6339343 -7.0117345e-05    61.699525    61.581618    61.570832    16123.596 
 9500000   -204458.27     1.657509 -0.0045151909     61.97246    61.610434    61.545141    16142.574 
 9505000   -204471.72    1.5619668 0.0012237492    61.666945    61.444922     61.75492    16161.554 
 9510000   -204595.72    1.5614928 0.0012579706    61.530273    61.644611    61.772804    16180.497 
 9515000   -204441.23    1.5936368 0.00062140495    61.685181    61.616832    61.680822    16199.461 
 9520000   -204557.01    1.6083318 -5.6300298e-05    61.686258    61.526628    61.732348    16218.456 
 9525000    -204432.5    1.6490653 -0.0059627072    61.707953    61.808385    61.864062    16237.412 
 9530000    -204490.8    1.5478646 -0.0015073766    61.721557    61.629523    61.855604    16256.417 
 9535000   -204365.62    1.6295878 0.0020454577    61.693406    61.905487     61.55811     16275.39 
 9540000    -204624.4    1.6428756 0.0010302713     61.61053    61.738395     61.53264    16294.367 
 9545000   -204293.03    1.5901146 -0.00054947929    61.479057     61.99866    61.719231    16313.378 
 9550000   -204602.82    1.5911459 -0.0053945139    61.985057    61.501453    61.660352    16332.327 
 9555000   -204430.36    1.6271879 -0.00023990179    61.896178    61.511787    61.643254    16351.269 
 9560000   -204582.53    1.6303785 0.0019736947    61.563185    61.677024    61.654881     16370.25 
 9565000   -204608.93    1.6184967 0.00058056258    61.682773     61.72334    61.572904    16389.238 
 9570000   -204463.19    1.5716344 0.0015658494    61.512589    61.902244    61.714052      16408.2 
 9575000   -204474.94     1.593098 0.0041399142     61.60887    61.980111    61.440145    16427.105 
 9580000   -204366.45    1.5891394 0.0051712687    61.549743    61.891054    61.823939    16446.016 
 9585000   -204531.93    1.5613333 -0.0022584302    61.658812    61.733537    61.737786    16464.952 
 9590000   -204443.17    1.5919738 -0.00078548447     61.84828     61.65823     61.62479    16483.889 
 9595000   -204565.89    1.5827085 -0.0027206941    61.779575     61.76911    61.643434    16502.874 
 9600000   -204397.08    1.6049329 0.00062313693    61.652623     61.76624    61.686956    16521.867 
 9605000   -204428.82    1.6292878 -0.000690352    61.830097    61.440102    61.744003    16540.927 
 9610000   -204635.54    1.6226802 -0.0020255392    61.615111    61.571312    61.732915    16560.024 
 9615000    -204892.8    1.6162504 0.0045081675    61.294024    61.480073     61.45668    16579.012 
 9620000   -204701.11    1.6238829 -0.0079977623    61.895525     61.67887    61.414235    16597.997 
 9625000   -204629.57    1.6421055 0.00018890669    61.525798    61.612229    61.492967    16616.967 
 9630000    -204731.3    1.5241117 -0.0049520201    61.667758    61.791057    61.450128    16635.974 
 9635000   -204544.29    1.6012453 0.0020758121    61.601163    61.575593    61.637671    16655.036 
 9640000   -204538.28    1.6023352 -0.0047337349    61.723848     61.48554    61.781395    16674.038 
 9645000   -204697.77    1.6140088 0.0034509831    61.513712    61.548433    61.654789     16693.03 
 9650000    -204386.1    1.5921234 0.0028081123    61.631118    61.820683    61.430651     16711.95 
 9655000   -204401.28    1.6160456 -0.0047917858    61.736987    61.976199    61.611406    16730.852 
 9660000    -204529.3    1.6016612  0.001290568    61.600349    61.692304    61.635453    16749.793 
 9665000   -204395.34    1.6257348 -0.0062540308    61.768949    61.714129    61.793113    16768.717 
 9670000   -204324.36    1.5908086 -0.00013682555    61.887111    61.528759    61.647429     16787.69 
 9675000   -204512.11    1.5878123 0.0039483352    61.715932    61.546238    61.668953    16806.641 
 9680000   -204542.35    1.6473889 -0.0023567804    61.714301    61.547844    61.927396    16825.577 
 9685000   -204384.83    1.5749266 0.0019546578    61.858747    61.492423    61.681522    16844.562 
 9690000   -204588.31    1.5950893 0.0016757359    61.704436    61.405479    61.584255    16863.473 
 9695000   -204668.69    1.6087384 0.0080950041    61.707772    61.431713    61.448643    16882.415 
 9700000   -204482.03    1.5796237 -0.001482063    61.762949    61.498005    61.654385    16901.369 
 9705000   -204473.52    1.6002634 -0.0022307733    61.938591    61.516554    61.635237    16920.383 
 9710000   -204540.46     1.624866 0.0021744643    61.439997    61.606413    61.914026    16939.351 
 9715000   -204386.08    1.5743563 -0.0057524983    61.866131    61.714636    61.684334    16958.243 
 9720000   -204350.93    1.5853298 0.0065447639    61.673471    61.679786    61.585012    16977.237 
 9725000   -204435.94    1.5808653 0.00066815719    62.083833    61.671039    61.344611    16996.228 
 9730000   -204478.96    1.6515487 -0.0045768632    62.006288    61.641271    61.565512    17015.262 
 9735000   -204367.96    1.6369821 1.5375515e-05    61.908624    61.626349     61.42054    17034.238 
 9740000   -204602.55     1.599423 0.0036968855    61.629614    61.507035    61.533455     17053.23 
 9745000   -204773.07    1.6072572  0.002122585    61.500893    61.516805    61.610728     17072.19 
 9750000   -204660.87    1.6422511 -0.0020175327    61.698098    61.576827    61.525273    17091.208 
 9755000   -204497.53    1.6227853 -0.0053178557    61.806238    61.678579    61.601935    17110.227 
 9760000   -204468.51    1.5616563 -0.0011209359    61.772379    61.506483    61.801767    17129.252 
 9765000   -204543.72    1.6166021 0.0047245851    61.757986    61.765545    61.223543     17148.18 
 9770000   -204480.74     1.579396 -0.00060771885    61.801961    61.490562    61.648209    17167.185 
 9775000   -204688.31    1.5952053  0.006530615    61.342114    61.708565    61.515377    17186.127 
 9780000   -204636.02    1.6247579 0.0020353604    61.725072    61.586805    61.397173    17205.005 
 9785000   -204646.94    1.6083209 -0.0001593969    61.495126    61.816536     61.41106    17223.986 
 9790000   -204572.04    1.6328436 -0.00037591679    61.527261    61.870169    61.403775    17242.936 
 9795000   -204461.21    1.6291741  0.006350192    61.347793     61.73286    61.546429    17261.925 
 9800000   -204477.77    1.5745469 -0.001336382    61.578352    61.696272    61.593133    17280.891 
 9805000   -204527.38    1.6167811 -0.0047697959    61.707964    61.594075    61.779743    17299.934 
 9810000   -204574.01    1.6241167 0.0008008366    61.667028    61.607344    61.535769    17318.887 
 9815000   -204862.74    1.6321133 -0.0005493688    61.597087    61.358992    61.547597    17337.937 
 9820000    -204866.7    1.6385439 0.0045240004    61.608476    61.367997    61.340653    17356.934 
 9825000   -204726.24     1.627023 -0.0014519559    61.590706    61.654928    61.501964    17375.886 
 9830000   -204662.08    1.6139364 -8.7444778e-05       61.444    61.426319    61.907878    17394.832 
 9835000   -204781.39    1.6211363 -0.0018406966    61.512261    61.523074    61.619087    17413.854 
 9840000   -204625.19    1.6101603 0.0024778447    61.485841    61.590833    61.662917    17432.954 
 9845000   -204512.99    1.6215075 0.0010464572    61.558939     61.80584    61.470916    17451.939 
 9850000   -204502.05    1.6153919 0.0059053247    61.598024    61.553532    61.543779    17470.888 
 9855000   -204516.95    1.5809122 0.00050196151    61.638772    61.517776    61.624288    17489.837 
 9860000   -204558.85    1.5780271 -0.00057065095    61.471723    61.530379    61.834748    17508.837 
 9865000   -204699.93    1.5959801 -0.0026963881    61.585547    61.613988    61.534778    17527.802 
 9870000   -204708.96    1.5411688 -0.0053360813    61.662424    61.510602     61.63144    17546.807 
 9875000   -204596.53    1.5833575 0.0048080884    61.589215    61.680674    61.342396    17565.774 
 9880000   -204594.48    1.6109015 -0.0015475341    61.778813    61.402485    61.563283    17584.745 
 9885000   -204718.63    1.5914988 -0.0083423168    61.734453     61.48661    61.578064     17603.71 
 9890000   -204724.22    1.5983305  0.004092469    61.534596    61.608451    61.321022    17622.699 
 9895000   -204830.32    1.5979564 -0.0021843486    61.521352    61.585127    61.583692    17641.717 
 9900000    -204706.5    1.5893872  0.006483759    61.543596    61.455218    61.463754    17660.691 
 9905000   -204649.03    1.6134326 -0.00052717386    61.739162    61.495168    61.559661    17679.744 
 9910000   -204651.86    1.5632879 -0.0021505096    61.599455    61.594107    61.606623    17698.822 
 9915000   -204652.97    1.6003354 0.0024804041    61.494914     61.45293    61.821829    17717.828 
 9920000   -204789.34     1.606323 -0.0021671047    61.525729    61.611329    61.495001    17736.846 
 9925000   -204491.27    1.6045027 0.0041121504     61.55987        61.55    61.602429    17755.851 
 9930000   -204746.79    1.6013557 -7.0860069e-05    61.520868    61.858143    61.294687     17774.88 
 9935000    -204497.9    1.6061545 0.0010787209    61.761237    61.645379    61.444135      17793.9 
 9940000   -204624.03     1.577808 0.0015975191    61.439407    61.715953     61.59728    17812.932 
 9945000   -204613.79    1.6218014 0.0063204852    61.631146    61.366065    61.493852     17831.95 
 9950000   -204405.96    1.6436393 -0.0014297025    61.506523    61.466722    61.919223    17850.907 
 9955000   -204616.21    1.6190213 -0.0057973741    61.678652    61.615606     61.73443    17869.891 
 9960000   -204760.54    1.5583126 0.0026198629    61.348684    61.651446    61.622664    17888.908 
 9965000   -204677.43     1.610643 -0.0012196363    61.645556    61.673779    61.523967    17907.924 
 9970000    -204525.7    1.5588665 0.0021352693     61.75988    61.362859    61.713647    17926.921 
 9975000   -204680.57    1.5844292 0.0028636785    61.693627    61.520273    61.513939    17945.929 
 9980000   -204570.86    1.6464404  0.014175344    61.380165    61.464347    61.550444    17964.932 
 9985000   -204473.68    1.6317168 -0.00076376976    61.641517    61.698724    61.588168    17983.827 
 9990000   -204334.13    1.6150346 -0.0090130311    61.771677    61.907286    61.706548    18002.741 
 9995000   -204364.33    1.6191672 -0.0019642947    61.844548    61.745122     61.56984    18021.674 
10000000    -204364.9     1.537915 0.0054418698    61.720109    61.688621     61.35911    18040.644 
10005000   -204331.35    1.5891869 0.0018056626    61.789896    61.560285    61.592069    18059.562 
10010000   -204488.68    1.6179647 -0.0038722418    61.791957    61.676253    61.561869    18078.514 
10015000   -204432.87    1.6002056 -0.0045096896    61.761045    61.761544    61.600545    18097.481 
10020000   -204545.94     1.542932 -0.0020205363    61.817912    61.642647    61.479422    18116.472 
10025000   -204403.08    1.6166704 0.00039462116    61.635543    61.776358     61.60937    18135.402 
10030000   -204335.51    1.6520043 0.0023844939    61.904474    61.551293    61.668957     18154.38 
10035000   -204335.48    1.6180417 0.00094790177    61.890316    61.524263    61.778364    18173.335 
10040000   -204282.58    1.6171062 0.0019584571    61.487692    61.768809    62.030889    18192.311 
10045000   -204411.43     1.616086 -0.0024891641    61.356234    62.013509    61.930726    18211.236 
10050000   -204421.52    1.6164975 0.0035956334    61.625162    61.658969    61.775207    18230.173 
10055000   -204396.83    1.6095328 0.0042697896    61.559179     61.59866    61.778819    18249.124 
10060000   -204343.91    1.5889125 -0.0044886065    61.698494     61.76072    61.642773    18268.077 
10065000   -204451.26    1.5933058 0.0052901659    61.513213    61.472541    61.679286    18287.044 
10070000   -204451.37    1.6125374 0.0025701262    61.787485    61.484543    61.546549    18305.936 
10075000    -204394.8    1.6205502 0.0036704758    61.658946    61.636284    61.507553    18324.957 
10080000   -204588.09    1.6409485 -0.0030737501     61.86646    61.746042    61.428432    18343.962 
10085000   -204564.73    1.6550585 0.0028964049    61.870842    61.418654    61.609773    18363.018 
10090000   -204455.14    1.5962297 -0.0038183826    61.834005    61.661084      61.6231    18382.011 
10095000   -204377.61    1.5982481 0.0041399259    61.541415    61.853887    61.666995    18400.986 
10100000   -204359.92    1.5714192 0.0054308384    61.657977    61.781188    61.663158    18419.952 
10105000   -204389.83     1.611878 -0.0021924704    61.673869    61.605587    61.860883    18438.914 
10110000   -204285.64    1.6413048 -0.0049907738    61.795373    61.813612    61.729024    18457.823 
10115000   -204220.28    1.5972381 -0.00096363026    61.682931    61.850282    61.695414    18476.743 
10120000   -204066.37     1.613818 0.0036485325    61.743957    61.698414    61.674453    18495.707 
10125000   -204234.54    1.6149178 -0.0026643653    61.795801    61.815504    61.708226    18514.696 
10130000   -204393.85    1.5983994 0.0035471061    61.708676    61.586454    61.670645    18533.679 
10135000    -204386.8    1.5976994 -0.0011637305    61.572796    61.911304    61.813746    18552.658 
10140000   -204261.48     1.570862 8.3947886e-05    61.863475    61.621107    61.691442    18571.656 
10145000   -204085.55    1.6267115 -0.00075263625    61.764814    61.792032    61.831531    18590.605 
10150000   -204200.17     1.613712 0.0039723699    61.725111    61.711297    61.672482    18609.621 
10155000   -204337.66    1.5745599 -0.0013382889    61.609097    61.826685    61.798464     18628.57 
10160000   -204218.69    1.5479434 -0.0059344482    61.938867    61.730272    61.749401    18647.534 
10165000   -204447.94    1.5973093 0.0039249829    61.813816    61.345041    61.614734     18666.52 
10170000   -204344.52    1.5595194 -7.2602133e-05    61.763453    61.598735    61.636946    18685.516 
10175000   -204331.41      1.58487 0.00046862921    61.641742    61.731004    61.660497    18704.506 
10180000   -204401.59    1.6394077 -0.0060435226    61.766763    61.769558     61.78179    18723.469 
10185000   -204306.35    1.5788186 -0.002917147    61.839127    61.734573    61.838788    18742.406 
10190000      -204270    1.6092957 -0.0025208149    61.762172    61.665571     61.85005    18761.359 
10195000   -204273.02    1.6050311 -0.0030383459    62.087764    61.825907    61.498372    18780.287 
10200000   -204366.51    1.5715571 0.0070580272     61.75439    61.596686    61.749005    18799.251 
10205000   -204408.07    1.5875754 -0.0070523062    61.884132    61.765915    61.761775    18818.189 
10210000   -204227.81    1.5812081  0.004214515    61.807846    61.954714    61.442547    18837.167 
10215000   -204366.64    1.5894212 -0.0025360598    61.654321    61.893585    61.861312    18856.131 
10220000   -204502.76    1.5922512 -0.0008043604     61.63124    61.626074    61.897873    18875.082 
10225000   -204338.26    1.6086111 -0.0041916971    61.577295    61.760592    62.008151    18894.054 
10230000   -204495.32    1.5916557 0.0030688908    61.745209    61.604358    61.469237    18913.015 
10235000   -204578.12    1.6095838 0.00075398898    61.648637    61.835089    61.296534    18932.019 
10240000   -204336.14    1.5769461 -0.0002652432    61.758426    61.607758    61.770612    18951.036 
10245000   -204530.81    1.6097294 0.00012940335    61.695214    61.585118    61.710423    18969.981 
10250000   -204499.34    1.6496667 -0.0022026409    61.344344     61.92487    61.781991      18988.9 
10255000   -204282.25    1.6135562 -0.0052374507     61.52942     61.95964     61.91246    19007.827 
10260000   -204489.59    1.6085588 0.0018232148    61.701703    61.720997    61.489059    19026.778 
10265000   -204495.11    1.6626642 0.0055492581    61.423145     61.76416    61.602992    19045.772 
10270000   -204519.91    1.5889262 9.722271e-06    61.754952    61.677944    61.653551     19064.78 
10275000   -204415.55    1.6557705 -0.00026789724    61.719888    61.661534    61.745225    19083.701 
10280000   -204407.37    1.5603597 0.0004107365    61.696991    61.531258    61.740443    19102.615 
10285000   -204441.02    1.6229453 -0.0021928807    61.717623     61.69964    61.837412    19121.574 
10290000    -204418.1     1.571548 -0.0014086302    61.834602     61.74501    61.492645    19140.539 
10295000    -204368.4    1.5659306 -0.00095720954     61.76459    61.616627    61.634713    19159.454 
10300000   -204386.69    1.6129887 0.0032979753    61.854606    61.500176    61.479654    19178.339 
10305000   -204584.12    1.6610339 -0.0018783941    61.785618     61.59145    61.592001    19197.346 
10310000   -204506.72    1.5526286 -0.0034227536    61.657681    61.688456    61.690931    19216.341 
10315000   -204493.82    1.5790083 -0.0028731132    61.499886    61.735101    61.791068    19235.308 
10320000   -204540.95    1.5874473 0.0076976982    61.578136    61.435369    61.635892    19254.225 
10325000   -204490.83    1.5946823 -0.0024781639    61.945447    61.804044    61.404264    19273.171 
10330000   -204266.18    1.6022448 -0.0052181755    61.797291    61.773949    61.679116    19292.105 
10335000   -204543.61    1.5637193 0.0016169329    61.623946    61.899804    61.453089    19311.066 
10340000   -204540.49    1.6535726 0.0005981214    61.688206    61.727436    61.636735     19330.02 
10345000   -204293.23    1.6088618 0.0010984318    61.872468    61.741581    61.678504    19348.969 
10350000    -204413.7    1.6272643 0.00086773703    61.505603    61.707801    61.906194    19367.904 
10355000    -204426.2    1.5989024 -0.0018017711    61.795939    61.684412    61.639019    19386.961 
10360000   -204444.76    1.6341871 -0.0016474813    61.622053    61.804263     61.66668    19405.994 
10365000   -204368.09      1.62842 -0.00036149451    61.753483    61.722444    61.671965    19424.973 
10370000   -204525.78    1.6077811 -0.0018531586    61.772478     61.67162    61.646183    19443.969 
10375000   -204466.91    1.5640737 -0.0014139006    61.415178    61.798329    61.819548    19463.009 
10380000   -204291.44    1.5925017 0.0055252912    61.580209     61.69355    61.683384     19482.02 
10385000   -204399.56    1.6168422 -0.0081826466    61.771732    61.761717    61.797803    19501.001 
10390000   -204565.74    1.6174248 0.0017695366    61.715731     61.53614    61.552725    19519.981 
10395000   -204436.11    1.6402703 -0.0024975667    61.805431    61.827954    61.385773    19538.942 
10400000   -204476.52    1.5830372 -0.0076754753    61.671936     61.75627    61.703515    19557.917 
10405000   -204364.62    1.5555118  0.001547955    61.564087     61.66495    61.722503    19576.949 
10410000   -204414.29    1.6002689 0.0024357306    61.590078     61.67784    61.718968    19595.929 
10415000   -204494.94    1.5744815 7.2451108e-05    61.685455    61.536533    61.694002    19614.988 
10420000   -204554.87     1.553955 -0.0045552091    61.929162    61.706728    61.366982    19633.955 
10425000   -204630.32    1.6302854 0.00046139976    61.881394    61.527543    61.406588    19652.886 
10430000   -204533.97    1.6252038 0.0032058816    61.789752    61.425718     61.48613    19671.768 
10435000   -204558.06    1.6061132 -0.0015915925    61.668789    61.583486    61.690102     19690.66 
10440000   -204551.54    1.5968102 0.0018868866    61.552073    61.560248    61.639267    19709.652 
10445000   -204615.77    1.6628059 -0.0028055658     61.55834    61.687369    61.816854    19728.617 
10450000   -204572.71    1.6065993 0.0068305571    61.478613    61.251808    61.805198    19747.536 
10455000    -204226.3    1.6031129 -0.0034734368    61.748133    61.518103    61.886193    19766.476 
10460000   -204536.75    1.5919452 0.0010882824    61.846462    61.627292    61.396533    19785.593 
10465000   -204443.18    1.6317718 -0.00035204659    61.616938    61.627316     61.70962    19804.603 
10470000   -204468.78    1.6347217 -0.0021442535    61.571696    61.983803    61.539462    19823.588 
10475000   -204445.24    1.6129509 -0.0056949946     61.68045    61.707232     61.80777    19842.566 
10480000   -204493.09      1.57045 0.00023061497    61.735174    61.525263    61.612064    19861.494 
10485000   -204619.91    1.5287586 0.0057287466    61.525092    61.558905    61.542888    19880.518 
10490000   -204472.49    1.5468378 -0.0012392287    61.587742    61.742928    61.670391    19899.441 
10495000   -204503.29    1.6301202 -0.0031142653    61.640931    61.875263    61.603867    19918.438 
10500000   -204448.72     1.607527 0.0054117658    61.788636    61.674416    61.641009     19937.43 
10505000   -204428.78    1.6273779 -0.0097056577     62.05942    61.495061    61.997831    19956.375 
10510000   -204312.24    1.6098997 0.0025481102     61.81096    61.630397     61.81534    19975.339 
10515000   -204435.68    1.6332878 0.0029659281    61.840226    61.491779    61.777101    19994.243 
10520000   -204372.03    1.5878546 0.0022379354    61.723884    61.478644    61.856809    20013.263 
10525000   -204335.29    1.6018839 -0.00040371104    61.643628    61.641629    61.855942    20032.279 
10530000    -204265.1    1.6048848  8.59291e-05    61.728628     61.60671    61.807627    20051.316 
10535000   -204426.59    1.5980098 0.00028853452    61.615901    61.594631    61.651617    20070.344 
10540000   -204270.24    1.5814535 -0.0031703832    61.890126    61.900758    61.461231    20089.346 
10545000    -204499.4    1.6349663 0.0020310525    61.740736     61.42593    61.703589    20108.334 
10550000   -204556.78    1.5987701 0.0057414581    61.841555    61.664178    61.215989    20127.345 
10555000   -204511.42    1.6186549 -0.0034628157    61.784972    61.638362    61.698826    20146.389 
10560000   -204529.86    1.6105761 0.0022487836    61.780998    61.490084     61.58556      20165.4 
10565000   -204426.98    1.5766886 0.0018392642    61.727043    61.813926     61.38609     20184.39 
10570000   -204435.32    1.6355773 -0.0012491737    61.835411    61.726374    61.555664    20203.354 
10575000   -204438.15    1.5727243 -0.0048835255    61.689928    61.771929    61.804839    20222.318 
10580000      -204403    1.6393441 0.0026662898    61.746333    61.488874    61.775674    20241.232 
10585000   -204201.46    1.5948975 -0.0036800682    61.849933     61.58851     61.93409    20260.135 
10590000   -204419.42      1.60852 -0.00089479487    61.741493    61.598474    61.765146    20279.144 
10595000   -204534.65    1.6300507 -0.0051225345    61.766817    61.654924    61.792654    20298.194 
10600000   -204424.89    1.5919288 0.0050926863    61.764651    61.565335    61.526493    20317.219 
10605000   -204396.32    1.5711107 -0.0048534324    61.549391    61.621822    61.974806    20336.268 
10610000    -204260.9    1.6604458 0.00082203566     61.97591    61.557201     61.67971    20355.183 
10615000   -204286.03    1.5921986 -0.0017059927    61.972081    61.866916    61.487845    20374.123 
10620000   -204412.46    1.5777163 -0.0003680991    61.713073    61.850169    61.397438    20393.028 
10625000   -204116.98    1.5727073 -0.001189422    61.822187    61.755847    61.630942    20411.969 
10630000    -204166.5    1.6006953 -0.0037543725    61.610614    61.662135    62.080731     20430.97 
10635000   -204150.42    1.5638563 0.0045058329    61.666429    61.688797    61.791334    20449.962 
10640000   -204220.93    1.5871316  0.002138884    61.689942    61.803974    61.703728    20468.903 
10645000   -204040.05      1.58596 -0.0060187435    62.076624    61.937839    61.646582    20487.795 
10650000   -204090.88    1.5924485 0.0054037601     61.60783    61.830612    61.608673    20506.728 
10655000   -204007.31    1.6507539 0.0067791876    61.838261    61.736837    61.769798    20525.745 
10660000   -204184.97    1.6144348 -0.0026839116    62.059862    61.751779    61.699205    20544.709 
10665000    -204075.9    1.6155027 0.0036329568    61.928474    61.786604    61.805899    20563.702 
10670000   -204118.27    1.6260821 0.0050804846    61.804255     61.63007    61.992774    20582.639 
10675000   -204142.21    1.5473057 -0.0016918942    62.118405    61.741552    61.765235    20601.509 
10680000   -204138.46    1.6486754 -0.0047884844    61.912622    61.869267    61.883002    20620.409 
10685000   -204029.47    1.5816775 -0.0025058215     61.78253     61.99265     61.84563    20639.335 
10690000   -204133.62    1.6520285  0.001984153    61.785554    61.735689    61.816758    20658.221 
10695000   -204108.76    1.5990966 -0.0015351702    61.984012    61.830138    61.733626    20677.124 
10700000   -204060.75     1.566592   0.00469926    61.640045    61.757296    61.943084    20696.011 
10705000   -204118.71    1.5784226 -0.0044576048    61.842705    61.771988    61.979216    20714.907 
10710000   -204117.29    1.5793229 0.0015599906    61.845519    61.859964     61.58063    20733.831 
10715000   -204250.07    1.5669976 0.00015989667    61.806957    61.869176    61.688422    20752.818 
10720000   -204212.06    1.6377735 0.0031304521    61.472782    61.914674    61.904593    20771.795 
10725000   -204042.25    1.5987336 -0.0019746997    62.017863    61.692749    61.883741    20790.795 
10730000   -204247.59    1.6273683 -0.0058406424    61.887439    61.870536    61.791984    20809.783 
10735000   -204345.39    1.5968143 0.0027828135    61.934733    61.619078    61.529382    20828.782 
10740000   -204244.24      1.65399 0.0034284436    61.860082    61.650034    61.736665    20847.751 
10745000   -204167.79    1.5495757 0.00048539718    61.737446    61.620379    62.075331    20866.706 
10750000   -204329.89    1.5764768 -0.00087794226    61.682348    61.832423    61.875063    20885.623 
10755000   -204181.11    1.5513878 -0.0049758124    61.894194    61.952184    61.716009    20904.546 
10760000    -204197.3    1.5726516 0.0033085876    61.797809    61.561678    61.913337    20923.459 
10765000   -204261.22     1.601024 0.0016375022    61.803453    61.720381    61.804313    20942.395 
10770000   -204336.11    1.5866868 -0.00035673318    61.537627    61.811124    61.906341    20961.315 
10775000   -204442.74    1.5919886 -0.0042561922    61.772545    61.793188    61.630861    20980.259 
10780000   -204256.55    1.5928394 -0.0053652602    61.966306    62.056621     61.59411    20999.211 
10785000    -204226.3    1.5878677 -0.00052801956    61.950148    61.864062    61.471304    21018.147 
10790000   -204277.67    1.6112381 0.0028207293    61.927889    61.685278     61.58386    21037.072 
10795000   -204207.89    1.6123426 -0.004318722    61.562597    61.845953    61.961803    21056.066 
10800000   -204514.79    1.5756447 -0.001000939    61.711735    61.480634    61.850812     21074.97 
10805000   -204231.68    1.5920496 -0.0019996631    61.708954    61.745983    61.841553    21093.932 
10810000   -204266.95    1.5846059 -0.0057793324    61.887062    61.707668    61.900074    21112.884 
10815000   -204063.54    1.6074104 0.0029265942    61.677565    61.899503    61.814758    21131.816 
10820000   -204212.46    1.5751416 0.0026346494    61.846173    61.648318    61.798915    21150.761 
10825000   -204015.72    1.6124786 -0.0025900122    61.944674    61.911593    61.733524    21169.692 
10830000   -203989.96    1.5944876 -0.0042261199     61.91087    61.882453    61.926727    21188.753 
10835000   -204097.82    1.6125714 0.0008830416    61.736691    61.865857    61.837266    21207.719 
10840000   -204148.94     1.593908 0.00053885807     61.66838     61.78776    61.929191     21226.69 
10845000   -204326.39    1.6032029 0.00047950126    61.541042    61.689248    61.981126    21245.621 
10850000   -204136.87    1.5978483 0.0026835918    61.717274    61.540383    61.980411    21264.588 
10855000   -204359.36    1.5678678 -0.0032406364    61.932315    61.789383    61.689927     21283.51 
10860000   -204507.44     1.585413  0.003379155     61.74674    61.637713    61.503987    21302.524 
10865000   -204385.23     1.581811 0.0034123134    61.771592    61.764036    61.441354    21321.398 
10870000   -204336.91    1.6279764 0.0015651064    61.793478    61.889746    61.469402    21340.306 
10875000   -204368.14     1.544099 -0.0065113369     61.64533    61.959917    61.892238    21359.238 
10880000   -204364.31    1.5917947 0.0035741143    61.608946     61.74012    61.685419    21378.179 
10885000   -204504.81    1.5740987 -0.0002599312    61.552156    61.679173     61.65874    21397.119 
10890000    -204567.1    1.6301892 0.00082474139    61.513941    61.506777    61.745315    21416.128 
10895000   -204542.07    1.6021212 0.0032217058    61.703469    61.546449     61.42593    21435.115 
10900000   -204436.26    1.5887212 0.0013023384    61.857446    61.609173    61.496159    21454.099 
10905000   -204606.41    1.5991085 -0.00020881105    61.604566    61.766866    61.673116    21473.089 
10910000   -204588.17    1.5741277 -0.00060788547    61.664004    61.651623    61.716338    21492.117 
10915000   -204583.02     1.603737 -0.003609719    61.692317    61.635181    61.684168    21511.083 
10920000   -204515.15     1.625323 0.0018464815    61.652584    61.654289    61.578874     21530.04 
10925000   -204654.91    1.6005368 0.00080768562    61.596752    61.558325    61.535515    21549.022 
10930000   -204372.81    1.6040538 0.00091930085     61.52635    61.676425    61.737349    21567.993 
10935000   -204351.34    1.5755944  0.001902762    61.575794     61.68875    61.619393    21586.982 
10940000   -204427.82    1.6048719 0.0052535248    61.458806    61.626038    61.879572    21606.007 
10945000   -204314.36    1.6197549 0.0019524856    61.651356    61.615924    61.824593    21624.968 
10950000   -204563.21    1.6163009 0.00072521045    61.664977    61.416395    61.863411    21643.959 
10955000   -204581.74    1.6059821 0.0021043295    61.701665    61.708091    61.451066    21662.925 
10960000   -204471.51    1.5743138 0.0059011409    61.438983    61.719736    61.669329    21681.892 
10965000    -204461.7    1.5677711 -0.0023342845    61.686722    61.621906    61.716006    21700.868 
10970000   -204517.08    1.6018248 -0.0069966458     61.58301    61.692443    61.860403    21719.925 
10975000   -204838.34    1.6358345  0.005732996    61.630128    61.492191    61.363075    21738.945 
10980000   -204697.08     1.593972 0.0020327605    61.751171     61.54128    61.361885    21757.979 
10985000    -204555.1    1.6193956 -0.0011374902    61.780885    61.716593    61.500276    21776.928 
10990000   -204436.65    1.6442452 0.00088651403    61.534168    61.889697    61.469823    21795.858 
10995000   -204550.47    1.6410114 -0.0031456703    61.530698    61.879226    61.679051    21814.859 
11000000   -204592.56    1.6251773 0.0073219859    61.645052    61.488183    61.512539    21833.817 
11005000   -204604.28    1.5850963 0.0058595979    61.753222    61.504587    61.442686    21852.738 
11010000   -204587.94    1.6494929  -0.00450531    61.539127    61.809113    61.575177      21871.7 
11015000    -204619.8    1.6183012 0.00070955348    61.833146    61.522065    61.370498    21890.698 
11020000    -204611.1    1.5574035 -0.00086593844    61.547028    61.562269     61.54879    21909.621 
11025000   -204593.11     1.589974 -0.0028489515    61.387031    61.716864    61.568468    21928.603 
11030000   -204718.72     1.625268 0.00025685681    61.647056    61.595843    61.377851    21947.587 
11035000   -204747.56    1.5749195 -0.0048028882    61.688407    61.622386    61.421534    21966.558 
11040000   -204719.28    1.6460708 0.0049421713    61.636573    61.367996    61.500051    21985.566 
11045000    -204824.9     1.605793 0.0015450909    61.585523    61.411535    61.605426    22004.558 
11050000   -204745.73    1.6104979 -0.0048193373    61.724357    61.278751    61.749307    22023.515 
11055000   -204686.95    1.6283424 0.0064795533    61.565123    61.523076      61.3985    22042.496 
11060000   -204778.87    1.6292823 -0.0033078033    61.519251     61.66879    61.516107    22061.514 
11065000    -204709.2    1.6083416 -0.0076418928    61.633345    61.823574    61.431431    22080.437 
11070000   -204803.75    1.5475689 -0.0035037251    61.641861     61.66359    61.423489    22099.422 
11075000   -204666.72    1.6058181 0.0051782411    61.478936     61.62033    61.437366    22118.387 
11080000   -204654.34    1.5955388 -0.0010708046    61.470372    61.488734    61.686208    22137.455 
11085000   -204435.39    1.5767209 0.0047676954    61.712733     61.60371    61.354597    22156.517 
11090000   -204339.75    1.5864728 0.0052400918    61.749053    61.484747    61.561343    22175.496 
11095000    -204373.8    1.5781439 -0.0023721089    61.649813    61.649384    61.733151    22194.486 
11100000   -204358.71    1.6271363 -0.0040999892    61.869904    61.641637    61.543534    22213.511 
11105000   -204451.73    1.6137708 -0.0026936178    61.813674    61.731279    61.438282     22232.48 
11110000   -204401.57     1.595761 -0.0053963062    61.730942    61.938464    61.649743    22251.443 
11115000   -204442.12    1.5961909 0.0093420554    61.502345    61.603765     61.67769    22270.393 
11120000   -204457.21    1.6147491 0.0065060818    61.375623    61.711273    61.628983    22289.306 
11125000   -204349.16    1.5748121 -0.0024462539    61.484983    62.054904    61.554022    22308.289 
11130000   -204422.38    1.6192326 0.0054478882    61.389999    61.655502    61.702453    22327.231 
11135000   -204319.52    1.6091773 -0.0025165778    61.503618    61.573609    61.842484    22346.243 
11140000   -204391.79    1.5859554 -0.0041342014    61.770581    61.687592    61.590314     22365.22 
11145000   -204406.32    1.6281328 -0.0046415085    61.914259    61.456972    61.603648    22384.154 
11150000   -204562.95    1.6441767 -0.0022182679    61.726173    61.531712    61.449613    22403.144 
11155000   -204440.25    1.6024515 -0.00074352768    61.812482    61.537686    61.501867    22422.162 
11160000   -204368.21    1.6086786 0.0029475313     61.75054    61.498628    61.637367    22441.185 
11165000   -204510.82    1.6312175 -0.00015529551    61.832473    61.643725    61.664544    22460.224 
11170000   -204582.85    1.5905697 -0.0038587524     61.63892    61.833477    61.682897    22479.293 
11175000   -204637.52    1.5996065 -0.0033623008    61.614707    61.665958    61.678102    22498.331 
11180000   -204454.21    1.5917393 0.00037767394    61.562711    61.491797    61.680894    22517.372 
11185000   -204435.66    1.5820338 -0.0054026003    61.634387    61.621414    61.694557    22536.373 
11190000   -204537.06    1.5862791 0.0010841977     61.83033    61.200178    61.713031    22555.325 
11195000   -204659.48    1.6577833 0.0015553094    61.498921    61.450075     61.67689    22574.273 
11200000   -204520.29    1.5988825 -0.0019186942    61.760756    61.590327    61.539856    22593.212 
11205000   -204423.25    1.6247619 0.0020843596    61.710735    61.453365    61.625492    22612.205 
11210000   -204169.54    1.6157948 0.0037942825     61.92262    61.618199    61.554145     22631.11 
11215000   -204452.39    1.5946419 -0.0017948809    61.725734    61.579693    61.786464     22650.09 
11220000   -204252.85    1.6178732 -0.0048724634    62.102916     61.54182    61.678009    22669.006 
11225000   -204326.46    1.6366555 -0.0037170262    61.555416    61.563099    61.995763    22687.948 
11230000   -204373.79    1.5847049 0.0019818561    61.928419    61.428185    61.665798    22706.918 
11235000   -204327.76    1.5780347 -0.0010431453    61.637564    61.929177    61.684863    22725.873 
11240000   -204257.14    1.5711387 -0.005104512    61.658052    61.916123    61.720372    22744.842 
11245000   -204161.98    1.6167014 -0.0010781872    61.637314    61.895617    61.636437    22763.777 
11250000   -204095.04    1.5986352 -0.0017882872    61.655292    61.829711    61.835586    22782.724 
11255000   -204066.08    1.6349576 -0.0025048406    61.843595     61.78182    61.832843    22801.677 
11260000   -204084.65    1.6177117 0.0040160771    61.646297    61.900808    61.753146    22820.639 
11265000   -204149.57    1.6424498 -0.00027114714    61.869343    61.554915    61.949689    22839.643 
11270000   -204168.59    1.5961778  -0.00247399      61.7751    61.722486    61.778263    22858.641 
11275000    -204333.1    1.5982436 0.00029231989    61.907774    61.688153    61.570995    22877.558 
11280000   -204167.45    1.6152628 0.0015080961    61.638703     61.80691    61.904589    22896.479 
11285000   -204369.17    1.5519563 0.0030227902    61.644697    61.822495    61.563531    22915.386 
11290000   -204227.94    1.5354695 -0.0010529158    61.838056    61.915061    61.520643    22934.278 
11295000   -204205.32    1.6042649 -0.0013052275    61.991312    61.675111    61.637646    22953.208 
11300000   -204357.76    1.6352637 -0.00034317979    61.891492    61.565003    61.846192    22972.279 
11305000    -204311.3    1.6053096 -0.00077089031    61.669719    61.710693     61.78561    22991.196 
11310000   -204132.43    1.5824307  0.002517947    61.856809    61.665268    61.748588    23010.208 
11315000   -204054.55    1.6256587 -0.0093796402    61.729738    62.024307    62.158275    23029.156 
11320000   -204336.69    1.6002169 0.0054470493    61.708784    61.817771    61.691978    23048.113 
11325000   -204440.99    1.6153438 -0.0051070997    61.634958    61.712889     62.04453    23067.038 
11330000   -204223.88    1.5680878 -1.7301416e-05    61.714164    61.619732    61.934051    23086.008 
11335000   -204363.09    1.6061962 0.00089433555    61.453521    61.880228    61.842332    23104.963 
11340000   -204271.34    1.6564796  0.001368662    61.743955    61.745552    61.771174    23123.953 
11345000   -204431.81     1.632566 -0.0018494516    61.795975    61.803104    61.645837    23143.014 
11350000   -204501.49    1.5894177 0.00089637852    61.722594    61.844076    61.622896    23162.019 
11355000   -204476.87    1.6139913 0.0022878315    61.703965    61.623469     61.64834    23180.999 
11360000   -204299.91     1.573958 0.0018303617    61.586061    61.870056    61.677838    23199.938 
11365000   -204425.39    1.5838989 -0.0026929071    61.357838    61.880742    61.856394    23218.869 
11370000   -204496.88    1.6075513 -0.0071763596      61.4968    61.917859    61.722963    23237.805 
11375000   -204515.02     1.604413 0.0049550751    61.408556    61.744777    61.641995    23256.759 
11380000   -204385.34    1.6438624 0.0036745044    61.552761    61.554241    61.813656    23275.721 
11385000   -204610.56     1.549035 0.00089192503    61.642611     61.39168     61.58328    23294.758 
11390000   -204586.77    1.6104961 0.0021917569    61.803993    61.455262    61.320574    23313.779 
11395000    -204450.3     1.585106 0.0070748282     61.70463    61.492251    61.493871    23332.692 
11400000    -204685.8    1.5782408 0.0041975187     61.35572    61.745061    61.572689    23351.555 
11405000   -204539.29    1.6062006 0.0011794912    61.781563    61.549805    61.714805    23370.527 
11410000   -204523.39    1.5978165 -0.0066632207    61.743879    61.870876    61.606521    23389.502 
11415000   -204481.59    1.5986527 -0.0038150819    61.605166    62.004387    61.411019    23408.442 
11420000   -204508.13    1.5642107 0.0096255864    61.728367    61.447684    61.422305    23427.389 
11425000   -204529.06    1.5781176 -0.0027290208     61.69878    61.525566    61.851271    23446.255 
11430000   -204495.93    1.6065996 -0.0012944632    61.757671     61.52089    61.603867    23465.224 
11435000   -204652.09     1.599806 0.00048236921    61.644644     61.53538    61.537737    23484.213 
11440000   -204558.49    1.6202191 0.0012377912    61.648221    61.610896    61.566179    23503.222 
11445000   -204589.98    1.6267301 -0.00034608146     61.75327    61.588223    61.478259     23522.21 
11450000   -204612.96    1.6203698 -0.00087332487    61.487255    61.646037    61.651449    23541.232 
11455000   -204935.32    1.6213904 0.0011812502    61.512944    61.400358    61.508995    23560.218 
11460000   -204770.05    1.6173454 -0.0028036456    61.662247    61.576586    61.612703    23579.241 
11465000   -204600.93    1.5945087 0.0017311636    61.397938    61.800346     61.56714    23598.256 
11470000   -204491.05    1.6269676 0.00025877909    61.771782    61.531801    61.673833    23617.244 
11475000   -204659.77    1.6292437 0.0032872675    61.607744    61.671454    61.574239    23636.326 
11480000   -204574.76    1.6256869 -0.0016284849    61.588689    61.652865    61.692663    23655.345 
11485000   -204498.13     1.616896 0.00059665006     61.54181    61.851596    61.577653    23674.329 
11490000   -204489.78    1.6271153 -0.0040915561     61.74552    61.735866    61.561086    23693.319 
11495000    -204443.6    1.6084477 -0.0012720347    61.546676    61.724405    61.857783     23712.24 
11500000   -204466.89    1.5909386 0.00064112747    61.591195    61.793896    61.591622    23731.183 
11505000   -204483.16    1.6276639 -0.0017576166    61.628951    61.689013    61.635723     23750.12 
11510000   -204725.75    1.5960706 0.0021937328    61.565002    61.548808    61.540181    23769.145 
11515000   -204580.56    1.5400556 -0.0035878549    61.754485    61.716471    61.514902    23788.136 
11520000   -204510.93    1.6243683 0.0041439294    61.991559    61.332907    61.505183     23807.06 
11525000   -204625.07    1.6042193 0.0051311907     61.74541    61.570173    61.394473    23826.037 
11530000    -204708.1    1.5409813 0.00072862111    61.691507    61.428836    61.584936    23845.079 
11535000   -204678.66    1.5797426 0.0054183288    61.537874    61.590882    61.462415    23864.063 
11540000   -204733.35    1.6125724 0.0024870374    61.405703     61.59418    61.585092    23882.967 
11545000   -204564.32    1.5916076 0.0047779877     61.40962    61.375289     61.65345     23901.93 
11550000   -204722.03    1.5759636 0.0025520708    61.621111    61.559051    61.444342    23920.871 
11555000   -204651.46    1.5846467 -0.0045017037    61.612941    61.644652    61.569395    23939.878 
11560000   -204489.41    1.6154223 -0.0019984815    61.932258    61.480037    61.620049    23958.797 
11565000   -204554.23    1.6027134 0.0097828889    61.531288    61.447936    61.504754    23977.782 
11570000   -204637.67    1.5927493 0.00091291753    61.812881    61.345166    61.543666     23996.75 
11575000   -204602.14    1.5592297 -0.00073625557    61.660417    61.648885    61.553249    24015.693 
11580000    -204393.1    1.5905844 0.0016833557    61.747546    61.608338    61.695074    24034.646 
11585000   -204468.81    1.5974865 0.0037664668     61.88996    61.331968    61.750965    24053.606 
11590000   -204328.44     1.588015 0.0029075781    61.820757    61.521839    61.752984    24072.498 
11595000   -204551.43    1.6095336 0.0012672689    61.740796    61.512526    61.788848    24091.506 
11600000   -204357.49    1.5767809 -0.00054933736    61.767794    61.804902    61.657433     24110.44 
11605000   -204349.46    1.6452159 -0.0012141854    61.639217    61.790112      61.7986    24129.465 
11610000   -204324.41    1.5843936 0.0069343241    61.831096     61.48705    61.460807    24148.456 
11615000   -204512.22    1.5735727 0.0046448757    61.408444    61.799619    61.455706    24167.394 
11620000   -204283.78    1.5483097 -0.0037626952    61.607671    61.664864    61.887573    24186.335 
11625000   -204413.98    1.5778304 0.0025925097    61.535709    61.622004    61.776148    24205.283 
11630000   -204459.62    1.6435339 0.0071883631    61.596273    61.504961    61.597474    24224.232 
11635000   -204315.09    1.6080523 -0.0021307917    61.713988     61.72903    61.680492    24243.205 
11640000   -204329.04    1.6332499 -0.0012010477    61.626048    61.683648     61.81783    24262.161 
11645000   -204359.47    1.5774764  0.005975915    61.599623    61.660639     61.58255    24281.157 
11650000   -204545.46    1.5673313 -0.0058336609    61.520656    61.624138    61.830406    24300.153 
11655000   -204461.35    1.6230886 -0.0032325242     61.64093    61.642686    61.681863    24319.175 
11660000   -204611.95     1.587852 0.00095754636    61.739775    61.619189    61.419797    24338.176 
11665000   -204666.88    1.5902117 -0.0051119176    61.999524    61.584503    61.328604    24357.166 
11670000   -204519.72    1.6217993 0.0030828002    61.730627    61.593668    61.432647    24376.078 
11675000   -204386.08    1.6028539 -0.0063378338    61.827596    61.942784    61.580117    24395.096 
11680000   -204577.35    1.6039103 -0.00098389557    61.979561    61.600608    61.508093    24414.049 
11685000   -204268.64    1.5866535 0.00028824762    61.827996    61.752239    61.554711    24432.993 
11690000   -204264.41    1.5903103 -0.0015386566    62.020745    61.259495    61.893792     24451.94 
11695000   -204346.97     1.579553 0.0023073649    61.814948    61.422353     61.75671    24470.891 
11700000      -204445    1.6016294  2.89204e-06    61.801029    61.655838    61.614941    24489.896 
11705000      -204516    1.5708588 0.0049808303    61.594111     61.51609    61.743515     24508.91 
11710000   -204421.24    1.5845845 -0.00045895552    61.617576    61.435776    61.868528    24527.853 
11715000   -204588.14     1.581502 -0.009875896      61.6885    61.702125    61.673376    24546.783 
11720000   -204502.47    1.6095262 0.0025516576    61.714708    61.385833    61.525174    24565.756 
11725000   -204476.21    1.5874879 0.0049994389    61.590697    61.455705     61.56199    24584.789 
11730000    -204295.9    1.6184226 0.0028117652    61.553916    61.579873    61.781764    24603.766 
11735000   -204470.29    1.6022897 -0.0013022649    61.632622    61.542936     61.74921    24622.744 
11740000   -204590.04    1.5828055 0.0029053185    61.734472    61.604225    61.346624    24641.775 
11745000   -204531.73    1.6275625 -0.0061742923    61.595475    61.649426     61.69595    24660.815 
11750000   -204708.81    1.5899289 0.00071281741    61.558864    61.404464    61.711562    24679.762 
11755000   -204619.92    1.5762357 -0.0005776834    61.876612    61.386328    61.501928    24698.718 
11760000   -204640.38    1.6045428 0.0042382613    61.772582    61.574328    61.252995    24717.761 
11765000   -204676.25     1.665253 0.0035248555    61.814048    61.589092    61.280713    24736.746 
11770000   -204707.85    1.6097486 -0.0035589722    61.753242    61.743609    61.376235    24755.761 
11775000   -204678.96    1.5926864 0.00087178648    61.418834    61.555766    61.580687      24774.7 
11780000   -204508.01    1.5856687 -0.001173071    61.627552    61.633035    61.678502    24793.678 
11785000   -204380.92    1.5446314 0.0014803271    61.674156    61.544976      61.7373    24812.745 
11790000   -204541.91    1.5647701 -0.0019864304    61.642465     61.48236    61.794801    24831.773 
11795000   -204534.73    1.6377703 -0.0059447761    61.429398    61.602033    61.983782    24850.694 
11800000   -204528.69    1.5487117 -0.0010192479    61.684993    61.608312    61.590707    24869.674 
11805000   -204651.48    1.6224388 0.0031826939    61.401709    61.845084    61.372529    24888.679 
11810000   -204636.17    1.6177295 0.0019656004    61.434669    61.709351    61.367157    24907.694 
11815000   -204661.24    1.6700458 -0.0023401663    61.297833     61.75798     61.57556    24926.715 
11820000   -204529.79    1.5885153 0.0017831074     61.73165    61.528851     61.49701    24945.742 
11825000   -204626.42    1.5923722 0.0015235543    61.259831    61.743879    61.613256    24964.848 
11830000   -204549.85     1.609425 -0.0035596648    61.539755    61.580549     61.77968     24983.83 
11835000    -204520.6    1.5972454 5.559934e-05    61.362883    61.674721    61.764095    25002.764 
11840000   -204550.18    1.6218143 0.00018517486    61.502581    61.756568    61.536241    25021.729 
11845000   -204450.52    1.5547345 0.00014373632     61.45671    61.778551    61.569347     25040.68 
11850000   -204668.29    1.5890317 -0.003449147    61.536024    61.670669    61.536914    25059.656 
11855000   -204512.92    1.6533872 -0.00012778147    61.578966    61.598806    61.703368    25078.603 
11860000   -204503.31    1.5667925 -0.0015566808    61.545467    61.724621    61.632497    25097.542 
11865000   -204439.57    1.6145894 -0.0032820321    61.559936    61.896923    61.563684    25116.465 
11870000   -204602.33    1.5859608 0.0015775259    61.536463    61.643751    61.647987    25135.451 
11875000   -204710.33    1.5947964 0.0021825034    61.784958    61.527779    61.425326     25154.52 
11880000   -204623.38    1.6132117 0.00095894415      61.6972    61.739914    61.455242     25173.55 
11885000   -204436.32    1.5889186 -0.0023579986    61.880589    61.542177    61.532496    25192.597 
11890000   -204679.83    1.5724854 0.0020826479    61.340548    61.568911     61.71333    25211.574 
11895000   -204566.08    1.5659451 -0.0026772955     61.30448    61.963007    61.430833    25230.568 
11900000   -204559.83    1.6246595 0.0013398927    61.729074    61.557206    61.521218    25249.519 
11905000   -204495.95    1.5821346 0.0041872458    61.603236    61.531734    61.619236    25268.518 
11910000   -204627.31    1.6179891 -0.0049507053    61.622233    61.416306    61.847381    25287.502 
11915000    -204636.6    1.5659917 -0.00090556722    61.461278     61.47118    61.706708    25306.482 
11920000   -204597.75     1.626058  0.002550871    61.377732    61.689436    61.600013    25325.408 
11925000   -204438.55    1.5556342 -0.0035447596    61.771977    61.602524    61.543428    25344.371 
11930000   -204392.99     1.601253 0.0013425786    61.633389    61.679305    61.606877    25363.386 
11935000    -204355.1    1.5563738 -0.0062902465    61.825898     61.70267    61.574403    25382.283 
11940000   -204676.65    1.5991679 0.0031212083    61.454859    61.405179    61.596407    25401.238 
11945000    -204722.6    1.5644403 -0.0036967318    61.645119    61.497564    61.433727    25420.273 
11950000   -204835.62    1.6063919 0.0030769972    61.685481    61.427949    61.312418    25439.229 
11955000   -204664.88    1.5827691 0.00080476303     61.72442      61.4347    61.521539    25458.181 
11960000   -204807.25     1.560705 0.0042113669    61.501143    61.289427    61.532977    25477.189 
11965000   -204718.16    1.5531701 -0.0068035185    61.508876      61.6651    61.671634    25496.209 
11970000   -204763.76    1.6252282 0.0023281154    61.492175    61.540114      61.5223    25515.204 
11975000   -204703.67    1.6448566 0.0097538332    61.376276     61.27038    61.600468    25534.108 
11980000   -204626.88    1.6277623 -0.0040414815    61.442091    61.556406    61.729404    25553.056 
11985000   -204589.64        1.578 -0.00023814616    61.673408    61.553642    61.571241    25572.009 
11990000   -204536.65    1.6195879 0.0023911091    61.687968    61.492854    61.495938    25590.999 
11995000   -204465.85    1.6308658 0.0037375267    61.599244    61.526564    61.619939    25610.002 
12000000   -204394.16    1.6569254 0.0019323032    61.402648    61.794994    61.587271    25629.003 
12005000   -204770.61    1.6540612 0.0024769869    61.342742    61.474392    61.769419    25647.965 
12010000   -204638.93    1.6326095 -0.0045888427    61.683796    61.668851    61.672042    25666.914 
12015000   -204457.42    1.5421281 -0.004748746     61.94207    61.733613    61.334454    25685.841 
12020000   -204436.49    1.6217964 0.0035573045    61.755727    61.429924    61.548316    25704.808 
12025000    -204305.2    1.5989862 -0.0021877309    61.891693    61.641067    61.593261    25723.773 
12030000   -204331.31    1.6008697 -0.0020811177    61.843546    61.593774    61.631526      25742.8 
12035000   -204550.37    1.6094499 0.0026493799    61.571083    61.527934    61.610079     25761.78 
12040000    -204455.4     1.536593 -0.0045059412    61.801925    61.688387    61.616506    25780.754 
12045000   -204383.35    1.5826517 0.0013445662    61.597861    61.713542    61.709573    25799.781 
12050000   -204539.72    1.6084034 -0.00052702461    61.574692    61.757794    61.632918    25818.751 
12055000   -204598.53    1.5825773 0.0023293259    61.601691    61.457508    61.795783    25837.686 
12060000   -204615.97    1.6373356 -0.0019200982    61.613071    61.600576    61.620295    25856.674 
12065000   -204608.37    1.5987269 -0.00039042979    61.738236    61.448223    61.590564    25875.671 
12070000   -204641.78    1.5887002 0.0024996477    61.595355    61.537096    61.629751    25894.584 
12075000   -204629.64     1.592944 -0.00086131064     61.70526    61.586323    61.452793    25913.523 
12080000   -204701.03    1.5561265 -0.0034547136    61.602026    61.823681    61.447001    25932.514 
12085000   -204582.33    1.5470158 -0.0027787141      61.5732    61.718407    61.525715    25951.458 
12090000   -204736.56    1.6207024 0.0067977813    61.670902    61.411977    61.459408      25970.4 
12095000   -204834.39    1.5992009 0.0065694426    61.596652    61.451758    61.336404     25989.45 
12100000    -204598.2    1.5848903 -0.00091325123    61.676616    61.601517    61.428397    26008.458 
12105000    -204699.9    1.6076901 -0.0049092634    61.622453    61.681787    61.501836    26027.326 
12110000   -204700.43    1.6482971 0.0048560056    61.503561    61.487244     61.37814    26046.329 
12115000   -204582.72    1.6301413 -0.0027181753    61.800456    61.523366    61.443972    26065.325 
12120000   -204436.22    1.6196311  0.001157645    61.755388    61.612719    61.377403    26084.323 
12125000   -204720.64    1.6127319 0.0055666473    61.404208    61.484876    61.505748    26103.249 
12130000    -204782.1    1.6043458 -0.0052527274    61.685725    61.350285    61.539258    26122.138 
12135000   -204984.33    1.5766042 0.0067036667    61.411728    61.222521    61.527224    26141.113 
12140000    -204702.8    1.5932394 -0.0051754043    61.426602    61.795599     61.74427    26160.139 
12145000   -204894.69    1.5904748 -0.0015703818    61.438898    61.728419    61.529534    26179.058 
12150000   -204832.48    1.6108125 0.0018119905    61.468522    61.544924    61.561594    26198.029 
12155000   -204668.87    1.5955473 -0.0044156387    61.604388    61.699598    61.619817    26217.015 
12160000   -204611.84     1.620885 0.0045914881    61.350992    61.707926    61.619737    26235.981 
12165000   -204665.02    1.5601775 -0.0014609092    61.479289     61.44584    61.887411    26254.914 
12170000   -204681.12    1.5842757 0.00069354205    61.538386    61.485353    61.635122    26273.859 
12175000   -204669.72    1.6123298 0.0063327247    61.462637    61.499181      61.6285    26292.877 
12180000    -204616.8    1.5751681 0.0019815708    61.286542    61.757239    61.689803    26311.952 
12185000   -204476.16     1.602192 -0.0060801612    61.762811     61.70093     61.53736    26330.913 
12190000   -204609.96    1.5887526 0.0013760668    61.715128     61.41442    61.462524    26349.854 
12195000   -204614.98    1.5886001 -0.00031901096    61.637174     61.35539     61.68198    26368.829 
12200000   -204834.16     1.599029 -0.0043181923    61.625675    61.530331    61.533607    26387.784 
12205000    -204621.9    1.5978677 -0.0010434948    61.457212    61.768182      61.5514    26406.833 
12210000   -204405.66    1.5550964 0.0041445595    61.584307     61.51606    61.627677    26425.779 
12215000   -204554.58    1.6147856 -0.0038170953    61.490403    61.686195    61.770025    26444.802 
12220000   -204618.94    1.6265737 0.0057782657    61.505503     61.59179    61.508795    26463.847 
12225000   -204555.31     1.597712 0.0016753914    61.571891    61.581116    61.711021    26482.861 
12230000   -204483.18     1.625512 -0.0017911338    61.639678    61.648655    61.769066    26501.855 
12235000      -204617    1.5925618 -0.0029554748    61.563148     61.71375    61.802195    26520.895 
12240000   -204526.29    1.6088202 -0.00097666445    61.476838    61.799797    61.680891    26539.923 
12245000   -204477.57    1.5519988 0.0012002417     61.47848    61.738078    61.587247     26558.93 
12250000   -204353.66    1.5649277 -0.0044199792    61.635436    61.853085    61.700826    26577.815 
12255000    -204466.3    1.5826702 -0.00053356171    61.741966    61.558453    61.733422    26596.844 
12260000    -204540.4    1.5927185 0.0045362693    61.511343    61.524447    61.666562    26615.919 
12265000   -204542.54    1.5847463 0.0011418532    61.690237    61.480016    61.669902    26634.906 
12270000   -204617.72    1.6382188 -1.5531974e-05    61.792473    61.756764    61.369275    26653.828 
12275000   -204506.23    1.5978074 -0.0029840462    61.654372     61.57533    61.730848    26672.822 
12280000      -204404    1.5787693  0.004733925    61.534442    61.637444    61.659522    26691.806 
12285000   -204527.87    1.5727016  0.004054701    61.583797    61.703221    61.572684    26710.794 
12290000      -204449    1.6059838 -0.0047250593    61.830356     61.63105    61.733613      26729.8 
12295000   -204614.51    1.5632382 0.0085169195    61.400865    61.516474    61.670135     26748.73 
12300000    -204555.7    1.6323424 -0.001291015    61.571381    61.394859    61.979926    26767.689 
12305000   -204494.33     1.607588 9.5568491e-05    61.776795    61.460943    61.685251    26786.631 
12310000   -204411.45    1.6374986 -0.00045832815    61.667887    61.636414     61.64135     26805.61 
12315000    -204518.3    1.5667678 0.0021161858    61.597247    61.555132    61.604232      26824.6 
12320000   -204388.76    1.6112095 -0.0031174868    61.786322    61.641004    61.733053    26843.575 
12325000   -204357.37    1.5574116 0.0005437376    61.513499    61.497918     61.87296    26862.546 
12330000   -204538.45    1.6195079 0.0033813269    61.451526    61.617161    61.664697     26881.49 
12335000   -204509.98    1.5881913  0.001375981    61.393932    61.644149    61.706523    26900.443 
12340000   -204430.23    1.5906237 -0.0041871071    61.842131    61.701876    61.532784    26919.385 
12345000   -204649.99    1.5976086 -0.0013617294    61.697425    61.563869    61.551884    26938.341 
12350000   -204572.04    1.5700008 0.0031254046     61.76542    61.725823    61.225509    26957.244 
12355000   -204636.57    1.5632441 0.0023575918    61.529449    61.558472    61.590493    26976.236 
12360000    -204588.5    1.5828292 -0.0010897586    61.363639     61.75852    61.652471    26995.189 
12365000    -204682.6    1.5346395 -0.0033695443     61.46355    61.530328    61.884391    27014.159 
12370000   -204767.57    1.5857313 0.0056412245    61.371356    61.711891     61.48627    27033.076 
12375000   -204657.44    1.5882385 -0.004025169    61.550626    61.988091    61.594686    27052.024 
12380000   -204608.97    1.6142571 -0.0010236185    61.559425     61.81305    61.600928    27070.966 
12385000   -204832.33    1.6268578 0.0030399957    61.500022    61.619212    61.617966     27089.95 
12390000   -204557.77    1.6116849 -0.0049231009    61.857912    61.681142    61.485132    27108.942 
12395000   -204696.89    1.5836066 -0.00092363353    61.475224    61.689166    61.522165    27127.935 
12400000   -204860.15    1.5743906 -0.00036164407    61.482693    61.494062    61.605086    27146.921 
12405000   -204650.04    1.6357697 -0.0041799088     61.53247    61.840944    61.527038    27165.996 
12410000   -204678.75    1.5930545  0.002110284    61.687713    61.330158    61.652271    27185.014 
12415000    -204887.8    1.5893452 -0.0039494695    61.612603    61.461865     61.63513    27204.001 
12420000   -204644.56    1.6118526 -0.0021068276    61.705783     61.55679    61.493559    27222.945 
12425000   -204695.23     1.603042 0.0043166759    61.530895    61.367668    61.689117    27241.903 
12430000   -204523.49    1.6032107 -0.0059121439    61.686034    61.652158    61.760757    27260.855 
12435000   -204450.38    1.5905877 -0.00019619596    61.494568    61.604092    61.761285    27279.758 
12440000   -204510.27    1.5853514 -0.003783358    61.563723    61.778671    61.698504    27298.736 
12445000    -204484.1    1.6260157 0.0006999681    61.457549    61.690483    61.690785    27317.683 
12450000   -204698.41    1.5823241 0.0014439802    61.588732    61.439984     61.70252    27336.669 
12455000   -204582.93     1.641088 -0.0018979517    61.576786    61.553553    61.739408     27355.66 
12460000   -204660.26    1.5886887 0.0029909431    61.422898    61.733424     61.53911    27374.609 
12465000   -204642.24     1.526238 -0.001568046    61.589342    61.593703     61.61573    27393.559 
12470000   -204484.54    1.6003837 0.0059747658    61.593425     61.49357    61.572397    27412.598 
12475000    -204476.4    1.5868906 0.0006844491     61.71332    61.418257     61.68816    27431.616 
12480000   -204464.27    1.5929336 -0.0015246656    61.929742    61.626491     61.64684    27450.569 
12485000   -204455.83    1.5906629 0.00099890172    61.510294    61.868246    61.627711    27469.577 
12490000   -204514.92    1.6338458 0.0012026188    61.597253    61.841649    61.554487     27488.58 
12495000   -204590.97    1.5995081   0.00434585    61.481042    61.704722    61.617042    27507.606 
12500000   -204778.78     1.597711  0.003258615    61.496827    61.471612    61.656191    27526.601 
12505000   -204629.21    1.6391199 -0.0044452235    61.707468    61.502315    61.730285    27545.566 
12510000   -204819.41    1.6259718 -6.5221533e-05    61.532004    61.477988    61.502671    27564.554 
12515000   -204720.45    1.6204232 -0.002502562    61.349546    61.765004    61.656088    27583.588 
12520000   -204533.72    1.6101737 0.00066926084    61.426992    61.819519    61.629774    27602.548 
12525000   -204515.55    1.6143108 -0.00067166354    61.579747    61.628211     61.61225    27621.524 
12530000   -204640.77    1.5624229 0.0054600788    61.452169    61.487585    61.609328    27640.481 
12535000    -204558.3    1.5578831 -0.0012380899    61.610453     61.56267    61.562362    27659.472 
12540000   -204672.81    1.6096286 -0.0012866883    61.825414    61.375409    61.487291    27678.397 
12545000   -204611.38    1.6192342 0.0045306773    61.421716    61.635848    61.524122     27697.37 
12550000   -204761.49    1.5888856 -0.0026663081    61.863367    61.561923    61.348483    27716.328 
12555000   -204512.43    1.5778149 -0.0026006674    61.632629    61.520234    61.873043     27735.28 
12560000   -204578.23    1.6192288  0.008327931     61.49235    61.370586    61.592884    27754.267 
12565000   -204482.01    1.5806815  0.003254237    61.820897    61.402801    61.534069    27773.264 
12570000   -204369.09    1.6268163 -0.0048039717     61.68078    61.597238     61.85121    27792.302 
12575000   -204323.22    1.6694929 -0.00059584236    61.728996    61.763767    61.577539    27811.329 
12580000   -204491.55    1.5993786 0.0017710708    61.568665    61.676193    61.615022    27830.325 
12585000   -204511.49    1.6207181 0.0029862166    61.694773    61.621064    61.528509    27849.308 
12590000    -204827.3    1.6092807 0.0018893901    61.579888    61.459792    61.653279     27868.24 
12595000   -204713.01    1.6424438 -0.00063769026    61.622838     61.77756    61.486845    27887.172 
12600000   -204582.97    1.6013259 0.00040442764    61.687622    61.678541    61.457146    27906.162 
12605000   -204655.37    1.5645356 0.0061800942    61.435303    61.766274    61.370293    27925.137 
12610000   -204605.04     1.622329 -0.00025769625    61.586377    61.814755    61.479237     27944.03 
12615000   -204498.23    1.6457512 -0.00087038678    61.667823    61.513056    61.750467    27962.999 
12620000   -204492.62    1.5869504 -0.0028500102    61.519625    61.683655    61.657523    27982.039 
12625000   -204492.32    1.5878035 0.0018288166    61.327029    61.982528    61.498996    28001.021 
12630000   -204647.11    1.5897784 0.0042132236    61.278792    61.606286    61.585653    28019.977 
12635000   -204756.22    1.6271792 0.0048176319     61.56474    61.468101    61.484709    28038.916 
12640000   -204869.17    1.5654948 -0.0040699533     61.64901    61.600279    61.472506    28057.892 
12645000   -204800.98       1.6502 -0.0024649854    61.590991     61.70928    61.415335    28076.848 
12650000   -204832.09    1.5687249 -0.00046121595    61.329387    61.625835     61.51968    28095.862 
12655000   -205006.77    1.6450298 0.0044590111    61.324678     61.50924    61.514942    28114.903 
12660000    -204652.5    1.6361705 0.00072690759    61.483265    61.727058    61.560827    28133.879 
12665000    -204602.4    1.5989453 -0.00067106158    61.559354    61.476008    61.870549    28152.833 
12670000   -204805.86     1.587871 0.0051232404    61.651972    61.524914    61.413606     28171.79 
12675000    -204637.9    1.5910905 -0.0035616837    61.512074    61.520391    61.840176    28190.768 
12680000   -204830.54    1.5791086  0.004957918    61.551516    61.413551    61.630522    28209.767 
12685000   -204801.06    1.5941826 -0.0079653376    61.642958    61.644493    61.777833    28228.677 
12690000   -204707.91    1.5899288 0.0030060865    61.669386    61.627658    61.475194    28247.603 
12695000   -204574.37    1.6138175 0.0028898004    61.609626    61.490315    61.645009    28266.552 
12700000   -204867.92    1.6498796 0.0021024124    61.585136    61.388634    61.620859    28285.473 
12705000   -204702.71    1.5742223 -0.0064416487    61.428922    61.731247    61.821727    28304.391 
12710000   -204831.12     1.607484 1.645439e-06    61.552217    61.541292    61.491677    28323.355 
12715000   -204869.78    1.5718693  0.004249259    61.547962    61.360248    61.459208    28342.287 
12720000   -204886.16    1.6044179  0.002119066    61.663132    61.192665     61.47039      28361.3 
12725000   -204893.81    1.6137875 3.6088504e-06     61.51127     61.35248    61.623361    28380.327 
12730000   -204677.74    1.5777209 -0.0017910445     61.27171    61.490492    61.904135    28399.322 
12735000   -204848.65    1.5815278 0.0099267756    61.631438    61.242558    61.239831    28418.253 
12740000   -204864.93    1.5743093 -0.00036191856    61.490701    61.331073    61.690194     28437.24 
12745000   -204660.98     1.633963 -0.00063346142     61.48579    61.485588    61.760474    28456.265 
12750000    -204845.8    1.5442692  0.003557997    61.806744    61.122604    61.427782    28475.283 
12755000   -204614.05    1.6036222 -0.0025711261    61.620079    61.665072    61.482012    28494.261 
12760000   -204813.19    1.5611608 -0.0030874529    61.705733     61.56997    61.336196    28513.277 
12765000   -204553.61     1.622752 -0.0047982737    61.608344    61.686687    61.620703    28532.245 
12770000   -204608.86    1.6319648 0.0025226189    61.618481    61.713915    61.300591    28551.184 
12775000   -204518.59    1.5706661 0.0030982108    61.277741    61.821669    61.547851    28570.159 
12780000   -204565.46    1.6364779 -0.0010600244     61.71592    61.607858    61.562788    28589.148 
12785000    -204621.5    1.6223319 0.00038480694    61.701625    61.684396    61.516807    28608.191 
12790000   -204740.47    1.6274479 0.0020800839    61.665524    61.502522    61.566801    28627.261 
12795000   -204651.98    1.5976774 -0.0051556619    61.852074    61.453922    61.621236    28646.185 
12800000   -204709.25    1.5793786 0.0055896214    61.666497    61.630401    61.436597    28665.098 
12805000   -204630.27    1.6084257 -0.0011502331    61.454303    61.851823    61.578491    28684.023 
12810000   -204726.57    1.6196916 0.0030826624    61.890999    61.455332    61.333976    28702.961 
12815000   -204591.06    1.5997613 -0.0029670046    61.697108    61.638877    61.567005    28721.885 
12820000   -204684.19    1.5850577 -0.00056253392    61.394885     61.71172    61.693282    28740.803 
12825000   -204805.83    1.5664975 0.0022511476    61.472344    61.423263    61.751099    28759.719 
12830000   -204762.92    1.6263946 0.0023172792    61.534079    61.313117    61.725647    28778.703 
12835000   -204768.59    1.5975651 -0.0014762827    61.575627    61.630302    61.529651    28797.741 
12840000   -204774.48    1.6315063 0.00058482776    61.492156    61.530123    61.702343    28816.777 
12845000    -204829.8     1.575333 0.0059962061    61.283454     61.41672    61.613466    28835.737 
12850000   -204862.54    1.6527166 -0.0027373913    61.496913    61.469222    61.809818    28854.678 
12855000   -204652.08    1.6476526 0.00020858731    61.386482    61.771749    61.607581    28873.674 
12860000   -204881.35    1.5931626 -0.00038856176    61.440246    61.669912    61.570404    28892.661 
12865000   -204863.88    1.6248063 0.0023261553    61.261822    61.439876    61.731323    28911.704 
12870000    -204730.3    1.5964547 0.00031332114    61.631993    61.426983    61.646967    28930.703 
12875000    -204890.5    1.5888765 0.0015183818    61.359166    61.369105    61.706484    28949.723 
12880000   -204799.47    1.6022793 0.00029665898    61.456594     61.47447    61.641407    28968.701 
12885000   -204654.42     1.571759 0.0099033946    61.599631    61.459091    61.283873    28987.693 
12890000   -204756.49    1.6138106 -0.0045602081    61.588867        61.27    61.939391    29006.718 
12895000   -204820.57    1.6380888 0.0019857779    61.487294    61.600376    61.505687    29025.771 
12900000   -204752.51    1.6273903 0.0026746028    61.454395    61.571116    61.399555    29044.772 
12905000   -204674.18    1.5555719 5.8979768e-05    61.591652    61.437136    61.561782    29063.771 
12910000   -204632.39    1.5805232 -0.0049256318     61.55019    61.548356    61.735358    29082.777 
12915000    -204563.1    1.5814062 -0.002138594    61.800404    61.678449    61.478459    29101.513 
12920000   -204686.79     1.595624  0.004641324    61.584376    61.564868    61.296832    29118.966 
12925000   -204713.06    1.5817913 0.0051114675    61.447972     61.68637    61.461026    29136.381 
12930000   -204739.92    1.5913107 -0.0015672547    61.569317    61.570763    61.667678    29154.814 
12935000   -204863.36    1.6183718 -0.0059554603    61.634282    61.700087    61.553486    29173.785 
12940000   -204774.61    1.6069742 0.0062159762    61.617457    61.640467    61.382153    29192.734 
12945000   -204759.78    1.6075337 -0.0019507423    61.663222    61.658156    61.570898    29211.697 
12950000   -204685.58    1.5999077 0.0025343758    61.503971     61.54307    61.562534    29230.688 
12955000   -204594.59    1.5761853 0.0038268166    61.617802    61.298791    61.800219    29249.657 
12960000   -204635.09    1.6114074  0.004817341    61.440207    61.538671    61.577208     29268.65 
12965000   -204643.42     1.606774 1.419626e-05    61.674913    61.647124     61.54631    29287.614 
12970000   -204734.22    1.6531463 -0.0038081881     61.79624     61.46229    61.759775     29306.58 
12975000   -204612.77    1.5733069  0.006142939    61.523719    61.523972    61.419161    29325.648 
12980000   -204664.91    1.5499124 0.00086043737     61.27824    61.675862    61.651453    29344.715 
12985000   -204466.43    1.5979669 -0.0085695534     61.74389    61.620618     61.72706    29363.675 
12990000   -204494.63    1.6175143 -0.0037988846    61.633044    61.709723     61.69479    29382.634 
12995000   -204459.94    1.6043066  0.004658862    61.671854    61.455663    61.713029    29401.573 
13000000   -204512.68    1.6188773 0.00030484337    61.556372    61.680793    61.708686    29420.527 
13005000   -204415.41    1.6372918 0.0032683473    61.752439    61.730974     61.42424    29439.548 
13010000   -204394.28    1.5974008 -0.0039990247    61.652675    61.735198    61.671082    29458.537 
13015000   -204367.92    1.6132237 -0.0034186708    61.472059    61.841399    61.656075    29477.532 
13020000   -204275.44    1.5835228 0.0030826388    61.591343     61.48305    61.817489    29496.547 
13025000   -204381.22    1.6020394 -0.0013189611    61.854961    61.416736     61.82045    29515.547 
13030000   -204287.48    1.5817002 -0.0025170484    61.715582     61.83954    61.653708    29534.508 
13035000   -204569.82    1.6059554 0.0011921312    61.755185    61.500044    61.640254    29553.492 
13040000    -204498.4    1.5660918 0.0039783407    61.620417    61.773575    61.615595    29572.476 
13045000   -204577.09    1.6027675 0.00016237979    61.845455    61.521614    61.734641    29591.435 
13050000   -204419.88    1.5856266 -0.00011918445    61.962692    61.581516    61.604504    29610.483 
13055000   -204739.17    1.5888402 0.0024249929    61.937174    61.578264    61.232417    29629.519 
13060000   -204786.38    1.6231076 0.0031014382     61.69909    61.344521    61.488728    29648.596 
13065000   -204569.41    1.6436588 0.0015076911    61.765638    61.406913    61.573787     29667.59 
13070000    -204387.5    1.5694029 -0.0028746486    61.782385    61.744414    61.587304    29686.652 
13075000   -204480.85     1.624544 0.00088818576    61.876274    61.583743    61.605834    29705.676 
13080000   -204548.32    1.5846724 -0.00045315156    61.685993    61.631364    61.668364    29724.652 
13085000   -204442.95    1.5971316 0.0042913784    61.996534    61.709513    61.402964    29743.626 
13090000   -204539.26    1.6136501  0.001174632    61.763893    61.786059    61.571284    29762.628 
13095000   -204388.69    1.5698331 -0.0038480455    61.904639    61.967806    61.446568    29781.586 
13100000   -204220.45    1.6035474 -0.0070450604    61.793942    62.086054    61.641575    29800.533 
13105000    -204341.2    1.6341712 0.0079252544    61.813558    61.593773    61.621978    29819.509 
13110000   -204296.86    1.6181341 0.0033001526    61.746599    61.872812    61.522423    29838.503 
13115000   -204434.65    1.5661241 -0.0015686112    61.520792    61.826285    61.792766    29857.514 
13120000   -204404.97    1.5982394 0.0070968396    61.594102    61.783168    61.587177     29876.41 
13125000   -204480.95    1.5848897 0.00074618804    61.649715    61.762977    61.670695    29895.424 
13130000   -204264.11    1.6155589 0.0081984588     61.64889    61.669827    61.632385    29914.349 
13135000   -204303.52    1.5599252 0.0017769782    61.841797    61.761041    61.548004    29933.331 
13140000   -204299.96    1.5145482 -0.0056869507    61.902758    61.831041    61.636429    29952.305 
13145000   -204317.74    1.5634146 -0.0013260801    61.785636    61.543297    61.800857    29971.256 
13150000   -204256.89    1.5790005 -0.0061068323    61.907296    61.491705    61.932567    29990.276 
13155000   -204377.35    1.6313176 -0.0028922296    61.694311    61.877428    61.608365    30009.299 
13160000   -204688.08    1.6161559 -0.0048856857    61.824944    61.784188    61.432161    30028.298 
13165000   -204581.81    1.6153151 0.0048085177    61.735779    61.795403    61.313658    30047.284 
13170000   -204628.98    1.5957021 0.0012838698    61.570176    61.648614    61.580937    30066.236 
13175000   -204613.44    1.5968683 0.0012161007    61.554638    61.647635    61.673033    30085.237 
13180000    -204484.7    1.6241677 -0.00057610304    61.694198     61.52527    61.746274    30104.248 
13185000   -204424.75    1.6095178 -0.003192143    61.716154    61.933983    61.467682    30123.224 
13190000   -204485.45    1.5848713 0.0036605089    61.487572     61.79733    61.496552    30142.201 
13195000   -204453.49    1.6086713 0.0020923298    61.571708    61.956298     61.28651    30161.277 
13200000   -204564.42    1.6013522 0.0029121171    61.675898    61.720839    61.411635    30180.312 
13205000   -204546.88    1.6089732 -0.0030117552    61.853174    61.522139    61.583074    30199.272 
13210000   -204412.22    1.5747861 -0.00010946986    61.623228    61.816393    61.527049    30218.405 
13215000   -204586.56     1.624764 -0.00098648177    61.615028    61.698676    61.476667    30237.354 
13220000   -204605.95     1.557106 -0.0024518927    61.601806    61.622199    61.558816    30256.281 
13225000   -204710.21    1.5936821 -0.0017593033    61.529519    61.649441    61.460048    30275.292 
13230000   -204636.41    1.5922919 0.00060729329     61.54528    61.462988    61.579588    30294.363 
13235000   -204680.26    1.6364482 -0.0038126365    61.872481    61.549924    61.381372     30313.35 
13240000   -204674.69    1.6062097 0.0028412568    61.601783    61.634151    61.390256    30332.366 
13245000   -204603.02    1.6000569 -0.0016288461    61.622127    61.784419    61.412543    30351.368 
13250000   -204434.71    1.5816533 -0.0021245535    61.775354    61.736874      61.5923    30370.365 
13255000   -204509.08     1.623665 0.0066503714     61.68975    61.480993    61.560186    30389.363 
13260000   -204545.04    1.5685793 -0.0023095962    61.674561    61.555577    61.717516     30408.34 
13265000   -204625.07    1.6214843 0.0010264153    61.660199    61.747445    61.511166    30427.357 
13270000   -204844.78    1.5619294 0.0020720624    61.475389    61.528974    61.630475    30446.474 
13275000   -204639.04    1.6589177 -0.00014511327    61.526776    61.751649    61.530062    30465.522 
13280000   -204602.61    1.6200319 0.0020728398    61.578272    61.770175    61.519701    30484.554 
13285000    -204599.6    1.5516101 0.00081986707    61.789355    61.577226    61.516227    30503.577 
13290000   -204494.06     1.595875 -0.00021155654     61.70334    61.595892    61.634569    30522.571 
13295000   -204688.31    1.6223731 0.00030703455    61.733649    61.479879    61.559399    30541.612 
13300000   -204700.09    1.5720756 0.0027286881    61.519163    61.512041    61.473494    30560.644 
13305000   -204614.53    1.5989315 -0.0021423825    61.699337    61.473363    61.660157    30579.669 
13310000   -204748.25    1.5744967 -0.0034260204    61.655167    61.557598     61.63564     30598.62 
13315000   -204737.29    1.5824397  0.010398726     61.43947    61.655295    61.234566    30617.551 
13320000   -204665.24    1.5758978 0.0061437293    61.655449    61.569624    61.384721    30636.553 
13325000   -204533.39    1.5810986 -0.0081386763    61.739453     61.67443    61.817516    30655.475 
13330000   -204479.75    1.6132887 0.0029887009    61.441983    61.771398    61.593662    30674.481 
13335000    -204684.1    1.6114629 -0.0005986117    61.650792    61.492888    61.679382     30693.46 
13340000   -204673.81    1.5751611 -0.0061350407    61.577486    61.750047    61.613029    30712.463 
13345000   -204760.68    1.6361667 0.0039553021    61.316895    61.595266    61.587685    30731.511 
13350000   -204704.95    1.6118194 -0.0036509877    61.558192    61.743553    61.646217    30750.596 
13355000   -204746.86    1.6017234 0.00023714464    61.387048    61.726416    61.586956    30769.613 
13360000    -204854.1    1.6121391 -0.0025981442    61.430787    61.560245    61.601856    30788.692 
13365000      -204879    1.6431837 0.0012273772    61.500965    61.586016    61.533908    30807.658 
13370000   -204891.18    1.5988712 0.0048420648    61.388489    61.476695    61.520982    30826.634 
13375000   -204898.28    1.5770761 -0.0060777288    61.452567    61.675734     61.66522    30845.588 
13380000   -204801.37    1.5790696 0.0041687337     61.41214    61.270249     61.80678    30864.626 
13385000   -204714.32    1.5713886 0.0043177555    61.700787    61.326869    61.552944    30883.621 
13390000   -204810.91    1.5366237 -0.001596635    61.572004     61.41447    61.744642    30902.623 
13395000   -204786.42    1.6185178 0.0033663182    61.576908    61.306436    61.652098    30921.591 
13400000   -204602.16    1.6110207 -0.0014322208    61.416624    61.752906    61.619918      30940.6 
13405000   -204715.09    1.5929413 0.0065055303    61.199705    61.725309    61.446889    30959.583 
13410000    -204540.5    1.5694918 -0.0059553939    61.555456    61.863836     61.59743    30978.572 
13415000   -204710.68    1.5623579 -0.00024622017    61.381699    61.413274    61.760468    30997.617 
13420000   -204673.77    1.5828869 0.0015651455    61.487156    61.465767    61.549834    31016.604 
13425000   -204733.74      1.64008 0.00029452327    61.802472    61.228667    61.383756    31035.585 
13430000   -204748.27    1.5848212 -0.0030126775    61.775218    61.533014    61.320798    31054.566 
13435000   -204556.18    1.5936746 0.0009084553    61.588618    61.462874    61.655943    31073.544 
13440000   -204655.06     1.581827 0.0054102818    61.488465    61.243336    61.777488    31092.589 
13445000   -204599.23    1.5691634 0.0026889912    61.368257    61.647001    61.453846    31111.595 
13450000   -204613.73    1.6273006 0.00078872642     61.54976    61.480302    61.633615    31130.616 
13455000   -204694.15     1.568746 0.0011252269    61.477794    61.649495    61.584397    31149.645 
13460000   -204639.25    1.5846602 -0.005289206    61.904772     61.55946    61.487207    31168.663 
13465000   -204797.21    1.6191165 0.0014047551    61.628802     61.47497     61.50746    31187.668 
13470000   -204875.87    1.6069334  0.003269705    61.439786    61.698753     61.43019    31206.671 
13475000   -204780.01    1.5868407 -0.0026904267    61.693634    61.606066    61.589594    31225.688 
13480000   -204958.95    1.6299013 0.0005737046    61.494466     61.57669    61.485251      31244.8 
13485000   -204850.98    1.5777033 -0.001533225    61.606897    61.467002    61.604273    31263.853 
13490000   -204759.87    1.5803583 0.00036400216     61.47688    61.736656    61.454918    31282.841 
13495000      -204767    1.6140387 0.0063558062    61.407112    61.482731    61.487497    31301.828 
13500000   -204743.96    1.5791962 0.0038072749    61.739657    61.390604    61.336464    31320.784 
13505000   -204858.93    1.6378132 -0.0036187898    61.564318    61.513962    61.456921    31339.858 
13510000   -204577.61    1.5994047 0.0014097115    61.572767     61.41381    61.544526    31358.906 
13515000   -204906.45    1.5724011 0.0036478473    61.419498    61.501125    61.389234    31377.891 
13520000   -204910.64    1.6394729  0.001291957    61.702687    61.309295    61.472531     31396.88 
13525000   -204852.38    1.6567315 -0.0016780409     61.44146    61.577341    61.511957    31415.864 
13530000    -204758.3    1.5753006 0.0011596355    61.697142    61.593877    61.503144    31434.865 
13535000   -204589.99    1.6299165 -0.00068268879    61.859206    61.613509    61.473776    31453.908 
13540000   -204612.43    1.6186233 -0.0040924886    61.619531    61.715297      61.6203    31472.938 
13545000   -204648.37    1.5554211 0.0010310633    61.556497    61.539442    61.528909    31491.929 
13550000   -204600.24     1.623229 -0.0019158305    61.664139    61.432178    61.642914    31510.923 
13555000   -204725.37    1.5608351 -0.0058601716     61.58538    61.472493    61.727683    31529.952 
13560000   -204737.65    1.6137194 0.0036547498    61.354439    61.420723    61.740155    31548.958 
13565000   -204724.21    1.6070684 0.0009281076    61.681277    61.432617    61.494857    31568.021 
13570000   -204683.32    1.6163992 -0.00098016484    61.755139     61.55309    61.382378    31586.992 
13575000   -204811.14     1.562354 -0.0044944224    61.261527     61.80383    61.721252    31605.978 
13580000   -204748.05    1.6534118 -0.0032125176    61.595937    61.697724    61.455303    31624.947 
13585000   -204762.54    1.6017857 0.0024117007    61.384543    61.750011    61.513454    31643.911 
13590000   -204553.16    1.5903029 0.0023581518    61.627387     61.50286    61.591592     31662.93 
13595000   -204615.89     1.592698 0.00083049989    61.606594    61.719871     61.41608        31682 
13600000   -204686.92    1.6343692 -0.0036581021    61.776546    61.584464    61.656933    31701.095 
13605000   -204849.14    1.5633355 0.0054498334    61.460653    61.515831    61.395563    31720.119 
13610000   -204683.78    1.5940714 -0.0046703741    61.722123    61.513294    61.563456     31739.13 
13615000      -204579    1.6499324 -0.001950064    61.697116    61.397866    61.593654    31758.202 
13620000    -204669.4    1.5980732 0.00071217235    61.583355    61.553854    61.415006    31777.229 
13625000   -204544.54    1.6246937 0.0046847902    61.610405    61.669024    61.375911     31796.29 
13630000   -204548.44    1.6114571 0.0010811655    61.768783    61.749592    61.493432    31815.298 
13635000   -204493.02    1.5976428 -0.0038805755     61.76085    61.644083    61.709886    31834.306 
13640000   -204553.16    1.5789106 0.0033518414    61.623227    61.752871    61.467145    31853.303 
13645000   -204500.07    1.5939037 -0.0032163603     61.60853    61.672936    61.711218    31872.302 
13650000   -204625.02    1.6378404 0.0028643151    61.528226    61.749719    61.532216    31891.402 
13655000    -204486.3    1.6293229 -0.00026883613    61.796128    61.605967    61.655226    31910.434 
13660000   -204623.65    1.6092804  0.004124707    61.687515    61.539323    61.428252    31929.555 
13665000   -204515.86    1.6257493 -0.0034071093    61.807491    61.640042    61.786662    31948.537 
13670000   -204422.72    1.6659627 0.0047192155     61.67487     61.48007     61.90692    31967.491 
13675000   -204796.67    1.6326322 0.0023812367    61.613398     61.55753    61.587926    31986.476 
13680000   -204557.39    1.5785294 -0.0041257686    61.732819    62.169887    61.345254    32005.503 
13685000   -204528.59    1.5999568 -0.00026553733    61.889293      61.5769    61.518146    32024.502 
13690000   -204419.78    1.6528283 0.0028040838    61.557808    61.702038    61.710578    32043.507 
13695000    -204263.1    1.6122299 -0.00042107288     61.68611    61.768321    61.734929    32062.498 
13700000   -204505.54    1.6159361 0.0041872147    61.713726    61.617621    61.435312    32081.492 
13705000   -204597.33    1.5694835 -0.0031902293    61.661569    61.837373    61.531892     32100.52 
13710000   -204462.86    1.5855965 0.0014044154     61.54364    61.789167    61.613641    32119.554 
13715000   -204354.49    1.6223851 -0.0056206929    61.827777    61.751828    61.806431    32138.499 
13720000   -204277.56    1.5774406 -0.004664578    61.690169     61.98944    61.690844    32157.564 
13725000    -204452.9    1.6343311 -0.0005129659    61.810278     61.45874    61.752815    32176.512 
13730000   -204572.61    1.6047426 0.0025159835     61.63397    61.690707    61.551905    32195.487 
13735000   -204529.23    1.6130455 0.0018112184    61.629653    61.868958    61.418892    32214.495 
13740000    -204499.7    1.5536974 0.0031145846    61.892427    61.542122    61.530469    32233.537 
13745000   -204504.35    1.6019286 -0.0020480516    61.838763    61.727031    61.590195    32252.505 
13750000   -204195.89    1.5565561 -0.0038047054    61.846697    61.646708    61.869491    32271.483 
13755000    -204377.8    1.5857385 0.0042446712    62.016282    61.419014    61.588759    32290.474 
13760000   -204629.55    1.5959582 -0.00033604556     61.75699    61.958752    61.437624    32309.477 
13765000   -204544.36    1.5894996 0.0085869714    61.811895    61.603426    61.460748    32328.493 
13770000    -204399.8    1.6081986 -0.0090811529    61.687486    62.057091    61.769997    32347.511 
13775000   -204489.95    1.5808262 0.00018779869    61.761167    61.924028    61.484937    32366.502 
13780000   -204478.01    1.5778787 -0.0014767102    61.655595    61.760172    61.658147    32385.516 
13785000   -204517.52    1.5509192 0.0043946379    61.662559    61.601396    61.479245     32404.52 
13790000   -204516.31    1.5916474 -0.0043904856    61.738519    61.684532    61.777982    32423.541 
13795000   -204668.75    1.5858409 0.0030632723    61.787413    61.354477    61.527127    32442.584 
13800000   -204549.12    1.5915822 -0.00043607003    61.703747     61.47312     61.68876    32461.605 
13805000   -204532.39    1.5644732 -0.0048193104    61.679474     61.51492    61.730739    32480.698 
13810000   -204561.36    1.6192679 -0.0021507312    61.796806    61.568973    61.585548    32499.704 
13815000   -204422.38    1.5864079 -0.00017437651    62.089284    61.661634    61.290776    32518.697 
13820000   -204588.31    1.6329519 0.0019476734    61.875252    61.365285    61.474942    32537.645 
13825000   -204330.54    1.5941265 -0.0086194768     62.02867    61.668789    61.688404    32556.627 
13830000   -204443.61    1.5766881 0.0020544677    61.836977    61.638855    61.662846    32575.588 
13835000   -204324.96    1.5982587 -0.0027185577    61.701498    61.702781    61.876276    32594.597 
13840000   -204467.82    1.6196583 0.0038977105    61.597415    61.663704    61.653579    32613.578 
13845000    -204267.2    1.6001689 -0.0035010653    61.709512    61.846241    61.678971    32632.622 
13850000   -204362.28    1.6099137 0.0052516645    61.575447    61.733205    61.572337    32651.668 
13855000   -204300.73    1.5952118 -8.0757862e-05    61.758386    61.646042    61.782098    32670.769 
13860000    -204329.4    1.5992653 -0.0065398091    61.836937    61.606405    61.931327    32689.812 
13865000   -204417.94    1.6051036 0.00099082776    61.807704    61.573824    61.758831    32708.782 
13870000   -204386.03    1.5874743 -0.0014319652    62.002579    61.555934    61.665249    32727.758 
13875000   -204262.27    1.5568669 -0.0011438886    61.689951    61.773562    61.858373     32746.73 
13880000   -204328.64    1.6182143 0.0048744477    61.746241    61.752962    61.553683    32765.728 
13885000    -204234.1    1.6738789 -0.0049881434    61.905061    61.809374    61.761641    32784.703 
13890000    -204373.7    1.5819475 -0.0021689233    61.732327    61.879866    61.592204    32803.715 
13895000   -204319.51    1.5623488 8.2276591e-05    61.726409    61.800573    61.663223     32822.77 
13900000   -204196.98    1.6123533 0.00079242466     61.69957    61.567726    62.042938    32841.791 
13905000   -204357.31    1.5700226 0.0019056878    61.688907    61.661996    61.666809     32860.77 
13910000   -204256.11    1.5949143 -0.0079209433    61.776905    61.772987    62.044249    32879.757 
13915000   -204311.35    1.6345131 0.0072613747    61.716416    61.549379    61.652527    32898.768 
13920000   -204460.51    1.6329987 0.0075493259    61.681219    61.553767    61.641172    32917.826 
13925000   -204424.95    1.5813981 -0.0045380501    61.624063    61.934398    61.628233    32936.857 
13930000   -204441.43    1.5937958 -0.005728641    61.632357    61.967674    61.777873    32955.867 
13935000   -204552.42    1.6143415 0.0017694162    61.736381    61.834939    61.374268    32974.897 
13940000   -204625.78    1.6187654 0.0065770727     61.72511     61.71098    61.235736    32993.971 
13945000   -204643.62    1.5934433 -0.0042924576    61.887569    61.562946    61.500154    33012.972 
13950000   -204641.68    1.6159227 -0.0027648657    61.758926    61.529524    61.629856     33031.94 
13955000   -204670.92    1.6127158 -0.0014109146    61.472551    61.673021     61.68461    33050.911 
13960000   -204865.01    1.5988189 -0.0058937397    61.592678      61.7515    61.471537    33069.932 
13965000   -204608.78    1.5749366 0.0071654313    61.508968    61.254296    61.783507    33088.929 
13970000   -204548.76    1.5974391 -0.0072220012    61.713466    61.518378    61.779319    33107.958 
13975000   -204506.45    1.6508557 0.0070302658    61.519103    61.507085    61.647009    33127.072 
13980000   -204422.75    1.6495083 -0.0037417208    61.488361    61.781888    61.777699    33146.119 
13985000   -204312.47    1.5869344 0.0047556287    61.460062    61.613994    61.889833    33165.129 
13990000   -204403.51    1.6244787 -0.0059423357    61.791821    61.822851    61.560773    33184.108 
13995000   -204478.69     1.623567 0.00094229219    61.824287    61.483939    61.652238    33203.131 
14000000   -204643.43    1.5733571 0.0089629446    61.705967    61.269975    61.656056    33222.156 
14005000   -204681.42    1.5951201 0.0023084634    61.870963    61.227289     61.69391    33241.226 
14010000   -204562.29    1.5834464 -0.00076052027    61.703743    61.587625    61.524244     33260.31 
14015000    -204691.2    1.6051498 0.00088344358    61.978212    61.623374    61.194375    33279.348 
14020000   -204530.71    1.5996313 0.0048945065    61.671084    61.626462    61.472268    33298.365 
14025000   -204495.22    1.6019969 -0.00053219887    61.686489     61.50421    61.654931      33317.4 
14030000   -204609.38    1.6240372 -0.0015445673    61.565954    61.295536    61.938044    33336.433 
14035000   -204443.78    1.6125056 -0.0047210704    61.717531    61.556326    61.891863    33355.434 
14040000   -204398.93     1.633559 0.0032757733    62.004975    61.247345    61.496216    33374.403 
14045000   -204308.81    1.5849604 -0.00039808002     61.67643    61.687651      61.7467    33393.432 
14050000   -204508.14    1.6211545 0.0053093352    61.697594    61.631154    61.452421    33412.376 
14055000   -204521.73    1.6558504 -0.0018649362    61.604436    61.870479    61.543045    33431.392 
14060000   -204490.21    1.6098869 -0.0026975974    61.649159     61.89509     61.54999    33450.447 
14065000   -204678.09    1.5701639 0.0013505316    61.545589     61.74402     61.42859    33469.506 
14070000   -204444.03    1.6220454 0.0011581228     61.49606    61.713566    61.670477    33488.526 
14075000    -204563.7    1.6226806 0.00029619724    61.447348    61.798718    61.432564    33507.553 
14080000   -204565.47    1.5740251 -0.0041603592    61.543467    61.709465    61.593929    33526.618 
14085000   -204463.74    1.6123186 -0.0023224515    61.415685    61.743659    61.767234    33545.615 
14090000   -204543.01    1.6349817 -0.0019012941     61.69034    61.626872    61.614794    33564.716 
14095000   -204667.39    1.6056909 -0.00016487031    61.546883     61.49422    61.753694    33583.805 
14100000   -204347.06      1.60667 0.0023687401    61.499972     61.94344    61.574069     33602.88 
14105000   -204405.29    1.6037443 -0.0021244619    61.561088    61.982984    61.501321    33621.901 
14110000   -204358.62    1.5786711  0.001409023    61.672646    61.671666    61.769451    33640.973 
14115000   -204472.43    1.6085932 -0.001586885     61.76941    61.573216    61.778178    33659.964 
14120000   -204541.33    1.5806271 0.00013961552    61.801149    61.818343    61.468738        33679 
14125000   -204529.85    1.6109294  0.005092823    61.674984    61.375107    61.744797    33698.032 
14130000   -204487.22    1.5791089 -0.0029344295    61.681136    61.738142    61.671181    33717.069 
14135000   -204347.79    1.5929486 0.0058991021    61.625524    61.771938    61.651503    33736.095 
14140000   -204417.45     1.546382 -0.00035537688    61.588091    61.819906    61.675814    33755.085 
14145000   -204559.18    1.5899445 0.00014301759    61.749341    61.687136    61.528561    33774.065 
14150000   -204351.77    1.5660028 0.0017907915    61.639141    61.652562    61.736209    33793.131 
14155000   -204276.63    1.6257397 -0.0004991314    61.804703    61.534934    61.734827    33812.144 
14160000    -204251.5    1.6413698 0.00049509963    62.052488    61.414241    61.664811    33831.074 
14165000   -204341.87    1.5712825 0.0061398012    61.504499    61.598543    61.939289    33850.058 
14170000   -204340.95    1.6035855 -0.0020134891     61.87038    61.684202     61.74632    33869.074 
14175000   -204283.71    1.6649491 0.0012688531    61.734114    61.624042    61.901361    33888.102 
14180000   -204337.66    1.5712408 0.00069635149    61.738705    61.774822    61.735741    33907.087 
14185000   -204271.49    1.6538128 0.0024960528    61.655906    61.701847    61.862437    33926.091 
14190000   -204333.88    1.5870563 0.0020051229    61.479938    61.692934    61.783036    33945.153 
14195000    -204489.7    1.5874685 -0.00037291892    61.695493    61.418587    61.878279    33964.198 
14200000   -204407.45    1.6131731 0.00073432115    61.697769    61.485695    61.835336    33983.219 
14205000   -204380.24    1.5784406 0.00017386827    61.903946    61.671623     61.60766    34002.279 
14210000   -204515.35    1.5986494 0.0010844722    61.524092    61.827649    61.514578    34021.284 
14215000   -204428.37    1.5732233 -0.00056672438    61.738482    61.765678    61.506414     34040.31 
14220000   -204605.88    1.5994304 -0.0048434715    61.615754    61.478091    61.858746    34059.372 
14225000   -204511.28    1.5627524 -0.0045265675    61.734916    61.465149    61.796085    34078.461 
14230000   -204369.93    1.6644947 -0.00052106938    61.714627    61.794271    61.530844    34097.509 
14235000   -204338.48    1.5891889 0.0047728386    61.758283    61.620213    61.441477    34116.519 
14240000   -204484.95    1.5910445 0.00079733583    61.648647    61.635065    61.666603    34135.596 
14245000   -204384.45    1.5591807 -0.004506045    61.859702    61.684016    61.609606    34154.579 
14250000   -204413.57    1.6054564 6.5340203e-05    61.687817    61.587765    61.768286    34173.549 
14255000   -204287.26     1.594251 -0.0033980101    61.828011    61.773041    61.706919    34192.576 
14260000   -204478.85     1.591164 0.0013022978    61.638576    61.679575    61.607551    34211.543 
14265000   -204307.43      1.59455 -0.00031256834    61.674931    61.608529    61.843746    34230.525 
14270000      -204387    1.5922769 -0.0049110607    61.694122    61.816035    61.801427    34249.504 
14275000   -204471.08    1.6301296 -0.0030776162    61.768757    61.730778    61.634923    34268.501 
14280000   -204414.39    1.6452235 0.0073506366    61.680843    61.385462    61.651289    34287.505 
14285000   -204471.19    1.5492564 0.0056790265    61.621206    61.647619    61.539382    34306.512 
14290000      -204493    1.5967201 -0.0048332296    62.013665    61.664601    61.569474    34325.528 
14295000   -204451.26    1.6323495 0.0035599198    61.751178    61.629567    61.531506    34344.566 
14300000    -204362.8    1.5980182 7.2123651e-05    61.794022    61.605723    61.747206    34363.533 
14305000   -204332.44     1.614933 -0.0054178365    61.544053    61.813092    61.826036    34382.519 
14310000   -204468.11    1.6058096 -0.0022004435    61.501701    61.680853    61.855839    34401.505 
14315000   -204496.46    1.5785206 0.0039146655    61.525634    61.532458    61.605105    34420.503 
14320000   -204277.13    1.6111046 -0.0053447739    61.851857    61.621838     61.70177    34439.483 
14325000   -204744.54    1.6022086 -0.0017820646    61.646425    61.642493    61.491963    34458.532 
14330000   -204450.52    1.6171201 -0.0003228052    61.663431    61.733939    61.560617    34477.609 
14335000    -204649.7    1.6742524 0.0018122382    61.608692    61.793179    61.435316     34496.58 
14340000   -204632.42    1.6112802 -0.0037577511    61.715023    61.575558    61.784294     34515.51 
14345000   -204645.33    1.6453912 0.0025930691    61.485323    61.747867    61.462831    34534.518 
14350000   -204705.91    1.6371632 -0.0026037589    61.687259    61.651965    61.418891     34553.56 
14355000   -204721.35    1.6285982 0.0062281824    61.394038     61.52192     61.53613    34572.564 
14360000   -204673.22    1.6550342 0.00010904624    61.668453    61.387236     61.67838    34591.564 
14365000   -204825.96    1.6327095 -0.0005167772    61.458374    61.409099    61.785056    34610.596 
14370000    -204761.2    1.5800963 0.0020497182    61.594125    61.283695    61.599549    34629.659 
14375000   -204766.92    1.5904631 -0.0069999619      61.6053    61.524913     61.63239    34648.775 
14380000   -204665.46    1.6108278 -0.001166431     61.55101    61.642262    61.529724    34667.839 
14385000   -204465.78    1.5987668 -9.6044995e-05    61.614003    61.599588    61.740751    34686.933 
14390000   -204674.25     1.612699 0.0044049882    61.240308    61.610806    61.628368    34706.052 
14395000   -204801.92    1.5983202 -0.00089166745    61.408483    61.703956    61.469148    34725.172 
14400000   -204672.29     1.597651 0.0014927987     61.65175    61.366754    61.588907    34744.239 
14405000   -204615.36    1.6031804 -0.001681654    61.535108    61.669651    61.724579    34763.275 
14410000   -204534.23    1.6200763 -0.0051263676    61.748121    61.591724    61.724084    34782.261 
14415000   -204682.22    1.6141004 0.00041445446     61.58314    61.509682    61.585634    34801.312 
14420000   -204627.37    1.6138133 -0.002570764    61.844892    61.635909    61.427467    34820.374 
14425000   -204786.37    1.6106875   0.01004747    61.774225    61.327295    61.279403    34839.369 
14430000   -204733.71     1.645703 0.0015321317    61.821947    61.356648     61.45571    34858.316 
14435000   -204773.48    1.6032794 -7.8476756e-05      61.7058    61.442552    61.422774    34877.361 
14440000    -204752.8    1.6087464 -0.0018308401    61.719994    61.517205    61.442853    34896.427 
14445000   -204808.88    1.5723568 0.00051620911    61.639431    61.548271    61.383309    34915.482 
14450000   -204789.15    1.6240743  0.001578532    61.505735    61.805609    61.318658    34934.554 
14455000   -204805.56    1.6336562 0.0053324809    61.565858    61.553175    61.303832    34953.576 
14460000   -204695.43    1.5997647 -0.0057978976    61.701554    61.502381    61.675872    34972.654 
14465000   -204690.58    1.6376812 0.0018742993    61.547332    61.446137    61.731712    34991.696 
14470000   -204795.62    1.5603194 0.0034135346    61.435373    61.657631    61.420366    35010.764 
14475000   -204880.22    1.6149961 -0.003250931    61.454942    61.875776    61.322848    35029.767 
14480000    -204835.3    1.6201711 -0.0019578023    61.391716    61.566064    61.588266    35048.841 
14485000    -204780.9    1.5541578 0.0043029137    61.471316    61.415981    61.624587    35067.919 
14490000   -204804.04    1.5940424 -0.0021527405    61.492598    61.635627    61.543708    35086.907 
14495000    -204702.9     1.597698 0.0038430192    61.560952    61.636653    61.449425    35105.976 
14500000    -204622.9    1.5399578 0.0043551143    61.469203    61.452687    61.593977    35125.001 
14505000   -204753.21    1.6140158 -0.0060630485    61.564985    61.670719     61.56447    35143.973 
14510000   -204725.96    1.6192464 0.0065415607      61.6846    61.642976    61.277298    35162.955 
14515000   -204557.28    1.6451324 0.00024562173    61.765164    61.659014    61.572242    35181.917 
14520000   -204603.45    1.6207856 -0.0049280389    61.740344    61.574614    61.596833    35200.902 
14525000   -204873.24    1.6217346  0.001759346    61.619754    61.427759    61.548164    35219.841 
14530000   -204794.34    1.6141581 0.0040467377      61.5633    61.438853    61.537147    35238.899 
14535000    -204834.1     1.592967 0.0057934042    61.727311     61.37855    61.430112    35257.889 
14540000   -204846.56    1.5874817 -0.0024787922    61.543274    61.617825    61.547233    35276.931 
14545000   -204556.16    1.5737954 -0.0025457586    61.635447    61.594125     61.67018    35295.997 
14550000   -204607.86    1.6245597 -0.0046274306    61.349885    62.112495    61.601933    35314.976 
14555000   -204672.62    1.5668954 0.0061019551     61.42962     61.60973    61.558699    35333.989 
14560000   -204637.01    1.5840308 -0.0032489591    61.463444    61.768684     61.70213    35352.983 
14565000   -204481.58    1.6228181 -0.0047508408    61.621171    61.506762    61.781913    35371.971 
14570000   -204619.81    1.5972043 0.0026279077    61.700021    61.528736    61.372873    35390.966 
14575000   -204607.79    1.6103447 -0.0038788102    61.804116    61.533727    61.519674    35409.998 
14580000   -204670.56    1.5907008 -0.00025793321    61.856349    61.599466     61.29881    35428.953 
14585000   -204557.51    1.5821714 0.0028058136    61.619506    61.609739    61.591252    35447.959 
14590000   -204710.03     1.616664 6.2810859e-05    61.365988    61.686972    61.597443    35467.054 
14595000   -204609.97    1.5631535 0.0035107375    61.431633     61.50789    61.683341    35486.046 
14600000   -204503.52    1.5899634   0.00151354    61.507367    61.681624    61.586195    35505.094 
14605000   -204565.49    1.5492827 -0.0014235715    61.523577    61.664017    61.706006    35524.112 
14610000    -204646.2     1.570686 0.0032502162    61.545315    61.581631    61.559994    35543.109 
14615000   -204459.47    1.6196748 0.0032807374    61.600889    61.575939    61.564045    35562.124 
14620000   -204583.46    1.6039809 -0.0016973151    61.370227    61.642924    61.748464    35581.129 
14625000   -204734.52    1.6011879 -0.0069926163    61.547665     61.52432    61.670079    35600.136 
14630000   -204756.49     1.611868   0.00351628    61.439792    61.641684    61.425275    35619.079 
14635000   -204544.69    1.6006737 -0.0056419841    61.727252    61.766035    61.606314    35638.055 
14640000    -204559.5    1.5689471 -0.0020590804      61.4848    61.747831    61.591865    35657.041 
14645000   -204733.21    1.6551108 -0.00060892472    61.498309    61.713743    61.425727    35676.056 
14650000   -204721.32    1.5730388 -0.0038402173    61.749552    61.393393     61.59995    35695.082 
14655000   -204622.05    1.6262232 0.0039862756    61.842124    61.523009    61.315414     35714.08 
14660000   -204492.87     1.575899 -0.00064599308    61.798809    61.497538    61.529882    35733.008 
14665000   -204440.19    1.6046438 -0.0014567501    61.648286    61.606351    61.593876    35752.029 
14670000   -204450.33    1.5858672 0.00025674477    61.626641    61.512671    61.721461    35770.983 
14675000   -204595.14    1.6080513 0.0017215539    61.638633    61.372516    61.615934    35789.988 
14680000    -204373.6    1.6170035  0.001207718     61.54949     61.66166     61.74851     35809.04 
14685000   -204442.19    1.6007855 -6.6045157e-05    61.592053    61.795305    61.605349    35828.043 
14690000    -204479.3    1.6075264 -0.0011941892    61.552543      61.7489    61.634796    35847.028 
14695000   -204588.11    1.6217457 0.00077920395    61.646734    61.629381    61.599405    35866.038 
14700000   -204557.88    1.6025247 0.0049622482    61.706083    61.579984    61.482007    35885.078 
14705000   -204434.78    1.6238528 -0.0017726472    61.783445    61.571081    61.708319    35904.132 
14710000   -204480.32    1.6213815 0.00048685479    61.652326    61.573002    61.830992    35923.239 
14715000   -204527.52    1.5978843 0.0027469544    61.505839    61.615027    61.810011    35942.278 
14720000   -204473.27    1.5802669 -0.00051006706    61.896709    61.498219     61.69396    35961.334 
14725000   -204383.47    1.6125865 0.0033561131     61.82034    61.769617     61.34951    35980.297 
14730000   -204545.89    1.5533883 0.00029393059     61.52233    61.589078     61.69006    35999.261 
14735000   -204659.49    1.5834571 -0.0039097646    61.680772    61.440816    61.657098    36018.242 
14740000   -204407.03     1.591979 0.0021336967    61.635163    61.632088    61.668111    36037.236 
14745000   -204412.86    1.6156303 -0.0027637346    61.509165    61.754616    61.747161    36056.229 
14750000   -204639.29    1.6393014 0.0032843894    61.234557    61.614436    61.675901    36075.201 
14755000   -204689.66    1.5674795 -0.0020830087    61.546135    61.366814    61.704326    36094.285 
14760000   -204609.68    1.6332466 0.0011805504    61.496115    61.491025    61.823985    36113.372 
14765000   -204407.99    1.6276259 0.0064378216    61.857159      61.5114    61.545429    36132.402 
14770000   -204704.27    1.5691668 0.0026991558    61.444107    61.483932    61.839386    36151.394 
14775000   -204649.63    1.6502776 0.0023631422    61.426943    61.487992     61.71551    36170.488 
14780000   -204590.49     1.541936 0.0014703451    61.647226    61.383988    61.669578    36189.573 
14785000    -204706.5    1.5915727 -0.00055162071    61.551646    61.489717    61.699082    36208.614 
14790000   -204819.45    1.6072691 0.0014990836    61.441263    61.499485     61.69704    36227.614 
14795000   -204468.09    1.5767759 -0.0012312915    61.787774    61.354705    61.760448    36246.642 
14800000   -204691.96    1.6045474 -0.0025342883    61.789834    61.506375    61.499969    36265.689 
14805000   -204769.98    1.5840162 0.0015083959     61.63034    61.423067    61.539728    36284.718 
14810000   -204760.33    1.5809222 -0.0037733908    61.754014    61.561521    61.523962    36303.748 
14815000   -204839.99    1.6071612 0.0015255496    61.381864    61.652171    61.502582    36322.768 
14820000      -204627    1.5983636 0.0039149095    61.512999    61.595872    61.619216    36341.799 
14825000   -204596.96      1.61104 -0.00067842206    61.490898     61.76952    61.545141    36360.797 
14830000   -204625.99    1.5951227 -5.7911799e-05      61.6792    61.757076    61.348029    36379.896 
14835000   -204488.85    1.6164828 0.0072156125    61.808236    61.514344    61.379442    36398.868 
14840000   -204608.33    1.6135073 -0.0020415516    61.590609    61.870345    61.415315    36417.892 
14845000   -204440.99     1.605628 -0.0015780506    61.505509    61.847092    61.742996    36436.907 
14850000   -204460.83    1.6996667 0.0043597507    61.845372    61.634759    61.548344    36455.987 
14855000   -204634.61    1.6203526  0.008396281    62.021461    61.236759    61.396046     36475.05 
14860000   -204437.79    1.6021774 -0.0032552539    61.980807    61.764793     61.18181    36494.049 
14865000   -204436.73    1.6123861 -0.0038734593    62.122017     61.47098    61.516462    36513.091 
14870000   -204442.14    1.6525284 0.0033837139    61.756034    61.507707    61.574227    36532.184 
14875000   -204562.16    1.6126628 0.0055214057    61.780748     61.47788    61.450001    36551.224 
14880000   -204174.28    1.5719383 -0.00032060855     61.68785    61.706307    61.759532    36570.271 
14885000   -204524.07    1.5864604 0.0016840726    61.502536    61.659542    61.761649    36589.255 
14890000   -204503.71    1.6416611 0.0052653672    61.378401    61.640581    61.589609    36608.269 
14895000   -204442.53    1.6435181 0.0010363621    61.812264    61.573685    61.455989    36627.281 
14900000   -204562.55    1.5839398 -0.0065189536    61.797991    61.574607    61.562075    36646.305 
14905000   -204316.35    1.6075577 -0.0014058693    61.680609    61.794639    61.503101    36665.351 
14910000   -204525.94    1.5856632 0.0017206826    61.935882    61.562238    61.355915    36684.349 
14915000   -204557.27    1.5964777 -0.0040862397    61.808317    61.693899    61.574713    36703.346 
14920000    -204456.2    1.5877235 -8.2241112e-05    61.613935    61.583367     61.79137    36722.428 
14925000   -204564.69    1.6504463 -0.00045255637    61.414519    61.474427    61.889087     36741.51 
14930000   -204485.23    1.6178797 -0.0017942577       61.596    61.706984    61.571327    36760.568 
14935000   -204525.48    1.5905476 0.00089350905    61.795442    61.691166    61.207481    36779.572 
14940000   -204560.95    1.5542183 -0.00061998304    61.598731    61.632351    61.477567    36798.674 
14945000   -204774.73     1.563247 0.0027725677    61.442436    61.440536    61.745115     36817.72 
14950000   -204629.75    1.5834939 0.00028686959    61.535393    61.484815    61.857591     36836.75 
14955000   -204268.88    1.6305282 -0.0029512307    61.770549    61.737963    61.744536    36855.761 
14960000   -204523.37    1.6196343 0.0023449497    61.641788    61.528103     61.65826    36874.829 
14965000   -204810.69    1.5466246 0.0045006883    61.794692     61.46441    61.293351    36893.861 
14970000   -204622.58    1.6104342 -0.001789711    61.678455    61.611636    61.620323     36912.93 
14975000   -204644.86    1.6283249 0.0029715373    61.732748    61.351075    61.547768    36931.959 
14980000   -204626.94    1.6183895 0.00075650611    61.998911    61.657622    61.082042    36950.989 
14985000   -204715.46    1.5554051 -0.0091993188    61.575872    61.662836    61.728445    36969.949 
14990000   -204565.68    1.6321163 -0.00042839199    61.568927    61.630846    61.743663    36988.941 
14995000   -204699.96    1.5874497 9.4114829e-05    61.561423    61.708239    61.623568    37008.013 
15000000   -204706.22    1.5981594 0.00046859026    61.546033    61.824095    61.530298    37027.059 
15005000   -204687.78     1.615236 0.00085668172    61.615954    61.648891    61.573277     37046.17 
15010000   -204647.58    1.6070725 -0.0014031614    61.788324    61.490481    61.547902    37065.229 
15015000   -204808.78    1.5956558 -0.0012785467    61.706702    61.574853    61.350637     37084.33 
15020000   -204809.11     1.597927 0.0057043414    61.503242    61.661394    61.312935    37103.333 
15025000   -204800.77    1.5502456 0.0082095244    61.428853     61.49614    61.519102    37122.363 
15030000   -204933.93    1.6194799 -0.0044499342    61.707862    61.407262    61.651975    37141.306 
15035000    -204858.2    1.5505289 0.00061757211    61.368917    61.544959    61.602125    37160.337 
15040000   -204714.41    1.6126674 -6.6676738e-05    61.670293    61.338934     61.56859    37179.433 
15045000   -204772.12    1.6226378 0.0016947308    61.394277    61.565792    61.602096    37198.503 
15050000   -204553.04     1.606147 -0.0029163771    61.704025     61.51187    61.845783    37217.465 
15055000   -204378.82    1.6193888 -0.0040438289    61.659726    61.611806    61.966381     37236.53 
15060000   -204586.58    1.6032164 0.0077156345    61.653091     61.46988    61.558417    37255.478 
15065000   -204665.07    1.6284703 -0.0012836516    61.673886    61.507517    61.750392    37274.491 
15070000   -204508.93    1.6191381 -0.001916893    61.603119    61.699738    61.576283     37293.49 
15075000   -204773.92    1.5843341 3.0712206e-05    61.731116    61.314083    61.490396    37312.538 
15080000   -204802.38    1.6933337  0.004519999    61.434038    61.470096    61.521647    37331.541 
15085000   -204510.51    1.6568543 -0.0015896681    61.734582    61.415832    61.754957     37350.52 
15090000   -204599.36    1.5986979 -0.0037777685    61.753112    61.547909    61.485646     37369.61 
15095000   -204665.82    1.6115912 0.00072191092    61.643029    61.229421    61.853222    37388.671 
15100000    -204583.8    1.6407065 0.00053824749    61.592905    61.425028    61.859849    37407.616 
15105000   -204516.73    1.5895411 0.0034051145    61.550306    61.630029    61.658756    37426.593 
15110000   -204533.89    1.5770352 -0.0021519035    61.536339    61.675707     61.79109    37445.586 
15115000   -204728.21     1.576695 0.0022616336    61.411574    61.628569    61.727672    37464.565 
15120000   -204501.02    1.5886582 0.00053202149    61.724991    61.975002    61.354409    37483.538 
15125000   -204562.02     1.586041 -0.0034655224    61.672504    61.862149    61.381846    37502.543 
15130000   -204406.16    1.6088686 -0.00017925277    61.430734    61.690569    61.753049     37521.58 
15135000   -204720.24    1.6076198 -0.005600675    61.630517    61.687791    61.727304    37540.569 
15140000   -204706.73    1.6228286 0.0041487159    61.768715    61.492412    61.492448    37559.561 
15145000   -204616.09     1.600062 -0.0010664703    61.597149    61.637643    61.522544    37578.608 
15150000   -204489.29    1.5760604 0.0018907349    61.946557     61.58234    61.383371    37597.591 
15155000   -204686.62    1.5773666 0.0014798607     61.65308    61.684184    61.561648    37616.531 
15160000   -204488.51     1.594127 -0.0016222439    61.473462    61.658237    61.800903    37635.504 
15165000   -204667.24    1.5844365 0.0024285916    61.606074    61.626744    61.578368    37654.457 
15170000   -204520.38    1.5746392 -0.0013115585     61.77925    61.604036    61.610832     37673.42 
15175000   -204670.71    1.6086449 0.0017588925    61.610242    61.583805    61.755775    37692.426 
15180000   -204536.63    1.5844633 0.00061546909    61.593582    61.693296     61.70021    37711.399 
15185000   -204539.84     1.616214 -0.0031098791    61.553459    61.885477    61.643851    37730.377 
15190000    -204663.5    1.6136455 0.0033694807    61.595785    61.510224    61.662853    37749.364 
15195000    -204728.9    1.6287507 0.0012424213    61.340048    61.695516     61.78659    37768.372 
15200000   -204703.11    1.6397241 -0.002553841    61.611804    61.509065    61.662477    37787.362 
15205000   -204844.16    1.5756577 0.00012626303    61.577542    61.443613     61.57772    37806.382 
15210000   -204978.92    1.5984913 0.0016049691    61.803929    61.337982    61.573755     37825.36 
15215000   -204736.73    1.6475632 -0.0018830102    61.640328    61.737346    61.553538    37844.298 
15220000   -204820.17    1.5790721 -0.0014065102    61.431994     61.66671    61.478059    37863.319 
15225000   -204694.62    1.6143108 -0.004378068    61.701324     61.70068    61.540496     37882.33 
15230000   -204607.38    1.6170901 0.0011802621    61.731134     61.34968    61.728283    37901.351 
15235000   -204833.97    1.6082014 -0.00088129225    61.639275    61.467357    61.630548    37920.339 
15240000   -204927.22    1.5884918 -0.0061112911    61.598845    61.659718     61.54405    37939.377 
15245000   -204883.73    1.5851634 0.0022712325    61.502346    61.637917    61.551763    37958.395 
15250000   -204872.08    1.5166517 -0.0025889063    61.618451    61.645393    61.422097    37977.389 
15255000   -204885.88    1.6117493 -0.0080266143     61.65558    61.649172    61.508671    37996.353 
15260000   -204657.13    1.6356653 0.00037281283    61.583754    61.581624    61.569951    38015.388 
15265000   -204861.01    1.5768252 0.00084276144    61.391267    61.556331    61.773893    38034.375 
15270000   -204714.51    1.5460053 -0.0056020243    61.825868    61.562184    61.507918    38053.366 
15275000   -204775.34    1.6345033 0.0031721104    61.766491    61.521759    61.402874    38072.428 
15280000   -204604.19    1.6086861 0.00016275031    61.492957    61.766542    61.672382    38091.539 
15285000   -204532.06     1.583785 -0.012317572    61.556074    61.874074     61.94958    38110.574 
15290000   -204455.04    1.6204688 0.0010586058    61.603819    61.588806     61.68063    38129.587 
15295000   -204647.62    1.5868374 -0.0011735884     61.65045    61.536978    61.720518    38148.609 
15300000   -204403.88    1.5948882 -0.0036557527    61.836379    61.426708    61.844514    38167.614 
15305000   -204719.12    1.6028222 0.00045211173    61.479408    61.491473    61.844111    38186.569 
15310000    -204738.1    1.6073553 0.0040277987    61.347421    61.583989    61.725249    38205.537 
15315000   -204690.93    1.5486058 -0.00063610535    61.297606    61.821049    61.813742    38224.532 
15320000   -204620.97     1.560227 -0.0031200227    61.721577    61.439747    61.794832    38243.511 
15325000   -204584.28    1.6064264 0.00036958065    61.702999    61.579547    61.513579    38262.547 
15330000   -204524.66    1.5765239 0.0050081448    61.674606    61.375458    61.600934    38281.533 
15335000   -204542.28    1.6108966 0.0020598783    61.742389    61.519801    61.424994    38300.507 
15340000   -204609.74    1.5968993 9.2188273e-05    61.685661    61.603791    61.539057    38319.555 
15345000   -204697.79    1.5858025 -0.00019045296    61.792081     61.53766    61.463398    38338.567 
15350000   -204602.06    1.5905478 -0.0034922716    61.930106    61.512654    61.511245    38357.592 
15355000   -204758.15    1.5792501  0.001042638     61.76831    61.437778    61.424082    38376.562 
15360000   -204911.38    1.6070695 -0.00082544529    61.702098    61.597788    61.431062    38395.588 
15365000   -204779.68    1.5499123 2.0872228e-06    61.584345    61.637097    61.597938    38414.535 
15370000   -204897.18    1.6490774 0.0049647304    61.465255    61.427386    61.673745    38433.515 
15375000    -204841.5    1.6126877 -0.00034936396     61.48694    61.643273    61.490069    38452.518 
15380000   -204789.73    1.5990817 -0.0037473286    61.616979    61.531495    61.564353    38471.486 
15385000   -204719.77    1.6360915  0.002387752    61.578858    61.586498    61.461529    38490.468 
15390000   -204763.34     1.547186  0.003168232     61.68004    61.452711    61.396064    38509.521 
15395000   -204581.13    1.6060941 -0.00083475047    61.710237    61.434624    61.625373    38528.478 
15400000   -204523.96    1.6182646 -0.0044194056    61.745994    61.730725    61.548742    38547.491 
15405000   -204782.93    1.5898512 0.0021933739    61.403484    61.512551    61.604732    38566.522 
15410000   -204741.05    1.5887428 7.9205733e-05    61.524586    61.604357     61.62274    38585.611 
15415000   -204732.15    1.5892976 -0.00035308074    61.852868     61.49261    61.560674    38604.704 
15420000   -204584.45    1.6121094 0.0063762398    61.691922    61.534373    61.546309    38623.759 
15425000   -204587.58    1.5946494 -0.0014824934    61.753706    61.483096    61.675632    38642.737 
15430000    -204493.8    1.5812326 -0.0015902423     61.59228    61.597418    61.706848    38661.681 
15435000   -204517.58    1.6354401 0.0067624344    61.467175    61.460081    61.704199    38680.705 
15440000   -204492.52    1.6322343 -0.00050796546     61.87678    61.252618    61.780907    38699.694 
15445000    -204584.9    1.5766623   -0.0051689    61.776498    61.602126    61.705782     38718.79 
15450000   -204469.66    1.5978102 0.00079065165    61.735098    61.821149    61.534033     38737.77 
15455000   -204332.18    1.5333266 0.0037222916    61.537481    61.847706    61.532973    38756.783 
15460000   -204435.91    1.6095256 -0.0052797025    61.983239    61.793263    61.549184    38775.799 
15465000   -204439.13    1.5422872 -0.0069986682    62.155167    61.456198    61.813082    38794.736 
15470000   -204374.75    1.5979606 0.0043363676    61.870327    61.615427    61.541631    38813.732 
15475000    -204534.3    1.6046563 0.0012716872    61.701922    61.621132    61.600378     38832.73 
15480000   -204380.47    1.5746865 -0.00042531553    61.783947       61.742    61.643921    38851.813 
15485000   -204417.72    1.5733982 0.0064753887    61.733485    61.598416    61.494928     38870.85 
15490000   -204443.68    1.6089724 -0.0027854784    61.775955    61.761393    61.492404    38889.833 
15495000   -204708.23    1.5770849 -0.00099416879    61.686546    61.595045    61.655198    38908.884 
15500000   -204379.48    1.6315001 0.0047691729    61.536568    61.612791    61.745717    38927.893 
15505000   -204742.52    1.6407774 -0.0026389802     61.61124    61.916414    61.392091    38946.901 
15510000   -204674.32    1.6112787 -0.0064044907     61.73391    61.678277    61.673016    38965.931 
15515000   -204493.88    1.5713302 -0.0057469702    61.615457    61.734306    61.799811      38984.9 
15520000   -204630.49     1.650831 0.00086619567     61.61906    61.459581    61.648984    39003.879 
15525000   -204785.59    1.5785027 0.0056730081    61.518287    61.519453    61.453354    39022.867 
15530000   -204718.89    1.5945759 -0.0068801793    61.845497    61.583182    61.534608    39041.877 
15535000   -204605.15    1.6138717 -0.0015154937    61.873815    61.653195    61.446074    39060.952 
15540000   -204668.08    1.6301663 -0.00076679107     61.73498    61.478278    61.643424    39080.035 
15545000   -204745.64    1.6029551 0.0027206139      61.6151    61.743571    61.394673    39098.961 
15550000   -204698.46     1.652893 -0.00034484503    61.691318    61.534383    61.527042    39118.023 
15555000   -204719.59    1.5676835  0.004196061    61.693102    61.609557    61.306652    39137.081 
15560000   -204690.95      1.56481 -0.0024714643    61.538097    61.697707    61.609005    39156.116 
15565000   -204618.72    1.6250714 -0.00022343429     61.65393    61.719951    61.598917    39175.168 
15570000   -204892.02    1.6182097 0.0019773131    61.611805    61.468683    61.469144     39194.29 
15575000    -204772.8    1.6042954 0.0012862438    61.396518    61.579437    61.571737    39213.414 
15580000   -204570.92    1.6051455 0.0022089585    61.540448    61.681128    61.521749    39232.494 
15585000   -204482.37    1.5849983 -0.0026954216    61.756674    61.489738    61.825202    39251.644 
15590000    -204411.5    1.6261581 0.0040811965    61.667795    61.594991    61.634006    39270.705 
15595000   -204546.74    1.6060369 0.0017537235    61.471138    61.488146    61.762492    39289.706 
15600000   -204649.47    1.6034399 -0.0031410159    61.858701    61.307601    61.698193    39308.776 
15605000   -204603.98    1.6001325 -0.0044495789    61.501809    61.677715    61.718074    39327.834 
15610000   -204701.17    1.6003821 0.0044384192    61.527295    61.476827    61.410864    39346.911 
15615000   -204682.54    1.6024169 0.0056530817    61.644168    61.278901    61.591411     39365.89 
15620000   -204719.54    1.6435233 -0.0021508612    61.834848    61.491171    61.562311    39384.985 
15625000   -204909.35    1.5941233 -0.0018168926    61.684819     61.57668    61.435587    39404.085 
15630000   -204720.51    1.5858785   0.00398645    61.687614    61.466425    61.401495    39423.106 
15635000   -204849.67    1.6058163 0.0018885303    61.637315    61.557333    61.311817    39442.147 
15640000   -204829.39    1.6092142 -0.0053542416    61.627291    61.553003     61.62482    39461.208 
15645000   -204917.26    1.5894173 0.0008603048    61.382582    61.475399    61.559171    39480.327 
15650000   -204970.22    1.5869735 -0.0021984858    61.361145    61.444507    61.732726    39499.429 
15655000      -204560    1.6186423 0.0010700219    61.353612    61.650434    61.779887    39518.455 
15660000   -204680.54    1.6031994 -5.602127e-05    61.720366    61.567629    61.489715     39537.57 
15665000   -204774.25    1.5954055 -0.0019033926    61.828677    61.456485    61.492912    39556.558 
15670000   -204745.29     1.630618 0.0072976234    61.545453    61.324961    61.519536    39575.549 
15675000   -204776.28    1.5887181 -0.0018217794    61.645951    61.400615    61.685879    39594.539 
15680000   -204562.18    1.6087591 -0.0016718079    61.698643    61.286332    61.861776    39613.607 
15685000   -204656.19    1.6040737 0.0031625505    61.727985    61.294369    61.579039    39632.588 
15690000   -204556.71    1.6223764 0.0037014493    61.672338    61.451293    61.485698     39651.71 
15695000   -204684.52    1.5950835 -0.00051509664    61.498965    61.421169    61.652301    39670.765 
15700000   -204657.26     1.564558 -0.00075564252     61.58292    61.567855    61.439295    39689.761 
15705000    -204696.2    1.6109696 0.0066030116     61.46379    61.525974    61.507701    39708.805 
15710000   -204719.52    1.6746354 0.0012757684    61.673953    61.415909    61.502369     39727.79 
15715000    -204691.3    1.5841624 -0.0061506338    61.604995    61.594822    61.652999    39746.771 
15720000   -204701.77    1.6425569 0.00065702673    61.386851    61.618601    61.672675    39765.814 
15725000   -204587.02    1.6169597 0.0015619026    61.649952    61.497539    61.594762    39784.859 
15730000   -204594.05    1.5854754 -0.0070204427    61.714147    61.707294    61.478619    39803.853 
15735000   -204603.01    1.6349399 0.0015893684    61.564646    61.486108    61.627598    39822.902 
15740000   -204659.33    1.6430666 -0.00047872041    61.598969    61.642539    61.492324    39841.967 
15745000   -204677.36    1.6333178 -0.00032372908     61.66608    61.556513    61.474618    39860.988 
15750000   -204560.43    1.5703116 -0.0064172215    61.746268    61.854836    61.406573    39880.061 
15755000   -204720.89    1.5853958 -0.0014366505    61.390529    61.797823    61.582255    39899.129 
15760000   -204752.66    1.6113114 0.0028489273    61.269319     61.59132     61.50204    39918.141 
15765000   -204790.62    1.5825779 -0.008187298    61.696304    61.604392    61.480651    39937.125 
15770000   -204849.82    1.5593541 0.0023529597    61.489465    61.573089    61.369561    39956.179 
15775000   -204633.06    1.5724194 -0.00046750443    61.493754     61.63138    61.619692    39975.235 
15780000   -204723.45    1.5971982 -0.0062452851    61.553338    61.775922    61.753033    39994.209 
15785000   -204802.15    1.5956025 0.0046215781    61.453494     61.66829    61.496535    40013.218 
15790000   -204560.87     1.596912 0.0064026221    61.339196    61.676706    61.558093    40032.237 
15795000    -204693.6    1.6027694 0.0017085099     61.53503     61.72697    61.355231    40051.226 
15800000   -204502.07    1.5825942 -0.0026025854    61.554758    61.585374    61.838639    40070.307 
15805000   -204774.06    1.5755781 0.0016090179    61.565329    61.348395     61.72818    40089.369 
15810000   -204702.43    1.6202331 0.0042158396    61.318338    61.528456     61.67682    40108.412 
15815000   -204555.74    1.5551244 -0.0073483821     61.97992    61.726979     61.47818    40127.458 
15820000    -204731.9    1.6408753 -0.00018374341    61.499543    61.658336    61.557289    40146.457 
15825000   -204776.14    1.6719358 0.0087350678    61.455457    61.403587    61.474859    40165.474 
15830000   -204708.49    1.5864066 -0.0026932177    61.730921     61.46058    61.463128    40184.479 
15835000   -204619.65    1.5990873 -0.0037485493    61.613682    61.707077     61.57609    40203.532 
15840000    -204722.6    1.6091138 0.0040846889    61.660575    61.575945    61.360212    40222.569 
15845000   -204697.84    1.5562005 0.00060261957     61.56965    61.247413    61.792549     40241.55 
15850000   -204797.07    1.5996207 5.4673589e-05    61.634527    61.475695    61.471093      40260.6 
15855000   -204866.16    1.6105513 0.0021461361    61.483525    61.331282    61.625842    40279.714 
15860000   -204658.36    1.5907425 -0.0033095333    61.920633    61.422391    61.405873    40298.813 
15865000   -204786.11    1.6055965 -0.0039587135      61.7464    61.424638    61.613174    40317.823 
15870000   -204782.55    1.5894568 -0.0076583163    61.586888    61.743217    61.601827     40336.83 
15875000   -204824.29    1.6108478 0.00024349101    61.646007    61.440881    61.605194    40355.875 
15880000   -204894.66    1.6390264  0.001400221    61.428668    61.446004     61.67656    40374.922 
15885000   -204717.32    1.5796128 -9.707557e-05    61.390664    61.886558    61.402162    40393.909 
15890000   -204793.06    1.6007168 0.00048740033    61.735975    61.367047    61.567355     40413.01 
15895000   -204907.13    1.6454108  0.001844332    61.442839    61.593876    61.543115    40432.105 
15900000   -204714.64    1.5852513 -0.0062354625    61.668345    61.865713    61.385926    40451.192 
15905000   -204551.19     1.555202 -0.0027602741     61.87846    61.646045    61.526937    40470.269 
15910000   -204415.03    1.5891644 7.1019055e-05    61.761597     61.58279    61.776689    40489.275 
15915000   -204678.95    1.5983733 -0.0047804699    61.630886    61.747066    61.739962    40508.248 
15920000   -204733.32     1.591973 -0.0023720586    61.445595    61.720725    61.664587    40527.318 
15925000   -204614.15    1.6153307 0.0037739269     61.56835    61.592207    61.553229    40546.387 
15930000    -204603.5    1.5847395 0.0034227966    61.468493    61.593862    61.668795    40565.464 
15935000    -204647.8    1.5874903 -0.00043203128    61.613556     61.62505    61.603344    40584.537 
15940000   -204555.43    1.6182738 7.445233e-05     61.50763    61.641706    61.698552    40603.585 
15945000   -204660.24     1.552513 -0.0016617697    61.477048    61.584754    61.720565    40622.582 
15950000   -204614.66    1.5896235 0.0046737763    61.316689    61.696646    61.629409    40641.637 
15955000   -204666.99    1.6124306 -0.0039899849     61.70292    61.692951    61.552196    40660.677 
15960000   -204590.86    1.6235765 -0.0016947943    61.635645    61.508563    61.701224    40679.708 
15965000   -204680.56    1.6267093 0.0020058773    61.782875    61.632189    61.377738     40698.69 
15970000    -204556.8     1.593937 0.00036473139    61.675072    61.425387    61.677569    40717.606 
15975000   -204400.37    1.5553368 -0.0055683615    61.773529    61.729414    61.663581    40736.619 
15980000   -204427.65    1.5972923 -0.0032408291    61.544285    61.940573    61.594889    40755.594 
15985000   -204382.88    1.5977308 -0.0047167927    61.713262    61.895081     61.66832     40774.61 
15990000    -204555.7     1.651094 0.0047257077    61.614897    61.756372     61.47365    40793.624 
15995000   -204563.98    1.6158944 0.0036697797    61.553094    61.783335    61.579724     40812.61 
16000000   -204439.17    1.6198459 -0.001883213    61.652487    61.912125    61.373652    40831.608 
16005000   -204554.58    1.5794413 -0.0018211332    61.665601    61.761793    61.495365    40850.652 
16010000   -204584.81    1.5629588 0.00076546673     61.53628    61.696913    61.690477    40869.663 
16015000   -204462.54    1.5926507 0.0013067867    61.723967    61.723976    61.515332    40888.755 
16020000   -204455.15    1.5857222 0.0039135347    61.745328    61.669526    61.556581    40907.767 
16025000   -204411.57    1.5773166 -0.0068706236    61.485517    61.854291    62.029344    40926.747 
16030000   -204443.26    1.6224815 0.0048941586    61.748644    61.465224    61.627306    40945.683 
16035000   -204521.14    1.5733221 0.0043142767    61.875005    61.648721    61.347675    40964.679 
16040000   -204746.64    1.5983897 -0.0064623576     61.74605    61.778152    61.463357    40983.756 
16045000   -204737.45    1.6082407 0.0015849491    61.696398    61.645204    61.299149    41002.777 
16050000   -204689.35    1.6226711 0.0042646573    61.803478    61.512097    61.384765    41021.811 
16055000   -204594.18    1.6343525 0.00099285456    61.696789    61.402378    61.729615    41040.869 
16060000   -204410.29    1.5584256 -0.0015953684    61.513274    61.766621    61.855753    41059.933 
16065000   -204583.03    1.6165377 0.0023198924    61.712369    61.313699    61.747198    41078.933 
16070000   -204381.12    1.6032732 0.0029815636    61.491677    62.007885    61.643728    41097.934 
16075000   -204448.07    1.5549396 0.0041774037     61.60736    61.650371    61.738154    41116.952 
16080000   -204476.72    1.6265307 -0.0056282839     61.68764    61.803396    61.802698    41135.939 
16085000   -204434.52    1.6114254 0.0026356084    61.453984    61.637585    62.006475    41155.022 
16090000   -204451.51    1.6054575 -0.002413267    61.658922    61.638639    61.884022    41174.015 
16095000   -204368.13    1.5804297 0.0022668065    61.782139    61.618495    61.615741     41193.07 
16100000   -204394.89    1.5730135 -0.0073749256    61.834024    61.839773    61.646237    41212.089 
16105000   -204577.87    1.5483156 -0.0018974414     61.68456    61.670177     61.53626    41231.138 
16110000   -204701.59     1.576932 -0.00099264359    61.571923    61.661701    61.615112    41250.138 
16115000   -204636.78    1.5777381 0.0050137706    61.454604    61.778941     61.36278    41269.104 
16120000   -204623.03    1.5649406 -0.00055587825    61.801879    61.600501    61.469981    41288.107 
16125000   -204488.21    1.5324735 -0.0038130675    61.785576    61.720481    61.650384    41307.185 
16130000   -204399.96    1.5706898  0.007552902    61.575161    61.788955    61.635341    41326.251 
16135000    -204668.1    1.6174641 0.00047270568    61.713212    61.806132    61.483365    41345.275 
16140000   -204636.46    1.5985976 -0.0028975226    61.752473    61.891809    61.424069    41364.289 
16145000   -204592.83    1.6296292 0.0044292537    61.681912    61.537316    61.611009    41383.333 
16150000      -204525    1.6262892 0.0026637622    61.447265    61.868341    61.546404    41402.359 
16155000   -204758.34    1.5690841 0.00071657229    61.558659    61.662533    61.573453     41421.42 
16160000   -204547.42    1.6167051 -0.0015072311    61.931245    61.549329    61.466654    41440.447 
16165000   -204558.29    1.5674262 0.0031497525    61.769288    61.590069    61.272528    41459.481 
16170000   -204534.79     1.524586 -0.0020665723     61.55925    61.625827    61.677388    41478.498 
16175000   -204665.88    1.5809016 0.0022264138    61.449518    61.644252    61.565643    41497.541 
16180000   -204635.76    1.5996846 -0.0019679411    61.507831    61.820529    61.720644    41516.574 
16185000   -204702.85    1.5811178 0.0015257013    61.560042    61.684121    61.592883    41535.617 
16190000   -204695.83     1.597725 0.0010670666    61.582861    61.645618    61.558973    41554.683 
16195000   -204659.05    1.6478118 -0.0032882102    61.596823    61.713542    61.605618    41573.763 
16200000   -204720.84    1.6549601 0.0033267643    61.512835    61.718089    61.452167    41592.817 
16205000   -204892.81    1.6204765 0.0032059517    61.586718    61.594216    61.449965    41611.758 
16210000   -204660.33    1.6146436 0.00089655145    61.548404    61.469638    61.774877    41630.721 
16215000   -204615.57     1.522447 -0.0081446653    61.843114    61.638677    61.637431    41649.689 
16220000   -204499.83     1.602218 0.0014559276     61.72988    61.367873    61.614493    41668.703 
16225000   -204492.09    1.6604318 0.0037394763    61.432337    61.789531    61.598099    41687.787 
16230000   -204757.36    1.5970341 -0.00019115672    61.607934     61.49781    61.691437     41706.93 
16235000   -204639.06    1.6387792 0.0020597199    61.620791    61.627684    61.643859    41726.025 
16240000   -204723.52    1.5853131  0.004439655    61.677598    61.535114    61.528226    41745.086 
16245000   -204512.25    1.5754945 0.0020949579    61.537654    61.889163    61.513278    41764.125 
16250000   -204564.11    1.6198606 -0.0031118287    61.878263    61.366101    61.838025    41783.214 
16255000   -204615.97    1.5943494 0.0016050092    61.703946    61.455179    61.701202    41802.269 
16260000   -204500.03    1.5444013 0.0055877263    61.470328    61.615036    61.627737    41821.293 
16265000    -204477.6    1.6323029 0.0027792894    61.505506    61.838791     61.52965    41840.303 
16270000    -204539.4    1.6248329 -0.0047779224    61.326133    61.804755    61.815161    41859.325 
16275000   -204693.42    1.6140839 -0.0040745382    61.444507    61.702949    61.638799    41878.406 
16280000      -204650    1.6311328 0.0024306173    61.452089    61.272142     61.83518    41897.395 
16285000   -204695.13     1.584114 0.0023856388    61.621455    61.321821    61.544583    41916.444 
16290000   -204608.68    1.6029419 0.0055619592    61.578945     61.56342     61.46062    41935.396 
16295000   -204764.11    1.6230135 -0.0007073267    61.625525    61.604701    61.442179    41954.423 
16300000   -204505.87    1.5734967 0.00019819158    61.545589    61.679218    61.540525    41973.446 
16305000   -204617.69    1.6078099 -0.0029498564    61.686425    61.636733    61.580728    41992.518 
16310000   -204612.12    1.5734615 -0.0013021003    61.624111    61.744788    61.485689    42011.568 
16315000   -204369.68    1.6320247 0.0022043517    61.639648    61.726115    61.583869    42030.601 
16320000   -204481.71    1.6283717 0.0024368735    61.770379    61.674944    61.398905    42049.618 
16325000   -204499.26    1.6244282 -0.0010765474    61.792905    61.675492    61.373454    42068.639 
16330000   -204394.23    1.5668294 -0.0024535497    61.691447    61.603428    61.620245    42087.742 
16335000   -204534.18    1.6211715 0.0040472618    61.659298    61.566838    61.574153    42106.784 
16340000   -204692.99     1.655355 -0.00039806869    61.761732    61.359673    61.675222    42125.765 
16345000   -204448.27    1.6079914 1.8790206e-05    61.769405    61.432625    61.782065    42144.746 
16350000   -204453.66    1.6047315 -0.0066860335    61.801969    61.723437    61.817971    42163.735 
16355000   -204480.45    1.6670941 -0.002427595    61.824713    61.520362    61.599176    42182.712 
16360000   -204500.13    1.5981506 0.0021555164    61.680325    61.538692    61.718938      42201.7 
16365000   -204530.71    1.5831222 -0.0024069614     61.67836    61.635153    61.651546    42220.785 
16370000   -204733.33     1.591864 0.0059389622    61.444905    61.391762    61.718053    42239.841 
16375000    -204539.9    1.5824802 -0.0032275154    61.643192    61.902661    61.501177    42258.871 
16380000   -204585.99    1.6028958 -0.0033216392    61.803446    61.528688    61.613332    42277.912 
16385000   -204480.39     1.569091 0.0083639862    61.449619    61.485082    61.690594    42296.899 
16390000   -204603.25    1.6436294 0.0038928683    61.383221    61.497628    61.777528    42315.907 
16395000   -204623.03    1.5974014 -0.007230763    61.530037    61.746891    61.700458    42334.978 
16400000    -204400.6    1.5756928 -0.0019314171     61.88096    61.511816    61.581976     42354.06 
16405000    -204558.2    1.5855252 0.0027303677    61.630827    61.431804    61.681602    42373.078 
16410000   -204540.79    1.5672123 0.0069263356    61.780683    61.167163    61.609876    42392.062 
16415000   -204441.18    1.6387597 -0.0016364847    61.681197    61.469204    61.935608    42411.041 
16420000   -204468.89    1.5667952 -0.0035460887    61.702743    61.685875     61.72937    42430.074 
16425000   -204519.68    1.6050994 0.0017928108    61.608847    61.622712    61.711422    42449.064 
16430000   -204395.96    1.6121767 -0.0045541421     61.79205      61.7041    61.732368    42468.097 
16435000   -204478.49    1.5777037 0.0036996016    61.585958    61.614058    61.571582    42487.128 
16440000   -204485.65    1.5999995 -0.0017241105    61.693267    61.871507    61.460622    42506.181 
16445000   -204347.05    1.5432648 -0.0026970031    61.835682    61.607878    61.795863    42525.262 
16450000   -204376.86    1.5829673 -0.0026009753    61.683149    61.758389    61.756496    42544.231 
16455000   -204321.65    1.5872183 -0.00057361782    61.671888    61.742779     61.75928    42563.247 
16460000   -204250.93    1.5851794 -0.0022342516    61.707207    61.792626    61.609938    42582.322 
16465000   -204499.07    1.5967539 0.00068645637    61.715084      61.6631     61.51766    42601.294 
16470000   -204531.05    1.6013295 -0.00046044808    61.558639    61.618535    61.785222    42620.335 
16475000   -204332.78    1.5764326 -0.0057987268    61.816023    61.652676    61.991225      42639.3 
16480000   -204333.34    1.6043587 -0.0025285599    61.697906    61.977179    61.598677    42658.214 
16485000   -204291.52    1.6239722 -0.0011002105    62.047311    61.567696    61.638025    42677.195 
16490000   -204417.26    1.5929423 0.0004028889    61.840125    61.756168     61.59045    42696.232 
16495000   -204310.23    1.5511943 0.00065200445     61.64987    61.650625    61.786709    42715.284 
16500000   -204333.89    1.6107947 -0.0016155029    61.790935    61.686425    61.721037     42734.35 
16505000   -204322.12    1.6144603 0.0025535714    61.683831    61.586954     61.70772    42753.444 
16510000   -204195.78    1.5659614 -0.0024849011    61.800724     61.78139    61.721053     42772.42 
16515000   -204265.06    1.6009284 -0.0036863931    61.847335    61.926515    61.469754    42791.516 
16520000   -204363.31    1.6105385 -0.0014040159    61.896591    61.744022    61.535263    42810.617 
16525000   -204308.64    1.5612302 -0.0023500129    61.869573    61.796123    61.443943    42829.622 
16530000   -204413.16    1.5721306 0.0030798576    61.650277    61.572108    61.570478     42848.66 
16535000   -204457.43    1.5828296 -0.0032828261    61.603954     61.80755     61.67987    42867.675 
16540000   -204413.79    1.6071161 0.0056404548    61.706319    61.546643    61.597688    42886.641 
16545000    -204505.1    1.6331488 -0.0049872743    61.677192    61.771554    61.639969    42905.675 
16550000   -204228.88    1.5722047 -0.0019357787    61.729057    61.683859    61.744962    42924.717 
16555000   -204294.67    1.5837951 -0.0030747736     61.55282    61.748824    61.806953     42943.78 
16560000    -204403.8    1.5606118 0.0026819408    61.595396     61.70934    61.433907    42962.787 
16565000   -204503.55    1.5849115 -0.0018704464    61.547042    61.684763    61.731142    42981.808 
16570000   -204349.73    1.6394419 -0.0032395564    61.827785     61.76723    61.530412    43000.874 
16575000   -204439.39    1.5944854 0.0033313657    61.568907    61.566151     61.56321    43019.861 
16580000   -204379.49    1.5924891 0.0038970038    61.627476    61.590387    61.737791    43038.902 
16585000   -204187.64    1.5406915 0.0013300352    61.747529    61.980614    61.467335    43057.831 
16590000   -204245.41     1.582955 -0.001664439     61.63729    61.938576    61.611364    43076.862 
16595000   -204255.94     1.586991 0.0018689747    61.736849    61.841228    61.436948    43095.842 
16600000   -204081.36    1.5659181 -0.0039606875    61.657736    61.715923      61.9612    43114.852 
16605000   -204430.62    1.5767977 -0.0024190859    61.736017      61.4992    61.855922      43133.9 
16610000   -204293.54     1.575226 0.0062817632    61.588378    61.798841    61.606732    43152.859 
16615000   -204134.34    1.6106512 -0.0039274765    61.797467    61.930444    61.771711    43171.815 
16620000   -204152.83    1.6063081 -0.0044688486    61.918269    61.755742    61.798512    43190.801 
16625000   -204131.86    1.5947928 0.00097706619    61.719303    61.594104    62.126299    43209.739 
16630000   -204300.18    1.6263948 -0.0026568574    61.763528    61.521348    62.063965    43228.712 
16635000   -204107.39    1.6039698 0.0012215074    61.969205      61.6765    61.723708    43247.688 
16640000   -204317.38    1.5590209 -0.0054147713    62.008052    61.804658    61.677794    43266.708 
16645000   -204212.75    1.5980269 -0.002618174    61.719932    62.047771    61.700983     43285.69 
16650000   -204221.96    1.6047053 0.0019843093    61.580336    62.145903    61.583578    43304.692 
16655000   -204210.14     1.561661 -0.0014902938    61.670654     61.73395    61.877248    43323.615 
16660000   -204200.49    1.5999331 -0.0011879197    62.049639    62.001197    61.347188    43342.639 
16665000   -204135.64    1.5497314 -0.005764209    61.978359    61.840303    61.911972    43361.687 
16670000   -204275.16    1.5712229 0.0027850328    61.693882    61.711955    61.827444    43380.731 
16675000   -204291.05    1.5986502 -0.00091908455    61.480511    61.968508    61.704186    43399.686 
16680000   -204371.92    1.6068461 0.0085678011    61.610231    61.508635    61.709105    43418.682 
16685000   -204392.17    1.5807717  0.003496078    61.836615    61.716287    61.470963    43437.671 
16690000    -204218.7    1.6103481 -0.0021513267    61.964071    61.726239    61.496119    43456.694 
16695000   -204193.45    1.6199193 0.0013631801    61.799922    61.757512    61.758976    43475.684 
16700000   -204388.66    1.5849008 -0.0044267311    61.885166    61.775131    61.767268    43494.727 
16705000   -204299.85    1.5981025 0.0021530603    61.807461    61.651492    61.662723    43513.764 
16710000    -204367.4     1.590914 -0.0036594274    61.977673    61.569908    61.830705    43532.714 
16715000   -204424.11    1.5823892 0.00058404255     61.76576    61.674888    61.599993    43551.723 
16720000   -204190.57    1.6203752 0.0059258233    61.784093    61.555372    61.757407    43570.691 
16725000   -204364.71    1.5910888 0.0043213686    61.864906    61.584273    61.536101    43589.723 
16730000    -204456.9    1.5723167 -0.0052894451    61.821563    61.810443    61.491513    43608.739 
16735000   -204322.91    1.6069718 0.0035162888    61.618578    61.552262    61.755249    43627.713 
16740000   -204384.91    1.5629049 -0.0046458349    61.748861    61.441858    61.947072    43646.687 
16745000   -204473.86    1.6006149 -0.00023531012    61.511352    61.737511    61.736867     43665.68 
16750000   -204622.64    1.5828722 0.0012206311    61.479108    61.473328     61.77244    43684.699 
16755000   -204414.24    1.6117885 -0.00070432962    61.652759    61.615412    61.683153    43703.705 
16760000   -204155.28    1.5636702 -0.0034569054    61.896346    61.714116     61.76034    43722.701 
16765000   -204358.83      1.56758 -0.0008402779    62.051837     61.47134    61.587979    43741.754 
16770000   -204480.05    1.6135419 -0.0041759876    61.748845    61.795705    61.477943    43760.723 
16775000   -204526.37    1.5950867 -0.0040065075    61.589888    61.722003    61.750588    43779.723 
16780000   -204507.14    1.5777394 0.00081843162     61.51286    61.690737    61.714994     43798.69 
16785000    -204645.9    1.6218562 0.00041983041    61.626326    61.634726    61.554405    43817.672 
16790000   -204467.29    1.6135937 -0.0042766966    61.985497    61.420094    61.703134    43836.631 
16795000   -204537.64    1.6083438 0.0010430975    61.767786    61.480593    61.666873    43855.691 
16800000   -204616.54    1.6584955 0.0068788783    61.718156    61.439164    61.335377    43874.778 
16805000   -204529.94     1.610268 -0.0008148571    61.579605    61.720765    61.497068    43893.843 
16810000   -204667.23    1.6624166 -0.0015434748    61.715896     61.55425    61.523975    43912.822 
16815000   -204488.47    1.5691224 -0.00074595578    61.824548    61.268508    61.783127     43931.89 
16820000   -204615.63    1.5871428 0.0029611256    61.631987    61.435509    61.581509     43950.96 
16825000   -204468.58    1.5460889 0.0070030405    61.391361    61.538951    61.772313    43969.953 
16830000   -204421.37    1.5887175 -0.001515346    61.781172     61.44047    61.978154    43988.976 
16835000    -204450.9    1.6407298 -0.0010984846    61.748082    61.610547    61.673525     44007.95 
16840000   -204426.29    1.5986252 -0.0036753821     61.82472    61.689554    61.572185    44026.932 
16845000   -204442.75    1.6060409 -0.0012983102    61.822131    61.711175    61.341975    44045.969 
16850000   -204567.06    1.6359456 0.0011130712    61.736389    61.514308    61.438361    44065.013 
16855000   -204295.65    1.5917554 0.00056070241    61.763151    61.675593    61.471125    44084.032 
16860000   -204526.98    1.6210829 0.0024178144    61.503297    61.602947    61.673873    44102.972 
16865000   -204608.42    1.6150958 0.00097175994     61.45799    61.646708    61.807299    44122.021 
16870000   -204557.48    1.5719949 0.00095583295    61.908473    61.428744    61.520095    44141.079 
16875000   -204507.87    1.5708534 -0.00078782276    61.788949    61.734927    61.499276    44160.122 
16880000   -204496.76    1.6165552 -0.0018890016    61.591271    61.832455    61.569391    44179.114 
16885000   -204554.61    1.6077574 -0.0034004591    61.389702    61.740421    61.772374     44198.11 
16890000   -204499.51    1.5816386 0.0010962183    61.324109    61.784901     61.77882    44217.181 
16895000   -204408.63    1.5808579 0.0018307372    61.365536    61.878713    61.627784    44236.274 
16900000   -204561.79    1.5931956 -0.0014181144     61.47233    61.747076    61.673347    44255.362 
16905000   -204253.63    1.6187309 0.0027010305    61.715712    61.924192    61.408323    44274.366 
16910000    -204462.2    1.5747299 -0.00028020319    61.431364    61.839087    61.846103    44293.349 
16915000   -204535.67    1.6233401 0.00067494861    61.485309    61.590338    61.868947    44312.325 
16920000   -204574.15    1.6159969 0.0028195262    61.482179    61.957027    61.440969    44331.343 
16925000   -204495.09    1.6298925 -0.00015015916    61.735627    61.654741    61.622009    44350.354 
16930000    -204436.2    1.5556212 0.0036597999    61.644929    61.601809     61.74674    44369.317 
16935000   -204423.94    1.6275716 0.0050171068     61.45802    61.683716    61.686483    44388.304 
16940000   -204312.16    1.5945254 -0.0030490328    61.513858    62.020302    61.603754    44407.338 
16945000   -204426.23    1.6218579 -0.0047330575    61.846558    61.734071    61.675382    44426.358 
16950000   -204553.58    1.5993546 -0.00054463158    61.589421    61.693157    61.818635    44445.389 
16955000   -204431.94     1.581196 0.0045784212    61.726229    61.590052    61.587564    44464.379 
16960000   -204408.43    1.5860933 -0.0035523829    61.703578    61.830099    61.556484    44483.421 
16965000   -204519.37    1.5800749 -0.002417404     61.63315     61.97006    61.537163    44502.428 
16970000   -204284.26    1.6344846 -0.0003592472    61.772042    61.685857    61.792793      44521.4 
16975000   -204316.83    1.6296762 2.2268203e-05    61.802586    61.711893    61.600333    44540.379 
16980000   -204217.23    1.5924881 0.0034963774    61.731853    61.715235      61.6036     44559.44 
16985000   -204283.17    1.5956369 -0.0025404236    61.958875    61.579183    61.764548      44578.4 
16990000    -204211.8    1.5649455 -0.0063379968    61.864445    61.513187    61.970338    44597.385 
16995000   -204294.58    1.6561162 0.0011794728    61.978468    61.622057    61.539118    44616.354 
17000000   -204372.29    1.5973818 -0.0069577139    61.572915    61.693924    61.974832    44635.301 
17005000   -204463.87    1.6005981 0.0026086216    61.625764     61.74866    61.493857     44654.29 
17010000   -204201.38    1.5888677 0.0042041427    61.840239    61.595639    61.464532    44673.335 
17015000   -204497.88    1.6145726 -0.0019744525    61.641105    61.643929    61.556917    44692.304 
17020000   -204493.86    1.6114503 -0.00041427381     61.67823    61.716522    61.572561    44711.343 
17025000   -204434.01    1.6044054 -0.0019731727    61.922232    61.623675    61.363157     44730.41 
17030000   -204576.63    1.6191089 -0.0075752933    61.975472    61.679459    61.518788    44749.408 
17035000   -204559.65    1.5867126 0.0033453517    61.619029    61.621634    61.538525    44768.422 
17040000   -204678.55    1.6087185 -0.0016055102    61.526281    61.478436    61.815971    44787.457 
17045000   -204596.97    1.5897325 0.00053117741    61.615787    61.593597    61.546372    44806.521 
17050000   -204514.45    1.6339092 0.0045633192    61.666668    61.375413    61.613513    44825.542 
17055000   -204447.59    1.5768061 0.0036339406    61.668171    61.500471     61.59485     44844.59 
17060000   -204271.47    1.6196225 0.00076666067    61.498727    61.800818    61.755731    44863.659 
17065000   -204371.17    1.6200674 0.0036650944    61.670726    61.683705    61.674146    44882.645 
17070000   -204502.08    1.6380381 0.0038020569    61.685108    61.485929    61.749689    44901.609 
17075000   -204475.51    1.5348713 3.7058598e-06    61.844081    61.499371    61.567827    44920.607 
17080000   -204439.51    1.5471319 -0.0030541658    61.523158    61.554419    61.822973    44939.613 
17085000   -204478.29    1.5807608 -0.001136309    61.415105    61.694304    61.642395     44958.66 
17090000   -204602.99    1.6253635 -0.0038286498    61.780668    61.739194    61.412151    44977.745 
17095000   -204723.05    1.5562282 0.0016696194    61.607568     61.44785    61.562983    44996.834 
17100000    -204487.9    1.5778123 0.0047259088    61.598172    61.562711    61.505063    45015.896 
17105000   -204383.26    1.5744948 -0.0020116746    61.469109     61.81274    61.606018     45034.91 
17110000   -204562.68    1.5988591 0.0045838507    61.809344    61.458639    61.403023    45053.865 
17115000   -204755.39    1.5715449 -0.0029751543    61.670143    61.540392    61.582708     45072.93 
17120000   -204500.66    1.6058815 -0.0041932919    61.759932    61.729518     61.58907    45091.957 
17125000   -204625.69    1.6090377 -0.0019173901    61.891951    61.550456    61.476397    45110.976 
17130000   -204556.34    1.6020428 0.00063320916    61.814305    61.591924    61.471725    45129.982 
17135000   -204531.11    1.5647928 -0.0037556125    61.724933    61.650726    61.646444     45149.04 
17140000   -204690.14    1.6195249  0.003156517    61.836687    61.505098    61.380248    45167.998 
17145000   -204833.64    1.5837506 0.0060246642     61.49859    61.341469    61.569188    45186.986 
17150000   -204512.68     1.592397 -0.0039128217    62.071904    61.565911    61.421926    45205.984 
17155000   -204688.45    1.5882213 -0.0038043818    61.862598     61.51395    61.499436    45225.008 
17160000   -204476.18    1.6003595 -0.0038758189    61.797333     61.96512    61.319116    45243.964 
17165000   -204555.53    1.6201641 0.0035904549       61.844    61.577029    61.359962    45263.007 
17170000   -204547.93    1.5872203 -0.0048211175    61.734293    61.830715    61.385198    45281.982 
17175000   -204415.22    1.5799797 -0.0049474565    61.774773    61.814985    61.412453    45301.038 
17180000   -204457.62    1.5686062 0.00095972529      61.7485    61.591366    61.536394    45320.027 
17185000   -204517.11    1.6019692 -0.0022679286    61.534493    61.827168    61.669152    45339.037 
17190000   -204506.26    1.5861392 -0.0096319629    61.569375    61.706933    61.872854    45358.032 
17195000   -204444.51    1.6100431 -0.0012705145     61.77497    61.454038    61.558735    45376.989 
17200000   -204473.53    1.6016356 -0.00086351651    61.660071    61.800829    61.457376    45395.996 
17205000   -204531.12    1.5717597 0.00015941409    61.578453     61.51633    61.636063    45414.993 
17210000   -204522.03    1.5789037 -0.0023648349    61.721552    61.415772    61.557595    45433.994 
17215000    -204595.4    1.6176772 0.0065771885    61.618369    61.437323    61.537818    45452.951 
17220000   -204692.15    1.6077955 -0.0013903061    61.476266    61.595977     61.66597    45471.959 
17225000   -204500.03    1.6900236 -0.0063248222     61.65407    61.753589    61.704811     45490.97 
17230000   -204546.99    1.6125076 -0.0017822716    61.584886    61.720775     61.60979    45509.996 
17235000   -204538.69    1.6460473 0.00064443037    61.626141    61.730026    61.583667    45528.973 
17240000   -204375.16    1.5836596 -0.0027732439    61.802863    61.736872    61.660452    45547.965 
17245000   -204513.56    1.6052813 -0.0022118313    61.680965    61.607544    61.881066    45567.015 
17250000   -204584.03    1.6401049 0.0048937325    61.731792    61.656802    61.596544    45586.096 
17255000   -204422.05    1.6040052 0.0050322811    62.087951     61.64892    61.243368    45605.135 
17260000   -204314.03    1.6005436 -0.0067819371    61.995573      61.6255    61.850563    45624.187 
17265000   -204525.92    1.5992006 0.0021043115    61.840294    61.782781    61.379481    45643.177 
17270000   -204395.21    1.6010888 0.0027345312    61.823467    61.486779    61.677877    45662.175 
17275000   -204399.12    1.6214715 -0.0023673017    61.696523     61.75769    61.708861    45681.179 
17280000   -204350.37    1.5908121 0.0023232589    61.556758    61.363251    61.947403    45700.174 
17285000   -204470.09    1.5826855 -0.0058032552    61.706434    61.682648    61.785195    45719.153 
17290000   -204452.68    1.6337726 -0.0029251603    61.831972    61.646444    61.683327    45738.182 
17295000   -204582.82    1.5731224 0.0049011559    61.546567    61.710498    61.424747    45757.198 
17300000   -204484.48    1.6193472 0.0025095131    61.734271    61.722261    61.315228    45776.214 
17305000   -204473.12    1.6001893 0.0021179864    61.717881    61.827547      61.3821     45795.23 
17310000   -204498.12    1.5463578 0.00050131585    61.809455    61.617801    61.485425    45814.192 
17315000   -204586.74    1.5927155 0.00059618259    61.950564    61.417933    61.549232    45833.168 
17320000   -204447.22    1.5722475 -0.00041625917     61.84342    61.695224    61.551931      45852.1 
17325000   -204510.73    1.6011177 0.0052295052    61.599546    61.791555    61.452802    45871.054 
17330000   -204492.99    1.6117135 -0.0045595826    61.647308    61.867623    61.598576    45890.013 
17335000   -204577.68    1.6013285  0.005687487    61.419223    61.429567     61.73858     45909.01 
17340000   -204623.81    1.6300749 -0.0036868847    61.593009     61.49989    61.813022    45928.026 
17345000   -204879.94    1.5913078 -0.0017752623    61.779437     61.49446    61.459577    45946.973 
17350000   -204619.15     1.582355 0.0024795197    61.696568    61.483094    61.455341     45965.98 
17355000   -204608.79    1.5674838 -0.0043332707    61.710263     61.65581    61.602636    45984.962 
17360000   -204750.94     1.598314  0.003153578    61.622929    61.501487    61.457781    46003.939 
17365000    -204579.2    1.6128413 0.0057103976    61.707762    61.401157    61.611966    46022.902 
17370000   -204444.54    1.6175807 -0.00015918747    61.832972    61.448169      61.7012    46041.922 
17375000    -204590.8    1.6707448 0.00089361276    61.659699    61.367586    61.706932    46060.889 
17380000   -204602.18    1.5708221 -0.00046173105    61.635744    61.572895     61.56885    46079.882 
17385000   -204533.81    1.6067673 -0.0030515008    61.434881    61.568989    61.913121    46098.908 
17390000   -204565.41    1.5905404 -0.0036556527    61.367689     61.72805    61.759538     46117.91 
17395000    -204649.1    1.6312667 0.0060291703    61.671016    61.303275    61.629677    46136.916 
17400000   -204491.08     1.636826 -0.002387254    61.683674     61.55897    61.773541    46155.915 
17405000   -204699.42    1.5943416 -0.00057612706    61.511205    61.458029    61.680319    46174.902 
17410000   -204633.09    1.5814004 -0.00083496538    61.319566    61.758954     61.63284    46193.943 
17415000    -204828.5    1.5883734  0.006757648    61.454644    61.605194    61.175642    46212.975 
17420000   -204734.26    1.6060987 -0.0031720983     61.48724    61.288987    61.852584    46232.005 
17425000   -204851.67    1.6164221 0.00065901355    61.517473    61.363437    61.601925    46251.066 
17430000   -204627.74    1.5815261 0.0015567725    61.771713    61.403003    61.514918    46270.119 
17435000   -204719.55    1.6092522 0.0012933803     61.66917    61.588618    61.389115    46289.136 
17440000   -204699.92    1.6116462 -0.00096494884    61.283355    61.478645    61.970769    46308.167 
17445000    -204498.6     1.532622 -0.0098741058    61.577324    61.733712     61.83161    46327.195 
17450000   -204416.18    1.6147798 -0.00034093388    61.832783    61.629284    61.547326    46346.182 
17455000   -204553.57    1.6220938 -0.0011560976    61.784609    61.477742    61.648396    46365.164 
17460000   -204593.29    1.5505096 -0.0028550798    61.404137    61.800595    61.775295    46384.223 
17465000   -204594.15     1.555793 -0.0032628852    61.655083    61.661227    61.660656    46403.235 
17470000   -204384.24    1.5890686 -0.004718571    61.708571    61.815989     61.72941    46422.164 
17475000   -204359.59    1.5623372 0.0042581876    61.694512    61.734136    61.506106    46441.195 
17480000   -204408.19    1.6075322 0.0038498938    61.687764    61.515949     61.57909    46460.156 
17485000    -204321.7    1.5671949 -0.0027831978    61.854352    61.738823    61.616226    46479.147 
17490000   -204265.65    1.5875152 0.0001682881    61.535489    61.772495    61.910058    46498.123 
17495000   -204364.44    1.5922063 -0.0024477892     61.84895    61.537952    61.897964    46517.122 
17500000   -204228.22    1.6008211 -0.0040044188     61.57858    61.627181    62.004671    46536.107 
17505000   -204447.03    1.6001413 -0.00066661779    61.707076    61.591693    61.551664    46555.126 
17510000   -204322.53    1.5977728  0.004711236    61.742702    61.604225    61.575718    46574.194 
17515000   -204545.13     1.617659 0.0011382483    61.497783    61.977081    61.486306    46593.142 
17520000   -204517.39    1.5884356 -0.00037197149    61.615609    61.618443    61.694922    46612.151 
17525000   -204510.37     1.603796 -0.0078460802    61.921537    61.647728    61.584837    46631.156 
17530000   -204415.76    1.5875124 -0.0036965225    61.923059    61.480416    61.767467    46650.159 
17535000   -204342.97    1.6305732 -0.0012432249    61.938497    61.894791    61.378765    46669.206 
17540000   -204370.18    1.6057276 -0.0025769344    61.779948    61.725319    61.630274    46688.171 
17545000   -204526.54    1.5959267 -0.0029077164    61.562207    61.882904    61.694864     46707.19 
17550000   -204526.77    1.5783265 -0.0014532217    61.713498    61.777512    61.647356    46726.182 
17555000   -204564.34    1.5688811 -0.00017071545    61.552227    61.814313    61.403602    46745.186 
17560000   -204486.71    1.6044052 -0.00015511048    61.729431    61.625403    61.622273    46764.137 
17565000   -204603.94    1.5559664 0.0027309631    61.723816    61.678341    61.458401    46783.111 
17570000   -204580.89    1.5589375 0.0005258606    61.742793    61.761371    61.366446    46802.041 
17575000    -204641.7    1.6034763 -0.00057071579    61.652922    61.801262    61.259846    46820.998 
17580000   -204682.23    1.5948502 -0.0033523458    61.507705    61.748287    61.603921    46840.013 
17585000   -204515.54    1.6097097  0.002604586    61.527874    61.720187    61.619017    46859.012 
17590000   -204512.63    1.6340317  0.004342624    61.492641    61.633536    61.570055    46878.036 
17595000      -204541    1.5606135 -0.0043365515    61.831416    61.738804    61.527048    46897.049 
17600000    -204469.7    1.6453592 -0.0044985552    61.952379    61.494032    61.650087    46916.017 
17605000   -204404.12     1.561238 -0.00078759599    62.068753    61.341569    61.702946    46935.056 
17610000   -204457.13     1.604652   -0.0057343    61.680169    61.626228    62.039926    46954.093 
17615000    -204432.1    1.5876539 -0.0014685233     61.75478    61.464627    61.983728    46973.089 
17620000   -204588.18    1.5977199 0.0066000068    61.628782    61.651628    61.488003    46992.069 
17625000   -204506.21    1.6107597 -0.0039356535     61.96634    61.699116    61.508874     47011.05 
17630000   -204604.85    1.5740574 -0.0049056075    61.901544    61.685781    61.574366    47030.019 
17635000   -204484.06     1.620041 -0.001322092    61.682455    61.809707    61.716598    47048.967 
17640000   -204516.79    1.6499444 -0.0030400082    61.882974    61.611155    61.568046    47067.984 
17645000   -204534.76    1.5856046 0.0016787616    61.660206    61.790907    61.543756    47086.964 
17650000   -204360.81    1.5668278 -0.0026506951     61.78157    61.738293    61.692082    47105.944 
17655000   -204172.82      1.62193 0.0027771586     61.61527    61.763888    61.871525    47124.962 
17660000   -204486.13    1.6744494 0.0017612108    61.644288    61.779315     61.74021    47143.977 
17665000   -204446.02    1.6417943 -0.0036821643    61.652603    61.768263    61.837271    47162.898 
17670000   -204362.21    1.5946675 0.0012665071    61.891754    61.521707    61.586297    47181.859 
17675000   -204414.95    1.5976669 -0.001992793     61.65725    61.751684    61.563234    47200.861 
17680000   -204272.21    1.5722596 0.0011030038    61.550918    61.854486    61.806036    47219.906 
17685000   -204397.02    1.5781207 -0.0079342212    61.757057    61.792308    61.786984    47238.947 
17690000   -204453.87    1.6042377 -0.00071603397    61.764846    61.523216      61.8827    47257.956 
17695000   -204542.27    1.5412785 -0.0065698531    61.762339    61.671425      61.7313    47277.069 
17700000   -204500.95    1.6363935 0.0062038272    61.708155    61.350418    61.776467    47296.075 
17705000   -204500.03    1.5817587 0.0010763457    61.593296    61.638039    61.919414    47315.114 
17710000   -204485.18    1.6031772 -0.0062429393    61.533547    61.727934    61.954435    47334.077 
17715000    -204396.6    1.5859627 -0.0019923426    61.595241     61.67885    61.909339    47353.039 
17720000   -204480.05    1.6012675 0.0018235993    61.452834    61.702596    61.789599    47372.004 
17725000    -204276.2    1.5847385 2.0295898e-05    61.582486    61.688824    61.927046    47390.909 
17730000   -204385.68    1.5774977 -0.004615002    61.832881    61.683192    61.920775    47409.863 
17735000   -204621.89    1.6418132  0.002974008    61.731763    61.506452    61.530967    47428.845 
17740000    -204461.2    1.5740636 -0.0025194778    61.596749    61.798692    61.707921    47447.824 
17745000   -204367.86     1.606974 -0.00035739906    61.508155    61.922392    61.552546    47466.815 
17750000   -204386.49    1.5752929 -0.0014872055    61.844603    61.700912    61.586444    47485.802 
17755000   -204442.18    1.6118904 -0.00026604725    61.765811    61.574953    61.743554    47504.849 
17760000    -204325.6     1.592968 -0.0038801769    61.906915    61.664135    61.776009    47523.799 
17765000   -204519.77    1.6102022 -0.00040367902    61.768923    61.558806    61.818659    47542.831 
17770000   -204319.05    1.5943144 -0.00014027863     61.64843    61.771702    61.754655    47561.831 
17775000   -204358.52    1.6395163 -0.0028412959    61.684935    61.889227    61.736438    47580.831 
17780000   -204292.74    1.5496924 0.0038066388    61.749691    61.628902     61.66853    47599.844 
17785000   -204174.16    1.6374528 0.0013401187    61.397265    61.770067    61.969313    47618.928 
17790000   -204297.88    1.5877736 -0.00024540485    61.575569    61.917085     61.64331    47637.913 
17795000   -204338.03    1.6312222 0.0031617711    61.946731    61.540216    61.737537    47656.937 
17800000   -204500.28    1.6395293 -0.0040545137     61.87612    61.698814    61.756963        47676 
17805000   -204489.76    1.6415035 0.0040758438    61.504857    61.611605     61.69417    47694.994 
17810000   -204389.87    1.5778868 0.0025515258    61.814982    61.577863    61.588464    47714.052 
17815000   -204465.69    1.6217785 -0.00082451377     62.01644    61.845181    61.338996     47733.08 
17820000   -204470.09    1.6012685 -0.001307519    61.673546    61.764624    61.726111    47752.096 
17825000   -204361.87    1.6003267 0.0013285526    61.712746    61.818977    61.649603    47771.114 
17830000    -204470.6    1.5835134 0.0013477278    61.363324    61.933217    61.785898    47790.111 
17835000   -204403.13     1.590274 -0.0037014324     61.61977    61.971072     61.71912    47809.187 
17840000   -204341.75    1.6195261 -0.0054520091    61.730741    61.880322    61.847676     47828.19 
17845000   -204364.72    1.6057752 0.0065579293    61.815415    61.528588    61.684615    47847.196 
17850000   -204372.95    1.6093672 -0.0036133998    61.714201    61.753268    61.854216    47866.144 
17855000   -204256.41    1.5724497 0.0027699743    61.749182    61.937737    61.625284    47885.141 
17860000   -204195.11    1.5862616 -0.0056194806     62.04397    61.565134    61.947617    47904.157 
17865000    -204206.5    1.5647473 -0.0016218155     62.04552    61.690061    61.735114    47923.135 
17870000   -204398.63    1.5798258 0.0023808787    61.813637    61.805349    61.572121    47942.171 
17875000    -204345.1     1.615009 0.0012576923    61.762209    61.694538    61.777215    47961.192 
17880000   -204310.62    1.6099216 -0.00033929108    61.758537    61.550652    61.942264    47980.267 
17885000   -204508.16    1.5826966 -0.00073810016    61.530295    61.689317    61.857289    47999.269 
17890000   -204481.13    1.5934559 0.0076868753    61.466315     61.51698    61.898953     48018.24 
17895000   -204446.92    1.6021928 -0.0024557473    61.933726    61.712158    61.593681    48037.233 
17900000   -204348.74    1.6143019 0.0023522838    61.750353    61.639269    61.674138    48056.229 
17905000   -204599.29    1.6151423 0.00064209329    61.650716    61.583679    61.630968    48075.183 
17910000   -204391.85    1.5668568 -0.0018170825      61.9089    61.459574    61.556542     48094.14 
17915000    -204403.4    1.5999578 0.0072618045    61.813495    61.581414    61.297177    48113.074 
17920000   -204559.45    1.5830357 -0.0069505225    61.637536    61.613191    61.672388    48132.032 
17925000   -204541.12    1.6152381 0.0053305488    61.516394    61.608524    61.583607    48151.041 
17930000   -204482.27    1.5827646  0.001749437    61.778662    61.512417    61.540088    48170.067 
17935000   -204720.23    1.5773627 -0.0011635294    61.778802     61.54531    61.456029    48189.129 
17940000   -204604.81    1.5489196 -0.0034001236    61.521895    61.558684     61.71505    48208.188 
17945000   -204527.96    1.5992488 0.0022724235    61.394456    61.783986    61.428916    48227.203 
17950000   -204519.68     1.568888 0.00011645059    61.361211    61.664411    61.712683     48246.29 
17955000   -204511.99    1.5754928 -0.0034012902    61.475717    61.707977    61.758883    48265.295 
17960000   -204509.29    1.5868146 -0.0015918045    61.647007    61.676854    61.674493    48284.268 
17965000   -204621.94    1.6416781 0.0036979828    61.540548     61.49035    61.748245    48303.278 
17970000   -204552.01     1.615382 -0.00030863879    61.660374    61.778509     61.62332    48322.278 
17975000    -204624.9    1.6402537 8.4998776e-05    61.697042    61.446529    61.723693    48341.249 
17980000   -204467.57    1.5859213 -0.00031679695    61.617406    61.810312     61.55794     48360.27 
17985000   -204675.89    1.5864997 0.0017721904    61.653632     61.61736    61.563638    48379.219 
17990000   -204565.77    1.6131435 -0.0073260597     61.83085     61.56924    61.827876     48398.16 
17995000   -204728.64    1.5603937 -0.00070524769    61.415823    61.735784    61.536581    48417.173 
18000000   -204607.29    1.5576218 -0.00093695804    61.658537    61.610774     61.51447    48436.199 
18005000   -204609.36    1.6033485 0.00077650002    61.579356    61.651096    61.584495    48455.278 
18010000   -204711.75    1.6183273 -0.00020105489    61.636229    61.790582      61.4911    48474.297 
18015000   -204680.74    1.6158528 -0.0064026084    61.683485    61.794767    61.714517     48493.35 
18020000      -204688    1.6282096 0.0048415494    61.513949    61.631909    61.623168    48512.406 
18025000   -204808.01    1.6475846 -0.0025791243    61.499513    61.617787    61.706671    48531.389 
18030000    -204649.7    1.6156402 -0.0030545303    61.761451    61.707335    61.633284    48550.463 
18035000   -204734.96    1.5994415 -0.00059269485    61.549942    61.688348    61.594514     48569.46 
18040000   -204569.27    1.6114552 0.00025265148    61.664199    61.674218    61.548493    48588.422 
18045000   -204834.82    1.5687783 -0.0073638962    61.504996    61.771952    61.780957    48607.347 
18050000   -204857.87    1.5744247 0.0039884405    61.392726    61.499857    61.593483    48626.323 
18055000   -204897.38    1.5886781 0.0020948802    61.327577    61.376977     61.85951    48645.301 
18060000   -204833.95    1.6272176 -0.0039480883    61.569937    61.506578    61.622462    48664.382 
18065000   -204732.46    1.5864068 0.0024438272    61.670801    61.387569    61.487329    48683.438 
18070000   -204967.61     1.586362 -0.0014908284    61.456968    61.657624    61.427872    48702.489 
18075000   -204873.99    1.6069883 0.00075587833    61.321494    61.639111    61.576219    48721.512 
18080000   -204879.64    1.5553529 0.0024345839    61.638378     61.46754    61.283712    48740.546 
18085000   -205004.87    1.5780589 0.0044651441    61.516674    61.317634    61.578111    48759.494 
18090000   -204789.84    1.6009425 -0.0014158713    61.503233    61.432105    61.684714    48778.508 
18095000   -204936.68    1.5793244 0.0019711518     61.61524    61.354533    61.546889     48797.48 
18100000   -204754.12    1.5819471 0.00014397607    61.579222    61.677492    61.377514    48816.479 
18105000   -204750.46    1.6027217 0.00054882228    61.761292    61.370578    61.519774     48835.47 
18110000   -204662.06    1.6026835 -0.00024885248    61.818046     61.44366    61.447909    48854.512 
18115000   -204608.62    1.5973822 -0.00011944093    61.682948    61.687274    61.529648    48873.523 
18120000   -204848.82    1.6135955 0.0087536542    61.359492    61.451012     61.61616    48892.495 
18125000   -204674.57    1.6252667 -0.0029123044    61.508456    61.479301    61.774844    48911.446 
18130000   -204619.15    1.6147255 -0.0010317029    61.488266    61.558402     61.54756    48930.451 
18135000   -204874.79    1.6173675 0.0012553217      61.5293    61.442303    61.388957    48949.465 
18140000   -204751.81    1.5735037 -0.0054105309    61.831133    61.477418    61.480808    48968.428 
18145000    -204688.8       1.6133 -0.0020916855    61.888757    61.413541    61.488875    48987.436 
18150000   -204725.17    1.5999339 0.0081086265    61.608605    61.292907    61.457549    49006.468 
18155000   -204726.27    1.5829644 -0.0071084182    61.600744    62.006296    61.333019    49025.462 
18160000    -204806.3    1.5356225 -2.3726832e-05    61.451345    61.561999    61.566235    49044.475 
18165000   -204849.29    1.5925865 0.0035981244    61.429942    61.516322     61.48877    49063.462 
18170000   -204832.68    1.6208186 0.00067832571    61.638231    61.474763    61.422536    49082.482 
18175000   -204799.82    1.6554123 -6.0117334e-05    61.502565    61.614062    61.395475    49101.458 
18180000   -204903.76    1.6015034 0.0098162775    61.437013    61.303801    61.337043    49120.439 
18185000   -204827.64    1.6121334 -0.00078510984    61.692821    61.484013     61.42678    49139.398 
18190000   -204693.64    1.5615024 0.00077617556    61.670525    61.589953    61.619252    49158.365 
18195000   -204825.86    1.6094509 -0.0025861336    61.591289     61.70847    61.565619    49177.374 
18200000   -204717.27    1.6291646 0.0021784392    61.653627    61.506485    61.579651    49196.402 
18205000   -204484.87    1.6090654 -0.0033102202      61.7219    61.757957    61.670181    49215.427 
18210000   -204463.62    1.5493249 0.0065851836    61.343066    61.485532    61.859967     49234.48 
18215000   -204634.39    1.5885631 -0.00059116385     61.60013     61.72745    61.616191    49253.455 
18220000   -204701.74    1.5364271 0.0065527545    61.702499    61.433038    61.403545    49272.433 
18225000   -204613.77    1.6088676 0.0048795405    61.404746    61.674224    61.579022    49291.364 
18230000   -204616.03    1.6322302 -0.0043626176    61.785874    61.465409    61.616121    49310.315 
18235000   -204607.51    1.6014633 -0.00014137656    61.594545    61.636649    61.579694    49329.312 
18240000   -204638.31    1.5865282 -0.00055188893    61.681945    61.548165    61.517744    49348.319 
18245000   -204502.94    1.5923834 0.0025442653    61.404113    61.901695    61.494658    49367.317 
18250000   -204475.14    1.6306225 0.0015073508     61.52815    61.800206    61.534855    49386.341 
18255000   -204549.58    1.6417405 -0.0014627873     61.58194    61.858618    61.420331    49405.317 
18260000   -204328.37    1.6445999 0.0011166498    61.559638    61.808874    61.723137    49424.306 
18265000   -204382.34    1.5946754 0.00097172522    61.179727    62.123804    61.738638    49443.342 
18270000    -204463.4    1.6337636  0.000860592    61.162597    62.027124    61.801569    49462.328 
18275000   -204472.73    1.5613608 -0.0034281561    61.418674    61.926392    61.721553    49481.279 
18280000   -204589.42    1.6068115 0.0051136799    61.817391    61.286556    61.488412     49500.25 
18285000   -204470.89    1.5994757 0.0093901305    61.468107    61.707268    61.448347    49519.247 
18290000   -204360.04    1.6272415 -0.0028963507    61.663723    61.832045    61.627006     49538.23 
18295000   -204533.98    1.5390796 -0.0033192375    61.562678     61.61407    61.920433     49557.25 
18300000   -204533.75    1.6084017 -0.0093926278    61.735452     61.76905    61.913322     49576.24 
18305000   -204667.53    1.5832454 0.0039853945    61.801642    61.383942     61.48452    49595.218 
18310000   -204823.93    1.6164203  0.002228806     61.68971    61.368579    61.645806    49614.225 
18315000    -204763.2    1.5767861 -0.0010791029    61.569054    61.452677    61.654497    49633.222 
18320000   -204638.86    1.6580643  0.001634285    61.786802     61.42591    61.581238    49652.271 
18325000   -204672.33    1.6145228 0.00021919014    61.800304    61.525316    61.493242    49671.341 
18330000   -204723.28    1.5906682 0.0052365768    61.566639    61.633452     61.24469    49690.329 
18335000   -204712.39    1.6118019 -0.00096353723    61.740056    61.466014    61.503502    49709.308 
18340000   -204671.79    1.5782878 -0.0074623795    61.709268    61.471028    61.609299    49728.307 
18345000   -204783.39    1.5837749 -0.00032478376    61.589281    61.587653    61.461644    49747.308 
18350000   -204664.35     1.569356 -0.0028192854    61.486211    61.561732     61.57601    49766.344 
18355000   -204775.92    1.5973892 0.00095109252    61.665466    61.635946    61.217387    49785.316 
18360000   -204980.02    1.5914434 0.0033456516    61.328145    61.614782    61.365803    49804.286 
18365000    -204957.1    1.6002518 -0.002379785    61.559673     61.64341    61.519036    49823.272 
18370000    -204722.1    1.6055517 -0.0028793009    61.530195    61.562464    61.665298    49842.265 
18375000   -204847.01    1.6469691  0.002348203    61.555654    61.483425    61.358702    49861.292 
18380000   -204801.18    1.5891552 0.0031507734    61.402243    61.228433    61.698865    49880.307 
18385000   -204755.88     1.591228 8.6817835e-05    61.544503    61.406526    61.716762    49899.273 
18390000   -204709.48    1.6263949 -0.0023278274    61.759426    61.560712    61.402702    49918.287 
18395000    -204607.2    1.6225657 0.0047836075     61.53313    61.501486    61.559258     49937.27 
18400000   -204682.69    1.6571414 0.0025977967    61.790043     61.29981    61.635317    49956.278 
18405000   -204743.65    1.5527314 0.00095448338    61.624645     61.41652    61.571233    49975.346 
18410000   -204466.05    1.5349119 -0.0052564141    61.660649    61.661366    61.630702    49994.393 
18415000   -204506.61    1.5733579 -0.0021439606    61.775266    61.795102    61.493926    50013.412 
18420000   -204610.19    1.6006365 0.0058130884     61.64235    61.550534    61.478817    50032.434 
18425000   -204617.41    1.6552379 -0.0077021236    61.807323    61.829324    61.454879    50051.407 
18430000   -204646.14    1.5691102 0.0042728427    61.726675    61.613658    61.347627    50070.406 
18435000   -204566.09     1.605812 0.00066500041    61.831015    61.526613    61.627131    50089.441 
18440000   -204637.98    1.5749088 -0.00026634501    61.712782    61.834175    61.386819    50108.449 
18445000   -204773.53    1.5857106 0.0035162676    61.385217    61.587493    61.640452     50127.41 
18450000   -204778.82     1.571567 -0.0059611502    61.538277    61.762277    61.579235    50146.383 
18455000   -204780.97    1.6033668 0.0073734803    61.392163    61.505886    61.476279    50165.327 
18460000   -204637.01    1.5476906 0.0047519374    61.381042    61.694058    61.463728     50184.32 
18465000   -204697.46    1.6522511 -0.0019301369    61.618792    61.587158    61.639455    50203.329 
18470000   -204504.33    1.5844456 -0.0041596352    61.716525    61.573311    61.741541    50222.287 
18475000   -204662.06     1.617533 0.0039525634    61.609437    61.556105    61.598535    50241.245 
18480000   -204569.91    1.5950545 0.0044729598    61.691193    61.763755    61.404567    50260.181 
18485000   -204520.91    1.6217258 -0.0059357703    61.776095    61.802435    61.618027    50279.103 
18490000   -204403.22    1.6016665 -0.0019388178    61.715005    61.827118    61.607163    50298.082 
18495000   -204523.28    1.6490565 0.0067532922    61.541654    61.658454    61.524941    50317.047 
18500000   -204426.78    1.5916327 -0.0067116452     61.71784    61.997092    61.610486    50336.086 
18505000   -204274.31    1.5968912 -0.0018430122    61.695759    61.869677    61.573022    50355.053 
18510000   -204377.72    1.6274285 0.0039440927    61.504369    61.710448    61.643647    50374.028 
18515000   -204488.68    1.6381533 0.0031918894    61.601803    61.545482    61.798946    50392.971 
18520000    -204249.1    1.5862148 -0.001191396     62.11092    61.409909    61.705951    50411.923 
18525000   -204230.09    1.5613279 0.0042297739     61.93497    61.612021    61.701606    50430.925 
18530000   -204246.17     1.593254 -0.0009548908    61.849761    61.840424    61.676628    50449.927 
18535000   -204400.43    1.6033082 -0.0026484429    61.840233    61.790568    61.706482    50468.925 
18540000   -204204.21    1.5825072 -0.0063384093    61.880424    61.948074    61.823429    50487.879 
18545000   -204352.03    1.6186819 0.0067886757    61.839885    61.754174    61.415751    50506.784 
18550000   -204453.24    1.6110058 -0.0016376823    62.011445    61.695017    61.389633    50525.778 
18555000   -204369.22    1.6200887 0.0024220192    61.714999     61.77342    61.623185    50544.704 
18560000   -204524.58    1.6511914  0.002199738    61.753933    61.722149    61.417102     50563.68 
18565000   -204512.88      1.55389 0.00077561988    61.596785    61.608902     61.58094    50582.744 
18570000   -204476.65    1.5701266 -0.00092262967    61.792536    61.671799    61.590542    50601.797 
18575000   -204470.33    1.5732582   0.00470591     61.58963    61.511767    61.593905    50620.835 
18580000   -204359.43    1.5517862 -0.0012489926    61.685708    61.799269    61.687607    50639.791 
18585000   -204284.81     1.586521 -0.001438461    61.828898    61.819065    61.515843    50658.794 
18590000   -204340.27    1.5890532 -0.0002616612    62.033856    61.607807    61.446825    50677.803 
18595000   -204510.76    1.5813497 -0.0054024151     61.75242    61.824981    61.539273    50696.776 
18600000   -204451.76    1.5967503 0.0060117805    61.345068    61.701847    61.838917    50715.735 
18605000   -204306.01    1.6078333 -0.0050671064    61.770134    61.821795    61.880599    50734.649 
18610000   -204216.99    1.6300217 0.00015473834     61.75618    61.815215    61.566064    50753.545 
18615000   -204338.74    1.5832805 0.0010870461    61.682842    61.851482    61.672448    50772.499 
18620000   -204295.84     1.611545 0.0016844404    61.871099    61.652288    61.702545    50791.429 
18625000   -204252.91    1.6240871 0.00050681919    61.534594    61.741206    61.914036    50810.392 
18630000   -204165.04    1.6052154 0.0033514506    61.540795    61.925536    61.729556    50829.301 
18635000    -204220.7    1.5694315 -0.0057478747    61.667416    62.010004    61.916855    50848.313 
18640000   -204320.94    1.6055091 0.0025836058    61.869415    61.543929    61.797637    50867.313 
18645000   -204519.43    1.5630766 -0.0016938696    61.759436    61.725287    61.603674    50886.328 
18650000   -204501.52    1.5574728 0.00018238167    61.732386      61.6535    61.537313    50905.332 
18655000   -204590.44    1.6035179 -0.0027025742    61.606648    61.793024    61.608734    50924.295 
18660000   -204518.13    1.5829713 0.0012754728    61.894009    61.727764    61.449564    50943.271 
18665000   -204436.51    1.5434226 0.0006130033    61.814671    61.666107    61.538983    50962.269 
18670000   -204571.33    1.6209781 -0.00031238921    61.831166    61.536754    61.705129    50981.234 
18675000   -204222.61    1.6545789 -0.0040118381    62.045278    61.687404    61.817834    51000.191 
18680000   -204414.22    1.6002993  0.001176593    61.780551    61.710109    61.720846    51019.197 
18685000   -204416.27    1.6084438 -0.0026997462    61.736037    61.855479    61.743748    51038.197 
18690000   -204448.52    1.6162097 0.0042876108    61.582406    61.872326    61.540706    51057.164 
18695000   -204542.02    1.6333534  0.010023835    61.817621    61.419492    61.491453    51076.143 
18700000   -204517.46    1.5876239 -0.0043979232    61.668433    61.669697    61.818131    51095.071 
18705000   -204482.85    1.6039207 0.0051504363    61.391615    61.838096    61.648254    51113.989 
18710000   -204494.61     1.625397 0.0016353562    61.797084    61.848967    61.414967    51132.979 
18715000   -204497.15    1.6176086 -0.00053643494    61.804382    61.616211    61.718039    51151.974 
18720000   -204316.56    1.6316583 0.00065138344    61.759844    61.849378    61.635866    51170.938 
18725000   -204414.62    1.5979087 -0.00074231462    61.484806    61.972249    61.538537    51189.906 
18730000   -204365.32    1.5933919 0.0053181933    61.411073    61.908503     61.66064    51208.869 
18735000   -204350.78    1.6137151 0.0067567974    61.732135    61.557349    61.617238    51227.826 
18740000   -204511.32    1.5448267 -0.0019798687    61.923939     61.31987    61.778189    51246.699 
18745000   -204502.26    1.6057564  0.003092475    61.635667    61.535347    61.658029    51265.642 
18750000   -204563.31    1.5976622 -0.0043677731    61.506492    61.783788    61.760095    51284.602 
18755000   -204577.78    1.6316457 0.0018566288     61.35813    61.901181    61.386488    51303.518 
18760000   -204726.02    1.5987865 0.0035272877    61.711377    61.348797    61.584205    51322.482 
18765000   -204602.88    1.5903794    -0.005402    61.505658    61.824748    61.583019    51341.483 
18770000   -204473.08    1.5783234 0.0010969269    61.630493    61.406945    61.665704    51360.498 
18775000   -204654.41    1.5817422 -0.00017757988    61.587524    61.574251    61.573865    51379.474 
18780000   -204513.29    1.6379149 -0.0016452888    61.633745     61.51083    61.818292    51398.444 
18785000   -204386.74    1.5948115 -0.0041626089    61.465839    61.746401    61.940475    51417.419 
18790000   -204428.14    1.5981468  0.003525524    61.729265    61.443649    61.667792    51436.429 
18795000   -204523.25    1.6015606 0.00010011789    61.482471    61.766997    61.712318    51455.376 
18800000   -204576.11    1.5889794 0.00099124892    61.744108    61.785174    61.494575    51474.356 
18805000   -204276.66    1.6116865 -0.0061332915    61.857124    61.754708    61.913562    51493.262 
18810000   -204411.16    1.5685071 0.00058230815    61.800438    61.725687    61.639208    51512.223 
18815000   -204342.09    1.5631007 0.0056002691    62.145729    61.448658      61.5241    51531.109 
18820000   -204311.27    1.5957356 0.0026048379    61.991443    61.755915    61.525736    51550.042 
18825000   -204353.71     1.594008 -0.002201648     61.80598    61.697689    61.784224    51569.064 
18830000   -204352.24    1.6064224 -0.0028252464    61.951786    61.589776    61.787841    51588.093 
18835000   -204406.83    1.5778387 -0.00020061455    61.853415    61.550814    61.668031    51607.051 
18840000   -204410.34    1.5770923 0.0043141528    61.726782    61.748838    61.488183    51625.984 
18845000   -204264.73    1.5961653 -0.00078917934    61.732905    61.964455    61.544311    51644.998 
18850000   -204194.46    1.6022261 -0.0042959124    61.497069    62.121204    61.829226    51663.969 
18855000   -204228.04    1.6146752 0.0006897852    61.752328    61.662829    61.711801    51682.931 
18860000   -204449.09    1.6369232 0.0038569612    61.675794    61.344345    61.781023    51701.903 
18865000    -204579.1     1.579449 -0.0044625536    61.734669    61.775073    61.579563    51720.864 
18870000   -204510.33    1.5902742 -0.00070400499    61.923503    61.646797    61.471463    51739.818 
18875000   -204528.91    1.5870657 0.0010331011    61.727263    61.791681    61.443234    51758.804 
18880000   -204550.22    1.6045593 -0.0038353098    61.767849    61.911048    61.526914    51777.824 
18885000   -204498.74    1.5640627 -0.0040906631    61.835492    61.658854    61.692064    51796.793 
18890000   -204485.41    1.6088919 0.0034515797    61.682947    61.737194    61.500762     51815.71 
18895000   -204524.24    1.5684131 -0.0024680303    61.707994     61.64028    61.629782    51834.679 
18900000   -204764.46    1.6339979 0.0079384427    61.689907    61.329205    61.463425    51853.723 
18905000    -204617.8    1.6236004 -0.0013469848    61.688488    61.529857    61.709651    51872.719 
18910000   -204581.79    1.6061374 9.2426111e-05    61.627976    61.461864    61.794725    51891.738 
18915000   -204688.66    1.5624099  0.002062083     61.45081     61.66793     61.53179    51910.772 
18920000   -204770.33    1.5641405 3.8596822e-05    61.515761    61.652143    61.565845     51929.72 
18925000   -204670.49    1.5959983 -0.0034527267    61.581215    61.652598    61.602365    51948.725 
18930000   -204756.12    1.5769292 -0.003352074    61.681022    61.757893    61.374363    51967.716 
18935000   -204615.08     1.591482 0.0009740837    61.473437    61.636607    61.606379      51986.7 
18940000   -204528.86    1.5763737 0.0037266047    61.741615    61.589858    61.526754    52005.665 
18945000   -204735.46    1.6055864 -0.00027218641    61.568151    61.590031    61.591769     52024.62 
18950000   -204589.78    1.6188594 0.0011124507    61.468596     61.76031    61.599905    52043.562 
18955000   -204615.13    1.6136273 -0.002853273    61.762901    61.458438    61.705053    52062.519 
18960000   -204593.83     1.585389 -0.0032844363    61.646404    61.663925    61.596378    52081.481 
18965000   -204703.46    1.5916746 0.0043262869    61.801567    61.351752    61.408459    52100.517 
18970000   -204590.37    1.5977955 -0.0058162042    61.581653    61.755929    61.655025    52119.532 
18975000    -204881.7    1.6250131 -0.0012364413    61.508379    61.605089    61.516645    52138.602 
18980000   -204730.85    1.6158112 0.00072848029    61.339201    61.580333    61.727817    52157.651 
18985000   -204623.31    1.6206235 -0.00063242886    61.362268    61.623486    61.693654    52176.678 
18990000   -204752.12    1.5685738 -0.0040758183    61.688098    61.505077    61.519706    52195.682 
18995000   -204731.36    1.6171009 0.00029222868    61.627389    61.797297    61.256921    52214.703 
19000000   -204614.36    1.5862021 -0.0020099002    61.875159    61.323657    61.595843    52233.218 
19005000   -204436.18    1.6030813 0.0050471677    61.585773    61.407873    61.708198    52251.176 
19010000   -204511.21    1.6164515 0.0019532405    61.514195    61.489859    61.652318    52270.117 
19015000   -204458.58    1.6342229  -0.00525678    61.604407    61.673633    61.777207    52289.041 
19020000   -204512.45    1.6386497 0.0033362339    61.813535     61.50802    61.409212    52307.907 
19025000   -204553.59    1.6198562 0.0037196931    61.831745    61.286179    61.380953     52326.83 
19030000   -204820.31    1.6215156 -0.0014849302    61.364951    61.604632    61.699448    52345.743 
19035000   -204571.47    1.5873945 -0.0060899556    61.539547    61.739417    61.655203    52364.712 
19040000   -204526.61    1.5980184 -0.0032782195    61.377889    61.611084     62.04715    52383.661 
19045000   -204713.23    1.6175548 0.00085264527    61.365533    61.644728    61.612395    52402.646 
19050000   -204778.21    1.5778266 0.0012155006    61.489145    61.613409    61.505185    52421.637 
19055000   -204658.55    1.6255593 0.0038497497    61.752357    61.364771    61.431087     52440.64 
19060000   -204494.29    1.5674846  0.002717234    61.580315    61.695061    61.313526    52459.584 
19065000   -204587.17     1.618175 -0.0063367138    61.753842    61.553987    61.655585    52478.623 
19070000   -204642.81    1.6578668 -0.0011031236    61.504393    61.911721    61.462104    52497.705 
19075000   -204631.31    1.5413522 0.00079439746    61.640452    61.498263    61.387549    52516.735 
19080000   -204685.33     1.568606 -0.0058805615    61.773644    61.669465    61.327359    52535.753 
19085000    -204628.7    1.6335069   0.00481426     61.45461    61.523133    61.566108    52554.702 
19090000   -204747.26    1.6102116 0.0032111025    61.376755     61.42104    61.533881    52573.626 
19095000   -204699.56    1.5887887 -0.0023257002    61.562602    61.645096    61.510062    52592.569 
19100000   -204611.89    1.6053593 -0.0016089209    61.466124    61.661723    61.581547    52611.497 
19105000   -204505.11    1.6211485 0.0031009471     61.71671    61.501749    61.459179    52630.471 
19110000   -204455.96    1.5907067 0.0078962094    61.485315    61.623792    61.338686    52649.442 
19115000    -204623.2    1.6018537 -0.0033042861    61.494387    61.653225    61.556279    52668.382 
19120000   -204931.62    1.6039725 -0.0010153631    61.239032    61.596821     61.48915    52687.329 
19125000   -204728.22    1.5856447 -0.00090799871    61.441849    61.541488    61.524416    52706.258 
19130000   -204813.21    1.6133759 0.0012876349    61.582798    61.384064    61.527756    52725.237 
19135000   -204841.68    1.5926858 -0.0014370492     61.69554    61.386723     61.45379     52744.26 
19140000    -204636.5    1.6063339 -0.0016936244    61.636092    61.810987    61.322814     52763.28 
19145000   -204762.12      1.60651 0.0075093259    61.350165    61.711209    61.404725    52782.252 
19150000   -204641.63    1.6071787 -0.0034445103    61.737211    61.757208    61.421433    52801.268 
19155000   -204601.09    1.6225387 0.0028072026    61.448165    61.500332    61.669081    52820.263 
19160000   -204573.35    1.5693017 0.0019290494    61.463382    61.505517    61.686019    52839.263 
19165000   -204489.68    1.6101759 -8.3422887e-05    61.506495    61.857356    61.621368    52858.286 
19170000   -204521.67    1.6001067 0.0011476762    61.708835    61.584903    61.509581    52877.292 
19175000   -204473.05    1.6401865 0.0022672517    61.572487    61.608895    61.627732    52896.252 
19180000   -204404.63    1.6545548 0.0068891665     61.66552    61.703234    61.336916    52915.244 
19185000   -204613.09    1.6268559 -0.0034842749    61.816496     61.65355      61.4965    52934.193 
19190000   -204742.93    1.5795222 -0.0030458529    61.702951    61.563011    61.482907    52953.176 
19195000   -204664.85    1.5975901 0.00064316456    61.615712    61.536618     61.60629    52972.218 
19200000   -204594.52    1.6138028 -0.00052224178    61.657933    61.528907    61.632926    52991.263 
19205000   -204615.79    1.5752582 0.0037471848    61.591707    61.399216    61.480018    53010.304 
19210000   -204641.59    1.5748092 -0.0010157039    61.610956    61.608532    61.647776    53029.347 
19215000   -204704.96    1.5994627 0.00023338499    61.488682     61.46984     61.77602    53048.404 
19220000      -204625    1.5785409 0.0012750061    61.715261    61.737603    61.366702    53067.372 
19225000   -204837.47    1.5728434 0.0034631209    61.623973    61.548541    61.346555    53086.302 
19230000   -205004.98    1.5867511 0.0013705753    61.636585     61.54681    61.239842    53105.306 
19235000   -204777.21    1.5770806 -1.2314555e-05    61.661122    61.438628    61.432042    53124.329 
19240000   -204816.74    1.5849321 0.0022032635    61.610654    61.343426    61.567517    53143.372 
19245000   -204891.13    1.6203446 -0.0046924992     61.50219    61.578486    61.614267    53162.452 
19250000   -204914.66    1.6423616 6.4170228e-05    61.409188    61.457372    61.692276     53181.48 
19255000   -204686.55    1.5704494   0.00299772    61.803507    61.400708    61.258027    53200.415 
19260000   -204798.79    1.6279715 -0.0095386669    61.751366    61.482006     61.70187    53219.438 
19265000   -204765.15    1.5879203 0.0021845749    61.673571    61.245145    61.592902    53238.448 
19270000   -204695.73    1.6073505 0.0019264383    61.473823    61.510649    61.549804    53257.474 
19275000   -204754.81    1.6407213 -0.0015461467    61.344035    61.559629    61.625173    53276.474 
19280000   -204664.42    1.5961976 0.0075435643    61.416475    61.565696     61.45683     53295.43 
19285000   -204386.72     1.619056 -0.005811889    61.712275    61.557966    61.796648    53314.408 
19290000   -204608.08    1.6409617 -0.0012405322    61.457541    61.662061    61.616341    53333.359 
19295000   -204922.75    1.6244388 -0.0019881119    61.493795     61.36986    61.705831    53352.417 
19300000   -204967.09    1.6276209 0.0055534414    61.359161    61.372897    61.503997    53371.446 
19305000   -204537.52     1.610358 -0.0057144907    61.491792    61.622721    61.776354    53390.476 
19310000   -204742.19    1.5834988 0.00049736373    61.375359    61.618928    61.475206    53409.498 
19315000   -205021.01    1.5892599 0.0028380352    61.574811    61.300543    61.504549    53428.533 
19320000   -204864.28    1.6196761 0.0085145983    61.493932    61.573424    61.101711    53447.559 
19325000   -204950.77    1.6428627 -0.0030799021     61.51763    61.351672    61.717585    53466.583 
19330000    -204704.2    1.5505243 -0.004522736    61.689378    61.670582    61.465234    53485.688 
19335000   -204889.32    1.5950732 0.0045987661    61.727973    61.400315    61.352559    53504.744 
19340000   -204798.15    1.6387483 0.00065827166    61.526063     61.53016    61.469917     53523.78 
19345000   -204808.96    1.5686459 0.00031670429    61.610737    61.329543     61.49749    53542.816 
19350000   -204942.14    1.5767212 -0.0022699603    61.708346    61.477519    61.345946     53561.85 
19355000   -205008.59    1.5987291 0.0017253617      61.5521    61.369177    61.437523    53580.836 
19360000    -204811.5    1.5760251 -0.0027890832    61.819695    61.695937     61.21267    53599.776 
19365000   -204830.97    1.5655083 -0.00096989477    61.483445    61.755405    61.332356    53618.765 
19370000   -204809.32    1.6203711 0.0019525481    61.456487    61.608486    61.441023    53637.753 
19375000   -204820.46    1.5629934 -0.0013266873    61.560852    61.664319    61.327752    53656.739 
19380000   -204814.12    1.5820055 -0.0015645062    61.624638    61.409982    61.562153    53675.707 
19385000   -204828.38     1.594455 0.0049154664    61.494825    61.306431    61.621625    53694.618 
19390000   -204709.02    1.6020896 0.0013207234     61.56996    61.516803    61.590193    53713.611 
19395000   -204873.97    1.6619146 -0.00050524104    61.420102    61.545305    61.823669    53732.677 
19400000   -204765.94    1.6131304 -0.0043230897    61.543078    61.812295    61.528744    53751.665 
19405000   -204622.81    1.5558995 -0.00083608386    61.548843    61.948771    61.374281    53770.669 
19410000   -204767.55    1.5816058 0.0016545153    61.620645    61.397804     61.65642    53789.646 
19415000   -204689.54    1.6379715  -0.00270598      61.6008    61.495122    61.686359    53808.637 
19420000   -204525.46    1.5570684 -0.0034375271     61.70435    61.388417    61.857094    53827.596 
19425000    -204671.6    1.6352795 0.0012506239     61.64191    61.528387    61.557315    53846.618 
19430000   -204675.24    1.6249025 -0.0054524451    61.886618    61.476195     61.49379    53865.584 
19435000   -204741.94    1.6258239 0.0032128594    61.613106    61.335342    61.732686    53884.622 
19440000   -204709.35    1.5536201 -0.00028586807     61.57003     61.32946    61.637692    53903.626 
19445000   -204702.74    1.5821183 0.0015470912    61.645945    61.485547    61.410526    53922.611 
19450000    -204867.4    1.6050053 -0.0014129488    61.561044    61.342045    61.662797    53941.551 
19455000   -204805.97    1.5584943 -0.003440724    61.570642    61.339365    61.711377    53960.482 
19460000   -204752.56    1.5518585 0.0010835944    61.617852    61.671922    61.186653    53979.494 
19465000    -204699.4    1.6646911 -0.00069298515    61.628169     61.70209    61.353236    53998.409 
19470000    -204801.3    1.5824303 -0.001646829    61.670797    61.513913    61.491308    54017.391 
19475000   -204694.82     1.592449 -0.007017772    61.916109    61.455135    61.448165    54036.309 
19480000   -204685.85    1.6697505 -0.00099770273    61.549364    61.602334    61.721687    54055.234 
19485000      -204574    1.5941484 -0.00040386479    61.560591     61.72298    61.627619    54074.206 
19490000   -204591.96    1.5832985 -0.0017126958    61.578588    61.636615    61.611132    54093.112 
19495000   -204542.86    1.6115755 -0.00063609398    61.696472    61.471981    61.684267    54112.108 
19500000    -204685.9    1.5931422 -0.0011320725    61.620948    61.576111    61.569094    54131.046 
19505000   -204966.25    1.5622162 -0.0021916344    61.361335    61.733865    61.498758    54150.108 
19510000   -204871.59    1.6187088 0.00074152127    61.283322    61.747627    61.574912    54169.065 
19515000   -204720.11     1.604692 -0.00082651647    61.552315    61.329935    61.880825    54188.015 
19520000    -204539.8    1.5863008 -0.010626232    61.709372    61.680674    61.896334    54207.002 
19525000   -204544.24     1.611309 0.0058955629    61.306716    61.463697    61.966664     54225.95 
19530000   -204434.56    1.6230677  0.005991688    61.476083     61.68274    61.774183    54244.924 
19535000   -204482.75     1.581419 -0.0021824418    61.718232    61.679157    61.661161    54263.872 
19540000   -204387.57    1.6182293 -0.00041120598    61.773302    61.556362    61.849453     54282.87 
19545000   -204381.72    1.6030564 -0.0026742985    62.059349    61.587084    61.656066    54301.875 
19550000   -204355.13    1.5706833 0.00078699135    61.965634    61.703229    61.463329    54320.807 
19555000   -204440.01    1.6205415 -0.003135637    61.741173    61.897738    61.489886    54339.784 
19560000   -204558.91    1.6248332 0.0014047103    61.543982    61.532658    61.796544    54358.753 
19565000   -204566.07     1.580478 0.00084021258    61.496025    61.588875    61.782655    54377.729 
19570000   -204668.91    1.6179022 -0.0017261289    61.645977    61.701202    61.586369    54396.707 
19575000   -204467.46    1.6159293 0.0038412776    61.626807     61.37214    61.751768    54415.729 
19580000   -204674.42    1.5610211 0.0017858761    61.688078    61.451868      61.6302    54434.775 
19585000   -204554.53    1.5706838 -0.0014818246    61.759473    61.478123    61.578446    54453.814 
19590000   -204410.08     1.565146 0.0044102506    61.765963    61.524503    61.491252    54472.765 
19595000   -204727.91    1.6035744 -0.0022404395    61.559908    61.626002    61.663502    54491.761 
19600000   -204633.83    1.5918851 0.00040568648    61.486028    61.487564    61.846139    54510.722 
19605000   -204710.59     1.604867  0.003327201    61.471391    61.595066    61.588408    54529.722 
19610000   -204757.31    1.5935788  0.001840956    61.598692    61.443865    61.641838    54548.763 
19615000   -204858.66    1.6171096 -0.0018791093    61.738842    61.423259    61.530846    54567.855 
19620000   -204801.01    1.5540702 0.0037421093    61.547501    61.436215    61.589815      54586.9 
19625000   -204689.73    1.6034552 -0.0032343883    61.704768    61.573643    61.645156    54605.953 
19630000   -204736.06    1.6405865 0.0033550786    61.632535    61.493774    61.621433    54624.938 
19635000   -204706.13    1.5958105  0.005259892    61.420897    61.762459    61.337712    54643.883 
19640000   -204730.89    1.5634155  -0.00768758     61.74448    61.689127    61.451379    54662.798 
19645000   -204940.87    1.6307698 0.0021447447    61.619545    61.514629    61.340022    54681.711 
19650000   -204698.77    1.5667395 0.0077585158    61.462792    61.533029    61.598287    54700.671 
19655000   -204652.47    1.6231979 -0.0047477626     61.65459    61.506978    61.736262    54719.669 
19660000   -204566.14    1.5943481 0.00018363532    61.705809     61.37729    61.766117    54738.688 
19665000   -204846.15    1.5775631 0.0063589503    61.235918    61.611581    61.620454    54757.687 
19670000   -204719.96    1.5773552  0.007268034    61.582294    61.628633    61.393498    54776.702 
19675000   -204818.05    1.5851914 -0.0040854234    61.578747    61.728604    61.557504    54795.712 
19680000   -204717.68    1.6035766 0.0030637451    61.724966     61.66486    61.276258    54814.728 
19685000   -204635.46    1.6100793 -0.002236503    61.717404    61.643086    61.438104    54833.697 
19690000   -204799.74     1.610213 -0.0031691918      61.8148    61.560423    61.404674    54852.724 
19695000   -204766.24    1.5709074 -0.0025317555    61.648077    61.731112    61.287287    54871.677 
19700000   -204487.12    1.5970335 0.0032795964    61.878048    61.340911     61.54138     54890.69 
19705000   -204680.43    1.6133403 4.7308909e-05    61.649028    61.669713    61.437851    54909.751 
19710000   -204639.56    1.6029272 -0.0018450196    61.722772    61.470354    61.735811    54928.792 
19715000   -204382.48    1.5795434 0.0019079103    61.767885    61.689457    61.449952    54947.795 
19720000    -204482.8    1.5980073 -0.0022292248    61.765749    61.581448    61.806917    54966.796 
19725000   -204636.47    1.5646203 0.0014612745    61.676948      61.6492    61.604406    54985.828 
19730000   -204887.77     1.593527 -0.0021404427    61.536046    61.686471    61.590298    55004.844 
19735000   -204706.86    1.5902484 -0.0015255859    61.846152    61.570748     61.46742    55023.789 
19740000   -204772.83    1.6222575 0.0022655935    61.519335    61.681665    61.395723    55042.723 
19745000   -204629.38    1.6132338 -0.005917191    61.642209    61.626039    61.697183    55061.677 
19750000   -204635.44    1.6254352 0.0070363906    61.246673    61.638888    61.671779    55080.612 
19755000   -204720.09    1.6015071 -0.0058068931    61.609594    61.787708    61.586243    55099.539 
19760000   -204610.76    1.6319315 -0.0072064175    61.737612    61.910903    61.483213    55118.557 
19765000   -204678.63    1.6222247 -0.0031735329    61.593425    61.950032    61.581951    55137.587 
19770000   -204511.96     1.608106 0.0012274531    61.623136    61.907585    61.387765    55156.576 
19775000   -204338.44    1.5790946 -0.0010063324    61.729314    61.706514    61.749016    55175.605 
19780000   -204543.93    1.5833045 -0.0031925197    61.763702    61.757977    61.447026    55194.618 
19785000   -204478.07    1.6193334 0.0050160941    61.727133     61.67244    61.355909    55213.565 
19790000   -204512.16    1.6020349 -0.006207421    61.704969    61.876097    61.585089    55232.512 
19795000   -204557.49    1.5943426 -0.00020964853    61.580236    61.839344    61.551895    55251.493 
19800000   -204491.67    1.5526819 -0.0010975978    61.688136    61.556754    61.764693    55270.474 
19805000   -204428.76    1.6142434 -0.0018738977    61.734984    61.628276    61.815545    55289.496 
19810000   -204357.39    1.6165638 -0.0046956231    61.739373    61.649156    61.750637    55308.541 
19815000    -204637.5    1.6219095 0.0011851092    61.651271     61.64032    61.537024     55327.54 
19820000   -204604.62    1.6079359  0.005886344    61.548867    61.559256    61.593332    55346.545 
19825000   -204790.73    1.6249557  0.002553001    61.625242     61.44674    61.563538    55365.569 
19830000   -204720.61    1.6422865 -0.0017206812    61.739915    61.415503    61.667817    55384.725 
19835000   -204741.57    1.5788882 -0.0054362303    61.678592    61.601676    61.799602    55403.786 
19840000   -204672.58    1.6011761 0.0035389881    61.709447    61.511113    61.704458    55422.759 
19845000   -204597.39    1.5350201 0.0020632958    61.602104    61.678176    61.634854    55441.696 
19850000   -204657.14    1.6025605 -0.00032528942    61.565893    61.656157    61.651247    55460.599 
19855000    -204755.9    1.5335044 0.0021375678    61.392691    61.583565    61.706588     55479.62 
19860000   -204603.59    1.6079532 0.0060564209    61.674277    61.450047    61.605484    55498.606 
19865000   -204677.17    1.6090163 -0.0025953588    61.534222    61.661685    61.604827    55517.683 
19870000   -204681.38    1.5811271 0.0032866358    61.425289    61.497788    61.759541    55536.717 
19875000   -204667.63    1.5963872 0.0049657707    61.562768    61.504618    61.702704    55555.714 
19880000   -204816.24    1.6240978 -0.0019123105    61.640352    61.496944    61.599369    55574.765 
19885000   -204357.67    1.5679837 -0.00013459717    61.523211    61.731558    61.582579    55593.818 
19890000   -204784.34    1.5402176 -0.00053931188    61.579489    61.659256    61.413388    55612.827 
19895000   -204745.63     1.597327 0.0036472987    61.463531    61.532451    61.482542    55631.848 
19900000   -204838.89    1.6254541 0.0020004309    61.420854    61.595537    61.520504    55650.892 
19905000   -204637.95    1.6284757 -0.0038698591    61.596673     61.70573    61.703136    55669.919 
19910000   -204589.95    1.6360652 -0.0016549907    61.617246    61.684546    61.682612    55688.894 
19915000   -204389.05    1.6240269 0.0062017483    61.562404    61.638884    61.501581    55707.868 
19920000   -204551.86    1.6388569 -0.00099242824    61.698957    61.541032     61.56123    55726.886 
19925000   -204526.03    1.5646365 -0.00082778825    61.557731     61.61191    61.655124    55745.954 
19930000   -204851.39    1.6385239 -0.0020937522    61.396104    61.412906    61.837568    55764.954 
19935000   -204559.41    1.6242719 -0.0030585116    61.472216    61.554288    61.943382    55783.991 
19940000   -204597.17    1.5758214 -0.0016966887    61.545479    61.505224    61.796909    55802.959 
19945000   -204468.41    1.5866835 0.0010636165    61.745822    61.354619    61.818559     55821.91 
19950000   -204464.47    1.6250555 -0.0013955001    61.886924    61.633615    61.653837    55840.947 
19955000   -204480.85    1.6138819 0.0001693545    61.745319    61.573929    61.694625    55859.953 
19960000   -204323.42    1.5800552  0.001156635      61.5172    61.838717    61.816745    55878.908 
19965000   -204156.26     1.630352 0.0079223386    61.771365    61.794366    61.538801    55897.847 
19970000   -204389.71    1.6306164 0.00016062111    61.831531    61.853274     61.52618     55916.78 
19975000   -204407.08    1.5969563 -0.0012636192    61.547726    61.817473    61.826308    55935.751 
19980000   -204501.05    1.6160781 -0.002521315    61.435277    61.780622    61.871467    55954.777 
19985000   -204306.25    1.5940599 -0.0028282223    61.739558    61.754959    61.802156     55973.72 
19990000   -204377.73    1.6290641 0.0040279488    61.765974    61.774285    61.381532    55992.749 
19995000   -204280.87     1.621669 0.0023410413     61.91243    61.856965    61.398314    56011.744 
20000000    -204441.3    1.5678852 -0.0033141395    61.836891    61.694476    61.678241    56030.667 
20005000   -204258.75    1.5516351 -0.0043267214    61.525737    61.995208    61.642082    56049.694 
20010000   -204280.14    1.5806848 0.0086368506     61.60037    61.569105    61.548615    56068.653 
20015000   -204207.07    1.6036765  0.002244569    61.518268    61.957849    61.562056    56087.632 
20020000   -204240.31    1.6174728 -0.0048007654    61.716794     61.85813    61.649745    56106.644 
20025000   -204453.88    1.6103733 -0.0027887169    61.541457    61.795687    61.816346    56125.652 
20030000   -204357.26    1.5829789 -0.00056598049    61.696202    61.517353    61.786932    56144.633 
20035000   -204281.08    1.6658186 0.00056060825    61.537311    61.749489    61.808686    56163.648 
20040000   -204300.46    1.5713841 0.00083016212    61.577299    61.864204    61.777592    56182.603 
20045000   -204322.18    1.6403548 -0.001297227     61.58682    61.828801    61.748187    56201.633 
20050000   -204381.84    1.5959453 -0.0040366816    61.672837    61.816746    61.673312    56220.681 
20055000    -204522.1    1.6336397   0.01389058    61.281961    61.554673    61.461694    56239.645 
20060000   -204579.83    1.5519241 -0.0048441136    61.422705    61.848424    61.803584    56258.617 
20065000   -204357.57    1.6285329 -0.00041799294    61.568865    61.525862    61.970489    56277.658 
20070000    -204596.3    1.5890284 0.0027353984     61.42198    61.736092    61.616438    56296.671 
20075000   -204537.25    1.5943211 -0.00014110703    61.508271    61.866836    61.511349    56315.592 
20080000   -204464.97    1.5809477 -0.0012162672    61.408174    61.955529    61.631221     56334.54 
20085000   -204334.16    1.6124604 0.0011319231    61.538429    61.659503    61.704126    56353.495 
20090000   -204342.22    1.6263453 0.00060102453     61.65869    61.666531    61.565682    56372.476 
20095000   -204378.91      1.58214 -0.002338327    61.656331    61.870946    61.649936    56391.517 
20100000   -204329.19    1.5999365 -0.0027808605    61.775788    61.787818    61.641421    56410.488 
20105000   -204403.26    1.6080936 -0.0024929409    61.752763    61.806387    61.563933    56429.414 
20110000   -204328.19    1.5753356 -0.0065319225    61.953003    61.607126    61.883888     56448.35 
20115000   -204295.95    1.5930016 0.00026105887    61.726344    61.685117    61.741732    56467.276 
20120000   -204477.84    1.6011941 0.0053733695    61.677042    61.402755    61.673527    56486.225 
20125000   -204389.75    1.5863949 -0.001436549    61.787497    61.669731    61.543501    56505.188 
20130000   -204271.75      1.57371 -0.00036624232    61.686658     61.49825    61.939027    56524.171 
20135000   -204351.12     1.590742 -0.0049629339    61.667332     61.61619    61.886586    56543.146 
20140000   -204309.57    1.6083334 -0.0077445304    61.676721     61.98636      61.6802    56562.155 
20145000   -204307.74    1.6390498 0.0014095557    61.670394    61.453989    61.827976    56581.131 
20150000   -204407.15    1.5833311 0.0077591609    61.618665    61.539918    61.514628    56600.105 
20155000   -204287.99    1.5830457 -0.0051776001    61.823582    61.878407    61.584419    56619.071 
20160000   -204456.66    1.6116336 0.0027099469    61.826594    61.569294    61.506002    56638.023 
20165000   -204526.01    1.6199974 0.0049166238    61.421211    61.647729    61.590894    56657.006 
20170000   -204443.08    1.6583308 0.0021683585    61.737287    61.606392    61.482591     56676.01 
20175000   -204512.05    1.6419909 -0.0021071165    61.896174    61.655347    61.345202    56695.032 
20180000   -204667.18    1.5944448 0.00027099955     61.56447    61.530611    61.592704    56714.074 
20185000   -204634.96    1.5512152 -0.00070203786    61.882898     61.36261    61.459065    56733.172 
20190000   -204670.73    1.5752252 0.0037080932    61.649942    61.667427    61.364932    56752.181 
20195000   -204527.57     1.563319 -0.0066375493    61.840476    61.381615    61.831035    56771.184 
20200000   -204578.29    1.5909395 0.00062587178    61.823016    61.623312    61.373709    56790.159 
20205000   -204604.44    1.6263519 0.0047745181    61.385573    61.792957    61.450572    56809.102 
20210000   -204609.69    1.5874002 -0.0013557452    61.468091    61.876165    61.506897    56828.042 
20215000   -204550.63    1.6094118 0.0034315455    61.573118    61.418878     61.66094    56847.035 
20220000   -204686.86    1.5495891 -0.0039675862    61.584608    61.587441    61.694034    56866.005 
20225000   -204594.16    1.6436586 0.0023830107     61.79306    61.379827    61.495395    56885.022 
20230000   -204582.74    1.5749869 0.00080378224    61.705176    61.504021      61.5051    56904.088 
20235000   -204678.13    1.6173358 0.0037824704    61.730506    61.416595    61.460166    56923.117 
20240000   -204714.15    1.6099264 0.00081104883    61.721428     61.59454    61.444908    56942.162 
20245000   -204487.27    1.5986775 -0.0014451465    61.694435     61.64349     61.67683     56961.16 
20250000   -204530.11    1.5966133 -0.0021731718    61.751609    61.799112      61.4314    56980.119 
20255000   -204487.89    1.5601105 -0.0027144666    61.633277    61.669632    61.691831    56999.092 
20260000   -204483.28    1.6449016  0.005623841     61.82842    61.485899    61.434897    57018.148 
20265000   -204478.18    1.6230188 -0.0014874822    61.941642     61.55591    61.514516    57037.117 
20270000   -204474.47    1.6203714 0.0044476022    61.721712    61.667518    61.538915    57056.063 
20275000   -204462.11    1.6179826 -0.0073208385    61.644586    61.800135    61.750146    57075.037 
20280000   -204597.23     1.637884 -0.00085449897    61.788026    61.628412      61.4091    57094.038 
20285000   -204541.26    1.6255176 0.0046335481     61.89599    61.241282    61.554935    57113.096 
20290000   -204517.47    1.5524933 -0.0050014209    61.856357    61.515091    61.760479    57132.152 
20295000   -204438.86    1.6091364 -0.0012994765     61.69833    61.919309    61.389964    57151.197 
20300000   -204459.58    1.5951506 -0.0039032954     61.65872    61.934975    61.649771    57170.193 
20305000   -204490.59    1.5750578 -0.0027260594    61.679228    61.756232     61.60936    57189.247 
20310000   -204361.87    1.6415112 0.0013417379    61.783055    61.556359    61.796229    57208.312 
20315000   -204410.43    1.5959775 0.0013882302    61.746671    61.623001    61.619167    57227.378 
20320000   -204502.06    1.6330378 -0.0057674706    61.714776    61.686881    61.708894    57246.374 
20325000   -204517.36    1.5929172 0.00026868597    61.849252    61.518281    61.469897    57265.369 
20330000   -204579.87    1.5924012 0.0021027122    61.537992    61.298155    61.799227    57284.433 
20335000   -204561.98    1.5723286 -0.0020542631     61.78986    61.436376    61.490626    57303.456 
20340000      -204401     1.552165 -0.0066454511     61.86718    61.540457    61.706916    57322.452 
20345000   -204438.33    1.6056899 0.0016983705    61.623998    61.555725    61.678478    57341.468 
20350000   -204373.18    1.5549802  0.002237492     61.61221    61.457816    61.843178    57360.454 
20355000   -204524.86    1.6269977 0.0048691841    61.469944    61.670032    61.701899    57379.421 
20360000   -204550.24    1.5758684 -0.00095312219    61.502668    61.913546    61.441205     57398.37 
20365000   -204536.32    1.5840636 -0.0012377829    61.673348    61.725938    61.479758     57417.39 
20370000   -204474.16    1.5870818 0.0029704018    61.653158    61.729192    61.506362    57436.387 
20375000    -204409.7    1.5927276 -0.0087821632     61.78658    61.751781    61.782093    57455.397 
20380000   -204538.55    1.6091999   0.00536497    61.660533    61.651022    61.618221    57474.401 
20385000   -204558.56    1.5899049 -0.00081918321    61.723647    61.593829    61.571196    57493.394 
20390000   -204508.73    1.5478671 -0.001194785    61.660748    61.523804    61.828532    57512.445 
20395000   -204620.81    1.6400437 2.6950079e-05    61.580695    61.711454    61.668459    57531.419 
20400000   -204503.68    1.6111825 0.00091526809    61.606513    61.811813    61.591306    57550.401 
20405000   -204401.75    1.6096727 -0.0058681082    61.834455    61.816541    61.581091    57569.318 
20410000   -204550.81    1.6241417 0.0022012386    61.830476    61.575415    61.495467    57588.284 
20415000   -204678.36    1.5626618 -0.002678282    61.665982    61.529817    61.627043    57607.319 
20420000   -204718.41    1.6048338 0.0011903273      61.4324    61.511408    61.716081    57626.309 
20425000   -204602.48     1.597887 -0.0055037957    61.645621    61.690884    61.737853    57645.234 
20430000   -204679.99    1.5436599 -0.0031258201    61.576071    61.721878    61.646852    57664.176 
20435000   -204512.08     1.587314  0.000315716    61.799459    61.668191    61.370606    57683.149 
20440000   -204634.66     1.559848 0.0019184278    61.716438    61.567072    61.392132    57702.133 
20445000   -204495.18    1.5869819 -0.0037192263     61.63564     61.74007    61.555674    57721.123 
20450000   -204540.32    1.5688179 0.0015140353    61.710767    61.552166    61.568055    57740.144 
20455000      -204614    1.5852299 -0.0019592499    61.506843    61.503349    61.714484    57759.241 
20460000   -204470.35    1.5929205 0.0019855403    61.657873    61.562001    61.692139    57778.276 
20465000   -204607.03    1.6087331 0.0026154548     61.82424    61.406838    61.644639    57797.272 
20470000   -204486.46    1.6201742 0.0041995343    61.648112    61.246986    61.943966    57816.244 
20475000   -204446.08    1.5865103 -0.0019502133    61.892411    61.521264    61.658395    57835.197 
20480000   -204494.99    1.6015251 -0.0003662824    61.745864     61.58176     61.78231    57854.152 
20485000   -204380.12    1.5960329 0.0018630868    61.519067    61.597044    61.778567    57873.104 
20490000   -204718.93    1.5983916 -0.0044824789    61.563828     61.71617    61.684837    57892.142 
20495000    -204379.1    1.5675966 0.00050012445    61.595403    61.598774    61.926701    57911.114 
20500000   -204568.59    1.6001418 0.0020605519    61.772367    61.586338    61.523462    57930.104 
20505000   -204408.97    1.5830228 -0.0044052719    61.822606    61.830125    61.576743    57949.021 
20510000   -204469.11    1.6110503 -5.4925739e-05    61.815091    61.590921    61.689093    57967.998 
20515000   -204586.59    1.6291028 -0.0012567631    61.506667    61.517604    61.809029     57987.01 
20520000   -204505.18     1.589632 -0.00016512918    61.620694    61.405394    61.847969    58005.983 
20525000   -204647.12    1.5836448 -0.010924007    61.661344    61.787877    61.716606    58024.919 
20530000   -204730.87    1.5784152 0.00025540445     61.86205    61.397986    61.406763    58043.904 
20535000    -204773.8    1.6217922 0.0051194484    61.661383    61.512015    61.270171    58062.919 
20540000   -204726.63    1.5785544 -0.0029422942    61.650343    61.496877    61.702802    58081.897 
20545000   -204617.84    1.6153265 0.0031144907    61.551536    61.464682    61.660755    58100.871 
20550000   -204482.92    1.5733496 0.0041738342    61.644096    61.532079    61.690336     58119.94 
20555000   -204499.24    1.6082939 -0.00018997948    61.373207    61.957913    61.696856    58138.921 
20560000   -204523.71    1.5732518 0.0038937021    61.787452    61.494287    61.593522    58157.913 
20565000    -204593.7    1.6261615 0.0015011015    61.606711    61.574309    61.633957    58176.896 
20570000   -204554.08    1.6357641 0.0011735179    61.646804    61.574268    61.649061    58195.814 
20575000   -204542.32    1.6393859 -0.0022253092    61.537175    61.850155    61.700348    58214.779 
20580000   -204393.96    1.6328388 0.0019674358    61.723138    61.811964    61.444763    58233.822 
20585000   -204420.57    1.5964715 -0.0021632363    61.862305    61.674188    61.513226    58252.809 
20590000   -204538.87    1.6176327 -0.0013120214    61.716551    61.509051    61.706649    58271.737 
20595000   -204376.25    1.5756291 -6.2082437e-05    61.785621    61.683718    61.531842    58290.748 
20600000   -204417.65    1.5840815 -0.00021926325    61.663034    61.594452    61.735293    58309.778 
20605000   -204519.66    1.6260922 0.0029752204    61.601233    61.339489    61.759919    58328.748 
20610000   -204698.21    1.6277562 -0.0042029117    61.746967    61.371742    61.723772    58347.721 
20615000   -204497.53    1.5811603 0.0022302401    61.643587    61.500458    61.716003    58366.679 
20620000   -204521.75    1.5856802 0.0076276422    61.580626    61.282935    61.720856    58385.678 
20625000    -204576.4    1.6007154 -0.00061552637    61.614324    61.385845    61.749406    58404.734 
20630000    -204596.5    1.5316312 0.0046005391    61.579641    61.412222    61.699592    58423.767 
20635000   -204537.17    1.6317997 -0.0024378391    61.552863    61.699164      61.8135    58442.753 
20640000    -204414.2    1.6321795  0.003534469    61.654562    61.677323    61.625716     58461.72 
20645000   -204359.66    1.6217834 0.0032794369    61.772622    61.503176    61.704632    58480.678 
20650000   -204489.61    1.5892787 0.0013831308    61.566229    61.685267    61.634261    58499.698 
20655000   -204471.66    1.5997391 0.0011671286    61.877188    61.535903     61.44633    58518.677 
20660000   -204405.89    1.6201749 -0.0038863393    61.840597    61.598096    61.714433    58537.706 
20665000   -204408.25    1.6404862 -0.0041764798     62.07672     61.43242    61.737788    58556.726 
20670000   -204418.17    1.6249658 0.00081717006    61.580151    61.676146    61.653266    58575.732 
20675000   -204377.63    1.5958598 0.0015551825    61.776597    61.429309    61.695611    58594.649 
20680000   -204429.84     1.563041 -0.007631936    61.863911    61.723446    61.582987    58613.587 
20685000   -204425.33     1.599563 0.0025047623    61.459863     61.60907    61.843348    58632.587 
20690000   -204346.01    1.6300229 0.0048698413    61.452118    61.693841    61.834304    58651.578 
20695000   -204412.07    1.6237373 -0.0062061025    61.835413    61.660392    61.730822    58670.529 
20700000   -204368.96    1.6095812 -0.0057055315    61.772266    61.532969    61.933916    58689.483 
20705000   -204148.78    1.6567292 -3.3800465e-05    61.509166    61.647372    61.955693    58708.421 
20710000   -204370.11    1.6287666 -0.0011751939    61.495273    61.507443    62.084577    58727.442 
20715000   -204464.85    1.5750397 0.00052719388    61.786395      61.6887    61.509719    58746.399 
20720000   -204598.33    1.5873818 -0.0054241594    61.600188    61.850051    61.593162    58765.356 
20725000   -204504.13    1.5773432 -0.00015256036     61.53638     61.85093    61.566359    58784.354 
20730000   -204615.17    1.6045942  0.001941673    61.432919     61.67679    61.718016    58803.356 
20735000   -204463.09     1.588537 -0.00087276347    61.523767    61.789348    61.705764     58822.28 
20740000   -204433.98    1.5514286 -0.0032803113    61.699603    61.756111    61.755493    58841.268 
20745000   -204308.84    1.5781884 0.00015208392    62.013127      61.7092    61.490562    58860.209 
20750000   -204415.95    1.6103384 -0.0022840289    61.698713     61.77064    61.613855    58879.216 
20755000    -204494.5    1.6592972 0.0008855818    61.612313    61.835993    61.604867    58898.223 
20760000   -204512.47    1.5889618 0.00029602629    61.633788    61.588667    61.730444    58917.164 
20765000   -204413.94    1.6013302 -0.0059503198    61.784173    61.717965    61.639511     58936.15 
20770000   -204496.83     1.646904 0.0047850017    61.496602    61.591618    61.679691    58955.083 
20775000   -204390.19    1.6259216   0.00142716    61.530618    61.806822    61.645079    58973.991 
20780000   -204385.74    1.5867325 -0.0026778192    61.641012    61.757736    61.823444     58992.94 
20785000    -204424.2    1.5558971 0.0053494649    61.647969    61.717762    61.498082    59011.881 
20790000   -204356.48    1.6019534 0.0039289091    61.540641    61.805936    61.605848    59030.795 
20795000   -204541.71    1.5811497 -0.003488846    61.496683    61.782359    61.676086    59049.767 
20800000   -204430.94    1.6468545 0.0043926937    61.743317    61.545531    61.490014    59068.778 
20805000   -204549.42     1.558815 0.0017891268    61.698254    61.434961    61.683589    59087.806 
20810000   -204670.55    1.5673423 0.0012139296    61.839576    61.488599    61.500665    59106.811 
20815000   -204532.66    1.5878279 -0.0039811882    61.996553    61.561572     61.52458    59125.913 
20820000   -204468.66    1.5976361 -0.0042078968    61.923344    61.772603    61.585502    59144.891 
20825000   -204672.23    1.5906394 0.0052394756    61.673828    61.680042    61.533655    59163.953 
20830000   -204476.76    1.6186089 -0.0036741443     61.78449    61.735881     61.61494    59182.981 
20835000   -204395.62    1.6057099 -0.00073409014    61.808465    61.550864    61.743705     59202.04 
20840000   -204288.72    1.6495227 -0.0051934759      61.7828    61.795308    61.748035    59221.106 
20845000   -204459.38    1.5983235 -9.0010623e-05    61.776546    61.717136    61.518362    59240.078 
20850000   -204409.38    1.5670091  0.005067893     61.82558    61.440814    61.626573    59259.026 
20855000   -204308.97     1.653098 -0.0026846051    61.723647    61.685993    61.940823    59277.988 
20860000   -204234.94    1.6069702 0.00086940784    61.537993    61.760998    61.823132    59296.956 
20865000   -204374.31    1.5809857 0.00049822291    61.618336    61.807161    61.702635    59315.901 
20870000   -204501.53    1.5586513 0.0011388674    61.452016    61.925308     61.56355    59334.912 
20875000   -204497.11    1.6124998 -0.0041643704    61.394833    61.974364    61.669497    59353.926 
20880000   -204531.18    1.6362159 -0.0048067213    61.530815    61.761779    61.692741    59372.977 
20885000   -204661.05    1.5976351 -0.00081218099    61.501814    61.585103    61.620801    59392.043 
20890000   -204562.29    1.6186938 0.0039453039    61.495963      61.4869     61.69919    59411.073 
20895000   -204685.24    1.6302189 0.0023291293    61.697738    61.333274    61.641373    59430.101 
20900000   -204622.28    1.6246482 -0.0021655909    61.589217    61.624806    61.564653    59449.092 
20905000   -204490.21    1.6341356 -0.0009210651     61.70754    61.743198     61.57963    59468.162 
20910000   -204575.78    1.6349436 0.0013919656    61.795301    61.552474    61.553983    59487.151 
20915000   -204743.11    1.6084051 0.0021669464      61.6664    61.298293    61.736235    59506.163 
20920000   -204823.47    1.5782576 0.00075155859    61.704465    61.473584    61.424014    59525.226 
20925000   -204584.22    1.6385201 0.0048206139    61.695521    61.494897    61.514931    59544.317 
20930000   -204634.13    1.6342351  0.001204079    61.932567    61.420199    61.467791    59563.311 
20935000   -204493.98    1.5603906 -0.0029717435    61.672089    61.723197    61.702497     59582.25 
20940000   -204718.97    1.5767254 0.0023456209    61.670677    61.632001     61.40214    59601.253 
20945000   -204674.49    1.5490661 -0.0028543374     61.40231    61.849563    61.622309    59620.276 
20950000   -204550.49    1.5569098 -0.00018701503    61.623705    61.637994    61.796943    59639.269 
20955000   -204652.58    1.6091831 -0.001576153    61.528724    61.643998    61.732177    59658.279 
20960000   -204687.52    1.5807741 -0.0036795485    61.464564    61.606382    61.768788    59677.339 
20965000   -204746.18    1.6104429 0.00075784112    61.559134      61.3358    61.743968    59696.368 
20970000   -204702.22    1.5864335 0.0028388308     61.60182    61.443529    61.657115    59715.356 
20975000   -204616.76    1.5953372 -0.005299106    61.659467    61.571993    61.771729    59734.314 
20980000   -204850.19    1.5886916 0.0011410966    61.366921    61.475763    61.629542    59753.249 
20985000   -204883.04    1.5742611 -0.0058877249    61.577715    61.436138    61.805312    59772.262 
20990000   -204847.63    1.6127666 -0.0034929496    61.508407    61.608121    61.685434    59791.229 
20995000   -204810.35    1.6274608 -0.0052041733    61.733161    61.553045    61.616058    59810.235 
21000000   -204713.93    1.6193723 -0.0063184898     61.68621     61.67931    61.442386    59829.262 
21005000   -204841.61    1.5671096 0.0080904496     61.54371    61.496998    61.265258    59848.324 
21010000   -204781.91    1.6215196 -0.00026815533    61.594426    61.542662    61.585888    59867.318 
21015000   -204666.18    1.5770071 -0.0039356354    61.668043    61.710739    61.546802    59886.374 
21020000   -204716.82    1.6181084 -0.0028296807    61.987848    61.280714    61.536269    59905.365 
21025000   -204994.28    1.6061103 -0.00095379507     61.51717     61.42435    61.563802     59924.45 
21030000   -204866.15    1.5643451 -0.00014361912    61.647531    61.542162     61.41366    59943.462 
21035000   -204758.63    1.6271724 -0.00098184817    61.776318    61.591035    61.413537    59962.487 
21040000   -204760.84    1.5861155 3.7129421e-06    61.582548    61.716418      61.3456    59981.473 
21045000   -204782.41    1.6669106 -0.00064662806    61.596654    61.540682    61.523485    60000.447 
21050000   -204644.69    1.5866928 0.00039127538    61.560805    61.790893    61.460974     60019.45 
21055000   -204550.25    1.6363885 -0.0036013796    61.677238    61.596342    61.807809    60038.447 
21060000   -204781.13    1.6555674 0.0023253084    61.472131    61.562484    61.723361    60057.465 
21065000   -204717.77    1.5636619 0.0041516959    61.700814    61.524786     61.41255    60076.473 
21070000   -204609.89    1.5904368 0.00055758167    61.564613    61.533942    61.657873    60095.527 
21075000   -204503.15    1.5545003 0.0017262272    61.704032    61.790549    61.422342    60114.649 
21080000   -204458.34    1.5768225 0.0015240008    61.887018    61.566389    61.551158    60133.659 
21085000   -204618.31    1.5950341 -0.0041018052    61.619242    61.675804    61.728913    60152.694 
21090000   -204458.03    1.6131821 0.0097490473    61.701649    61.600999    61.536281    60171.713 
21095000   -204664.25    1.6163461 0.0049370658    61.621031    61.576075    61.637715     60190.74 
21100000   -204672.27    1.6091455 -0.0038117585    61.759835    61.540407    61.771367    60209.696 
21105000    -204674.7     1.576896 -0.00026867801    61.625097    61.642588    61.598554     60228.68 
21110000   -204595.27    1.5655489 0.0017925691    61.547709    61.885481    61.503365    60247.714 
21115000    -204764.9    1.5628485 0.0030251956    61.593619    61.547272    61.628802     60266.72 
21120000    -204920.4    1.6190373 0.00051041321    61.571755    61.533631    61.554029    60285.653 
21125000   -204784.48     1.591487 0.0015355217    61.560461    61.622757    61.549667    60304.673 
21130000   -204891.59    1.6515489 0.0045584868     61.89441    61.400111    61.251258    60323.687 
21135000   -205041.95    1.5912222 0.0079344123    61.385513    61.387882    61.332299    60342.656 
21140000   -204966.13    1.6195675 0.00062316447    61.299195    61.552905    61.484705    60361.746 
21145000   -204871.67    1.5915254 0.0028563487    61.454234    61.687867    61.287727    60380.799 
21150000   -204958.66    1.6058449 0.0015189313    61.317372     61.75174    61.505335    60399.887 
21155000   -204959.72    1.6320759 -0.00039026211    61.474798    61.676833    61.485672    60418.918 
21160000   -205138.45    1.5566415 0.00088600622    61.366522    61.414266    61.565807    60437.926 
21165000   -204949.07    1.5978059 0.00098660441    61.328919    61.646059    61.583007    60456.896 
21170000   -204836.28    1.5868746 -0.0074260829    61.647462    61.571617    61.632916    60475.881 
21175000   -204798.29    1.6345367 0.0037624798    61.553591    61.528698    61.436988    60494.897 
21180000   -204901.83    1.6253832 0.0019082166    61.580896    61.502522    61.442253    60513.884 
21185000   -204813.67    1.6478906 -0.0027645733    61.520769    61.701664    61.506242    60532.933 
21190000   -204762.38    1.6285123 0.0022334387     61.47693     61.68644    61.597838    60551.876 
21195000   -204651.29    1.5733509 0.0060146056    61.488388    61.382058    61.533469     60570.81 
21200000   -204768.73    1.6279898 -0.0016391426    61.522391     61.56134    61.566463     60589.81 
21205000   -204557.76     1.597731 -0.00068946731    61.638028    61.592133    61.638834    60608.841 
21210000   -204723.36    1.5711215 0.00027388023    61.760147     61.36128    61.594094    60627.883 
21215000   -204711.91     1.626571 0.0016622192    61.605336    61.346803    61.726729    60646.965 
21220000   -204667.24    1.5771229 -0.0012885991    61.660868    61.427388    61.688517    60665.993 
21225000   -204605.16    1.6137457 0.00081164925    61.643797    61.648866     61.60795    60685.024 
21230000   -204738.69    1.5881721 -0.0018309243    61.693278    61.632651    61.594175    60704.071 
21235000   -204785.95    1.5742558 -0.0020874627    61.676147    61.636968    61.543205    60723.105 
21240000   -204786.89    1.5966455 0.0024536589    61.510507    61.515181    61.543612    60742.126 
21245000   -204624.41    1.5594107 -0.0026788604    61.574864    61.623068    61.616458    60761.182 
21250000   -204681.94    1.6255695 0.0053517868    61.625278    61.570208    61.450843    60780.255 
21255000   -204686.33    1.5830448 0.0023256447    61.673829    61.628068     61.32926    60799.209 
21260000   -204812.84      1.56875 -0.002757396    61.605868    61.668875    61.366063    60818.165 
21265000   -204819.73    1.5547267 0.0025696211    61.727774    61.374093    61.407677    60837.175 
21270000   -204898.05    1.6131572 0.0070246635    61.582262    61.505737    61.292693    60856.153 
21275000   -205013.21    1.6090631 -0.0025976837    61.454456    61.380172    61.589645    60875.148 
21280000    -204767.1    1.5596072 0.0026199508     61.68139    61.238356    61.594595    60894.158 
21285000   -204711.11    1.5651294 0.0071524189    61.715018    61.452724    61.309484    60913.088 
21290000   -204633.71     1.587365 -0.0025822738     61.70373    61.488486    61.561295    60932.096 
21295000   -204832.58    1.5997251 0.0011204299    61.549697      61.5067    61.413834    60951.095 
21300000   -204829.79    1.5959872 -0.0040952243    61.759676    61.646493    61.301294    60970.073 
21305000   -204901.18    1.6226917 0.0015382729    61.367979    61.405263    61.693119    60989.062 
21310000   -204858.38    1.5811817 0.0031793949     61.53067    61.516662    61.311281    61008.051 
21315000   -204761.33    1.5577201 -0.002845319    61.693688      61.5874     61.55896    61027.082 
21320000   -204637.69    1.6665078 0.0001769722     61.53337    61.777638    61.458858    61046.067 
21325000   -204912.63    1.5869852 0.00098217205    61.575479    61.565514    61.338524     61065.02 
21330000    -204798.5     1.618251 -0.00068730508    61.649907    61.634204     61.37637    61084.001 
21335000   -204648.37    1.6075136 0.0047348398    61.307163    61.700725    61.514531    61102.942 
21340000   -204644.86    1.5893492 -0.0036967899    61.493444      61.8391    61.487134    61121.926 
21345000   -204580.16    1.5546179  0.010599149    61.514324    61.156226    61.619004    61140.992 
21350000   -204478.15     1.569524 -0.0017888574    61.711041    61.420134    61.780291    61159.949 
21355000   -204481.72    1.5941958 0.0049391391    61.492586    61.388042    61.745648    61178.955 
21360000   -204669.46    1.6436057 -0.0016269661    61.648293    61.442998    61.636151    61197.975 
21365000   -204509.36    1.6266608 -0.0025017858    61.606149    61.569162    61.630744    61216.989 
21370000   -204565.68    1.6039194 -0.007930181    61.784223    61.679668    61.620987    61236.025 
21375000    -204486.8    1.5965458 0.0016930686    61.527322    61.565941    61.577333    61255.058 
21380000   -204745.88    1.5694326 0.0026173146    61.612199    61.383817    61.523626    61274.088 
21385000   -204855.56    1.6057395 -0.0034215203    61.879029    61.563355    61.277368    61293.144 
21390000   -204839.49    1.5747232 0.0014556658    61.664755     61.50285    61.433875    61312.183 
21395000   -204624.84    1.6185018 0.0011669671     61.74786    61.554646     61.42593    61331.252 
21400000   -204683.93    1.6164826 0.0045157728    61.472419    61.718943    61.399187    61350.287 
21405000   -204671.98    1.6170028 -0.0048382001     61.60151    61.697389    61.445385    61369.264 
21410000   -204738.15    1.5991245 0.0037545832    61.570277     61.31191    61.756243    61388.259 
21415000   -204786.71    1.5980226 -0.0016495243    61.847916    61.618904    61.334384    61407.286 
21420000   -204715.49    1.5999977 0.0012956721    61.612734    61.439857    61.579247    61426.319 
21425000   -204525.25    1.6296615 -0.00085627353    61.776195    61.698686    61.406098    61445.403 
21430000   -204630.73    1.5542001 -0.0024335904    61.420599    61.852665     61.64593      61464.4 
21435000    -204550.3    1.5713785 -0.0024292394    61.558807    61.548621     61.81591    61483.427 
21440000    -204597.1    1.5476164 0.0027548342    61.524505    61.336429    61.804057    61502.441 
21445000   -204456.43    1.5848427 -0.0014308543    61.814344    61.677832    61.531637    61521.442 
21450000   -204571.34    1.5768615 0.0028885814    61.408256    61.626997    61.602781    61540.516 
21455000   -204617.67    1.6028825 -0.0017989263    61.694097    61.726649    61.503987    61559.534 
21460000   -204780.53    1.5895774 0.00057633412    61.867205    61.526902    61.183509    61578.604 
21465000   -204853.51    1.6296559 -0.00070008962    61.739637     61.45624    61.479617    61597.636 
21470000   -204859.67    1.6067508 0.0048639329    61.495185    61.527793     61.47531    61616.646 
21475000   -204585.54    1.6225603 -0.0026613562    61.672592    61.613306    61.600294    61635.685 
21480000   -204770.45    1.6032941 -0.0026311309    61.802314    61.318638    61.549593    61654.748 
21485000   -204780.11    1.5779886 -0.0016188555    61.537447    61.695158    61.508115    61673.689 
21490000   -204590.08    1.6260745 0.0054082991    61.644309    61.628323    61.496803    61692.666 
21495000    -204619.8    1.5870977 -0.0025795098     61.63893    61.836006    61.648604    61711.636 
21500000   -204365.48    1.5800056  0.001546251    61.391303    61.761284    61.836456      61730.6 
21505000    -204338.3    1.5943571 0.0011795536     61.80856     61.35981    61.900043     61749.67 
21510000   -204600.12     1.602732 0.0024755328    61.710685    61.464328     61.66329    61768.642 
21515000   -204589.07     1.641831 -0.00041455677    61.660567    61.665242    61.629893    61787.622 
21520000   -204459.55    1.6105223 -0.0056897308     61.68257    61.915275    61.571441    61806.649 
21525000   -204595.83    1.6258308 0.00013280285     61.62486    61.824295    61.437476    61825.603 
21530000    -204590.7    1.5929717 -0.00095148761    61.720896    61.627096    61.594378    61844.561 
21535000   -204606.61    1.5805798 -0.0045552961    61.710072    61.730159    61.547181    61863.433 
21540000   -204715.86     1.565028 -0.0033981386     61.64924    61.767125     61.45046    61882.389 
21545000   -204753.83    1.5794543 0.0016947802    61.725889    61.482668    61.470329    61901.373 
21550000   -204888.88    1.6069228 -0.0015037764    61.931707    61.529745    61.245999    61920.351 
21555000   -204716.13    1.5531576 -0.00073113094    61.601596    61.765296    61.478795     61939.38 
21560000   -204684.93    1.6537024 0.00050146154    61.431362    61.590132    61.694161    61958.469 
21565000   -204669.77    1.6239353 -0.0028838307    61.589086    61.559145    61.669913    61977.572 
21570000   -204551.04      1.58811 0.0018165707    61.658635    61.582847    61.463734    61996.608 
21575000   -204743.49    1.5872938 0.0045113061    61.420425    61.495994    61.584612    62015.717 
21580000   -204742.71    1.6064604 -0.0013328117    61.411968    61.688677    61.664197    62034.801 
21585000   -204756.11    1.5687401 -0.0022165253    61.423385    61.790348    61.561331    62053.766 
21590000   -204532.91    1.5982899 -0.0026490175    61.500832    61.612469    61.780177    62072.789 
21595000    -204783.4    1.5979512  0.006333329    61.358655    61.460115    61.557744    62091.813 
21600000   -204827.48    1.6102921 -0.0010624847    61.339376    61.655552    61.514484     62110.88 
21605000   -204849.07    1.5780778 -0.0010901173     61.50698    61.414371    61.553773    62129.915 
21610000   -204803.75    1.5969941 0.0027868431    61.677982    61.066369    61.602315    62148.939 
21615000   -204477.86    1.6198595  0.003618269    61.703503    61.379528     61.62156    62167.939 
21620000   -204890.73    1.5992477 -0.0027679918    61.661418     61.18164    61.781925     62186.97 
21625000    -204796.6    1.6398232 0.0019885184     61.70912    61.197909    61.705891    62205.986 
21630000   -204669.78     1.602514 -0.0020056727    61.588832    61.513691    61.717611    62225.017 
21635000   -204698.99    1.5619547 -0.0014686623    61.729943    61.360546    61.736678     62243.98 
21640000   -204833.18     1.610953 0.0047891453    61.470068    61.260037    61.698265    62262.986 
21645000      -204854    1.5536535 -0.0037051024    61.398399    61.597835    61.749149    62281.977 
21650000   -204821.08     1.572842 -0.0031640763     61.45818    61.592934    61.661756    62300.931 
21655000   -204741.79    1.5781273 0.0039308056    61.306216    61.590333    61.705966     62319.97 
21660000   -204638.84    1.6324859 0.00022930039    61.682821    61.630729    61.622617    62339.006 
21665000    -204683.8    1.6085873 0.0006987695     61.61241    61.556449    61.790825    62357.977 
21670000   -204755.75    1.5690774 -8.4080094e-05    61.670086      61.4811    61.723078    62376.912 
21675000   -204635.08    1.5964473 0.0012065587    61.855276    61.402546    61.717235    62395.888 
21680000   -204614.96    1.5901987 0.0024745573    61.909929    61.411856    61.641191    62414.909 
21685000   -204762.94    1.5911641 0.00087822376    61.822348    61.431127    61.496787    62433.896 
21690000   -204554.83    1.6016227 -0.00086019362    61.698537    61.600691    61.687189    62452.963 
21695000    -204568.3    1.5969773 -9.8372483e-05    61.539054    61.743185    61.665839    62471.973 
21700000   -204644.75    1.6007613 -0.00049206626    61.660384    61.377362    61.741653    62490.923 
21705000   -204671.43    1.6202251 0.0042544956    61.442253    61.441473    61.825387    62509.888 
21710000   -204729.91     1.587326 -0.0053274581    61.492424    61.713116    61.660725    62528.925 
21715000   -204441.26    1.5885118 0.00046690797    61.569886    61.589777     61.63346    62548.023 
21720000   -204253.98     1.601414 -0.0022961386    61.841448    61.813027    61.556624    62567.028 
21725000   -204358.06    1.5860851 0.0010493057    61.730695    61.699051    61.696357    62586.018 
21730000   -204477.62    1.5953853 -0.001067661    61.743121    61.457752    61.779511    62605.046 
21735000   -204474.22    1.6294101 0.0040164701    61.685711    61.303497    61.837421    62624.062 
21740000   -204445.95    1.6225902 -0.0052357408    61.824123    61.667166    61.803374     62643.08 
21745000   -204491.54    1.5994456 0.0042392301    61.687615    61.432533    61.663524    62662.103 
21750000   -204586.95    1.5921109 0.00058824967    61.645484    61.347499    61.723093    62681.165 
21755000   -204461.04    1.5379661 -0.0029762427    61.479957    61.724493    61.920258    62700.244 
21760000   -204326.77    1.6029257 -0.0028131519    61.746067    61.643638    61.835589     62719.37 
21765000   -204620.93    1.6487185 0.0036969579    61.437166    61.730218    61.616817    62738.408 
21770000    -204534.9    1.5662924 0.0016723586    61.513647    61.737471    61.487086    62757.485 
21775000   -204571.07    1.6016672 -0.00025807306    61.489253    61.534494    61.814519    62776.509 
21780000   -204351.33    1.6120028 0.00018447213    61.576031    61.672001     61.88587    62795.472 
21785000   -204529.13    1.5689518 0.0045032956     61.55178    61.515097    61.755304    62814.464 
21790000   -204417.87    1.5780121 -0.00072355012    61.632198    61.667358     61.75018     62833.46 
21795000   -204346.83    1.5763819 -0.0034437394    61.679507    61.560354    61.686887    62852.416 
21800000   -204471.51    1.5718594 0.0021494981    61.616606    61.557905    61.673006    62871.313 
21805000   -204302.15    1.6178946 0.0026939505    61.480208    61.754305    61.757838    62890.329 
21810000   -204261.49     1.580171 -0.00026259834    61.595728    62.046037    61.399784    62909.297 
21815000   -204285.01    1.6030115 0.00079949787    61.864958    61.701123      61.5783    62928.283 
21820000    -204242.3    1.5763937 -0.0023425262    61.856578    61.596165    61.758319    62947.328 
21825000   -204292.11    1.5965852 -0.0022549995    61.659115     61.86142    61.539993    62966.306 
21830000   -204431.38    1.6175068 0.0016903056    61.628619    61.660006    61.590624    62985.259 
21835000   -204323.87     1.638526 0.0029687098    61.733786    61.626579    61.528314    63004.228 
21840000   -204420.93    1.6144217 0.0023983602    61.822782    61.797947    61.333311    63023.254 
21845000   -204510.15    1.6065724 0.0013714366    61.615353    61.511516    61.753986    63042.268 
21850000   -204508.32     1.605097 0.0042614026    61.827246    61.476148    61.537877    63061.246 
21855000   -204474.18    1.5705311 0.00090589426    61.675656     61.59825    61.428001    63080.207 
21860000   -204530.32    1.6152019 -0.0044037601    61.676866    61.794533    61.492491    63099.219 
21865000   -204558.39    1.5537619 0.0025007502    61.638936    61.600191    61.555964    63118.247 
21870000    -204436.6    1.5895338 -0.0022484103    61.656011    61.799763    61.556276    63137.213 
21875000   -204383.29     1.618943 -0.00070809285     61.59293    61.940772     61.56544    63156.172 
21880000   -204308.58    1.6613145 -0.00067432927    62.002643    61.730019     61.43285    63175.143 
21885000   -204148.69    1.6133092 0.0064806108    61.783443     61.65433    61.536673    63194.076 
21890000   -204189.64    1.5906812 -0.0030812348    61.676548    61.844874    61.835384     63213.03 
21895000   -204346.22    1.6164777 0.0052040583    61.680092    61.684834    61.647477    63232.046 
21900000    -204388.5     1.571856 0.0039008422    61.948186    61.612483    61.464661    63251.045 
21905000   -204219.11    1.5571038 0.0031059584    61.695109    61.771132    61.732525    63270.004 
21910000   -204254.08    1.5903905 -0.0023242102    61.773837    61.807795    61.712158    63289.021 
21915000   -204323.38    1.6501588 -0.0017557277    61.825708     61.73274    61.690818    63307.951 
21920000   -204476.06    1.5909458 0.0054703597    61.987699    61.492731    61.440106    63326.951 
21925000   -204415.95    1.6148547 -0.004328746    61.853134    61.641171      61.8023    63345.997 
21930000   -204382.79    1.6462732 0.00016572127    61.810027     61.61805    61.538397    63365.006 
21935000    -204396.2    1.5770615 0.00061753082    61.767741    61.833642    61.427323    63383.944 
21940000   -204522.97    1.5444284 -0.00034643495    61.389894    61.744276    61.706734     63402.93 
21945000   -204387.51    1.6014948 -0.0059082382    61.589304    61.916821    61.760422    63421.856 
21950000   -204314.99    1.6046929 0.0030802079    61.665127    61.772326    61.575752    63440.819 
21955000   -204167.24    1.5894667 0.0083670653    61.682808    61.596539    61.610192     63459.71 
21960000    -204235.6    1.6049546 -0.0011283768    61.960674    61.922422     61.50546    63478.613 
21965000   -204135.02    1.6242789  0.001102731    61.952712    61.684708    61.636565    63497.565 
21970000   -204236.67    1.6110638 0.00031090109    61.945361    61.696289    61.652983    63516.554 
21975000   -204235.27    1.6155017  0.002131392    61.917688    61.575412     61.73653    63535.561 
21980000   -204199.13     1.637232 -0.0018827185    61.780324    61.729735    61.898811     63554.54 
21985000   -204394.53    1.6287215 0.0051769649     61.57839    61.843461    61.761737     63573.52 
21990000   -204338.66    1.6147955 -0.0012298933    61.812273    62.092206    61.509281      63592.5 
21995000   -204187.82    1.6301031 -0.0014255458    61.802769    61.938548    61.660159     63611.52 
22000000   -204308.93    1.5918052 0.0027485444    61.695553    61.733556    61.707361    63630.483 
22005000   -204456.58    1.5866861 0.0073847597    61.521524    61.629673    61.561579    63649.507 
22010000   -204236.81    1.5795125 -0.00017884872    61.936073    61.672227    61.568235    63668.515 
22015000   -204336.15    1.6077959 0.0041233392    61.403673    61.923366    61.802357    63687.471 
22020000   -204450.23      1.59527 -0.00060467322    61.680452    61.787825    61.610602    63706.443 
22025000   -204289.28    1.6261884 0.00047815476    61.798412    61.371885    61.866988    63725.471 
22030000   -204400.61    1.6040928 0.0032115562    61.757937    61.312308    61.849766    63744.492 
22035000   -204403.74    1.5715189 7.4262323e-05    61.870937    61.329173    61.907272    63763.466 
22040000   -204549.75    1.6118629 -0.00079774695     61.67249    61.703944    61.580638    63782.481 
22045000   -204434.22    1.5858497 -0.0007970189    61.787094    61.653754     61.78102    63801.456 
22050000    -204391.9    1.5888389 0.0010574416    61.819778    61.603229    61.567998    63820.456 
22055000   -204562.73    1.6475163 -0.00039332216    61.565424    61.663783     61.58735    63839.481 
22060000   -204281.64    1.6290013 0.00083946344    61.735933    61.942217    61.564677    63858.501 
22065000   -204393.11    1.6213315 0.0030701678    61.610698    61.738265    61.613321     63877.52 
22070000   -204121.43    1.6188585 -0.00075150447    62.070751    61.678966     61.52465    63896.498 
22075000   -204265.78    1.5578387 0.0003207148    61.694837    61.708302    61.716169    63915.495 
22080000   -204273.66    1.5798893 -0.0052032369    61.850371    61.605443    61.992682     63934.57 
22085000   -204242.56    1.5805989 0.0022942122    61.725967    61.719206    61.681848     63953.61 
22090000    -204344.6    1.6090656 0.0027798872    61.641539    61.656726    61.791742    63972.593 
22095000   -204167.86    1.6130336 -0.0060346461    61.707398    61.803113    61.934654    63991.613 
22100000   -204315.57     1.573208 -9.1266552e-06    61.616948    61.717816    61.783187    64010.604 
22105000   -204372.83    1.6103151 0.00084140749    61.853644    61.580126    61.611293    64029.648 
22110000   -204333.01    1.6291973 -0.0012197165    61.773153    61.470334    61.787444    64048.596 
22115000   -204452.95      1.61387 -0.0027391434    61.794055    61.860704    61.467314    64067.571 
22120000   -204508.55    1.5740722 -0.0016973419    61.507185    61.914315     61.56375    64086.605 
22125000   -204530.16    1.5719832 0.0021415407    61.725318     61.64241    61.454958    64105.661 
22130000   -204257.88    1.5868433  0.002181071    61.954571    61.565917    61.587938    64124.684 
22135000   -204335.36     1.607273 0.0043699601    61.841544    61.460554    61.646323    64143.727 
22140000   -204283.25    1.5929576 0.0022771397    61.878462    61.737182    61.517534    64162.788 
22145000   -204267.62    1.6075472 0.00063395703    61.906916    61.691973    61.628076     64181.78 
22150000   -204449.21    1.6164394 0.0052348741    61.708801    61.509379    61.651967     64200.82 
22155000   -204358.09    1.6202139 0.0030115252    61.752141    61.544685    61.637616    64219.887 
22160000      -204355    1.6054848 -0.00087133835    62.140887    61.632071    61.438079    64238.885 
22165000   -204281.42    1.5614255 -0.0049833763    61.948728    61.680921    61.630176    64257.895 
22170000   -204287.74    1.5831977 -0.0012296048    61.795253    61.637409    61.725327    64276.902 
22175000   -204181.98    1.5944804 0.0037360495    61.418621     61.59604     61.94375    64295.905 
22180000   -204289.67    1.5820474 -4.1713679e-05    61.714639    61.592533    61.699365    64314.915 
22185000   -204365.16    1.6238464 0.0038439762    61.534429    61.643332    61.646179    64333.936 
22190000   -204416.92    1.5619038 0.0015470762    61.395474    61.742757     61.60095    64352.985 
22195000   -204431.97    1.6544592 -0.003349997    61.550171    61.612998    61.783323    64372.046 
22200000   -204287.27    1.5901912 0.0010862541     61.99709    61.420708    61.537354    64391.083 
22205000   -204266.32    1.6240965 -0.0036271085    61.600535    61.831359    61.794563    64410.084 
22210000   -204413.95    1.6437321 -0.0014022908    61.652144    61.697961    61.592859    64429.094 
22215000    -204462.7    1.6153203 0.0033956294    61.535816     61.64296    61.599144    64448.108 
22220000   -204526.09    1.5638828 0.00044356878    61.524783    61.709725    61.607875    64467.135 
22225000   -204483.58    1.6052466 -0.0024472641    61.588675    61.566849    61.863028    64486.122 
22230000   -204635.14    1.5873136 0.0023132418    61.716233    61.576235    61.480423    64505.141 
22235000   -204546.62    1.6071987 0.0021027471    61.628253    61.573625    61.591276    64524.217 
22240000   -204518.93    1.6143978 -0.0015593521    61.808039    61.640877    61.514834    64543.206 
22245000   -204328.93    1.6105905 -0.0042550622    61.844244    61.655611    61.730408    64562.252 
22250000   -204358.14    1.6071494 -0.0090141098    61.799492    61.820627    61.649066    64581.269 
22255000   -204501.27    1.5773723 -0.0026324284    61.609333    61.556397    61.617424    64600.331 
22260000   -204607.96     1.609925 -0.00015501666    61.884153    61.711107    61.260485    64619.345 
22265000   -204575.22    1.6710773 0.0016995138    61.783404     61.48162    61.703848    64638.429 
22270000   -204458.14    1.5660443 -0.0011136966    61.683732    61.809833    61.706634    64657.472 
22275000   -204358.67    1.6318413 -0.0033015442    61.507276    61.981571    61.791723    64676.498 
22280000    -204518.1    1.5984599 -0.0036454612    61.662724    61.838207    61.639061    64695.484 
22285000   -204198.79    1.5713612 -0.00037837904    61.831247    61.756855    61.718793    64714.497 
22290000   -204225.29    1.5729957 -0.0026069208    61.713669    61.864203    61.958247    64733.479 
22295000   -204333.25    1.5928886 0.0014722394    61.742662    61.625491     61.80033    64752.469 
22300000   -204055.59    1.6154001 -0.00086393534    62.015833    61.866362    61.618774    64771.501 
22305000   -204138.25    1.5774363 0.0021593514    61.861511    61.822579    61.647841    64790.539 
22310000   -204300.62    1.5789314  0.014292879    61.659313    61.741023    61.485287    64809.516 
22315000   -204209.66    1.6141623 0.00080974485    61.660503    61.842518    61.777055    64828.515 
22320000   -204281.03    1.6242738 -0.0011115097    61.749058    61.781032    61.826122    64847.495 
22325000   -204507.78    1.5722489 -0.00026771629    61.918653     61.49239    61.581959    64866.528 
22330000   -204604.44    1.6008796  0.004135873    61.468542    61.424434    61.760196    64885.554 
22335000    -204451.1    1.6348591 -0.0011414663    61.739982    61.653853    61.648638    64904.537 
22340000   -204298.04    1.5848832 0.0020007889    61.785699    61.463151    61.756703    64923.633 
22345000   -204379.86    1.5939084 -0.001132053    61.773629    61.748985    61.462443    64942.705 
22350000      -204472    1.5863726 -0.0020411801    61.513116    61.703714    61.735593     64961.71 
22355000   -204504.87    1.6419463 0.0034730932    61.593973    61.537857    61.494918    64980.761 
22360000   -204409.45    1.6773407 0.0005187772    61.630933    61.894323    61.414196    64999.828 
22365000   -204422.13    1.5959307 -0.0045284484    61.890541    61.608173    61.592342    65018.851 
22370000    -204508.9    1.5469496 -0.0017331499     61.70764    61.579343    61.658364    65037.909 
22375000   -204346.09    1.6016897 -0.0018081303    61.864366    61.562573    61.664313    65056.957 
22380000   -204356.06    1.6209499 -0.0024136864    61.748333    61.600359    61.742487    65075.982 
22385000   -204424.69    1.5889368 0.0031723346    61.969684    61.590688    61.427628     65094.99 
22390000   -204540.32    1.6027197 -0.0073419593    61.744713    61.786223    61.648787    65114.066 
22395000   -204401.79    1.6116258 0.0065498448    61.639434    61.622464    61.679977    65133.082 
22400000    -204452.9    1.6884424 -0.0034963632    61.736816    61.723798    61.817878    65152.132 
22405000   -204545.21    1.6090056 -0.0040160798    61.774234    61.585246    61.828021    65171.129 
22410000   -204327.19    1.5870655 0.0061922245    61.758664    61.560183    61.711289    65190.126 
22415000   -204416.92    1.5929456 -0.0017554061    61.838173    61.570212    61.660866    65209.148 
22420000   -204396.44    1.5801855 -0.0085420958    61.695563     62.12904    61.603534    65228.179 
22425000   -204473.43    1.6035974 -0.0039416993    61.685313    61.704949    61.609745    65247.204 
22430000    -204553.2    1.6313139 0.0046504677    61.488342    61.809716    61.570745    65266.209 
22435000   -204431.37    1.6008164 0.0016440652    61.547978    61.706856    61.758526    65285.203 
22440000   -204247.79    1.5870935 -0.0026440308    61.750575    61.783566     61.91492    65304.172 
22445000   -204130.74    1.6082173 -0.0006214563    61.725635    61.889598    61.876471    65323.206 
22450000   -204143.67     1.644007 0.0008314585    61.476434    61.872814    62.142471    65342.197 
22455000   -204257.37     1.602372 0.0018172453    61.890018     61.78004    61.582261    65361.236 
22460000   -204317.17     1.586834 0.0053830087    61.819919    61.429307    61.752306    65380.198 
22465000   -204404.52    1.5862773 -0.0042738664    61.619448    61.706995    61.912774    65399.118 
22470000   -204312.15    1.5854855 0.0006982156    61.522864    61.871771    61.892204    65418.071 
22475000   -204293.13    1.6293204 -0.0032435449    61.568495      61.7095    61.979463    65437.078 
22480000   -204461.75     1.579609 0.00098599244    61.732065    61.840511    61.474953    65456.061 
22485000   -204558.45    1.5594572 -0.0043812272    61.637429     61.98273    61.556048    65475.084 
22490000   -204299.27    1.5964687 0.0032419071    61.548176    61.871811    61.582452    65494.132 
22495000   -204503.47    1.5831992 0.0034235226     61.43722     61.79884    61.661485    65513.195 
22500000   -204599.25    1.5593248 0.0016959816    61.628907    61.510114    61.694378    65532.223 
22505000   -204717.89     1.624489 0.0006086047    61.505871    61.381523    61.783139    65551.296 
22510000    -204681.7    1.6042564 0.0021763357    61.781639    61.465712    61.495693    65570.363 
22515000      -204728    1.6503375 -0.0064408963    61.769397    61.518585    61.715803    65589.414 
22520000    -204686.5    1.6579143  -0.00551474    61.505571     61.67834    61.714079    65608.403 
22525000   -204507.96     1.567027 0.0046671218    61.530755    61.484684    61.808692    65627.418 
22530000   -204654.73    1.6194776 0.0074144301    61.489268    61.577524    61.599199    65646.413 
22535000   -204469.67    1.5911434  0.002152276    61.602119     61.75204    61.728285    65665.452 
22540000   -204221.87    1.5865541 -0.0030251454     62.15031    61.427855    61.834195    65684.412 
22545000   -204380.55    1.5939571 -0.0059445082    62.159449    61.349993    61.738284     65703.43 
22550000    -204413.1    1.6504505 -0.00067163556    61.702542    61.746146    61.746023    65722.496 
22555000   -204350.88    1.6340155 0.0049584773    61.436216    61.679824     61.80104    65741.628 
22560000   -204487.01    1.6199726 -0.0014252194    61.504706    61.616874    61.782177    65760.622 
22565000    -204456.6    1.5765548 -0.00018959264    61.611985    61.433077    61.851073    65779.613 
22570000   -204585.04    1.6120697 0.0074931005    61.588986    61.537794    61.577609    65798.677 
22575000   -204574.48    1.5805157 4.7466651e-05    61.659704     61.45709    61.739321    65817.663 
22580000   -204512.81    1.5940695 0.0012034032     61.59705     61.58338    61.655866    65836.738 
22585000   -204489.94    1.6371147 0.0028798671    61.658058     61.61798    61.533383    65855.795 
22590000   -204337.52    1.5954938 0.0036836989    61.699572    61.507315    61.535291     65874.78 
22595000   -204506.16    1.6296662 -0.0046253769    61.652326    61.832143    61.489246    65893.798 
22600000   -204563.32     1.579799 0.0018146414    61.468471    61.651721    61.660499    65912.788 
22605000   -204266.01    1.6462239 0.0041254733    61.884576    61.536149    61.690775    65931.742 
22610000   -204330.65    1.6160367 0.0038473236      61.7889    61.706761    61.590929    65950.727 
22615000   -204266.07    1.5510987 0.0014661876    61.798915    61.907117    61.407443    65969.733 
22620000   -204246.18    1.5759954 -1.1170667e-05     61.86179    61.698551    61.610098    65988.695 
22625000   -204408.61    1.6484909 0.0032950097    61.914299    61.541558    61.625206    66007.652 
22630000   -204246.44    1.5675543  0.001338441    61.874493    61.694695    61.539744    66026.618 
22635000   -204324.61    1.5972131 0.0013275369    61.825255    61.729524     61.62595     66045.59 
22640000   -204317.48    1.6147657 -0.0012776525    62.037827    61.879403    61.429375    66064.566 
22645000   -204299.17    1.5942144 -0.0025514916     61.74141    61.894904    61.814466    66083.579 
22650000   -204372.24    1.6406686 0.0021560945    61.485814    61.804597    61.787244    66102.599 
22655000   -204391.81    1.6133859 0.0003498137    61.577337     62.01978    61.728795    66121.651 
22660000   -204341.61    1.5839112 0.00052710501     61.44104    61.956684    61.756987    66140.687 
22665000   -204180.04     1.609033 0.00094498971    61.856181    61.582946     61.73728    66159.679 
22670000   -204168.87    1.6053835 -0.0026149651    61.870735    61.768848    61.693701    66178.715 
22675000    -204367.3    1.6492572 -0.00051363643    61.901586    61.659719    61.713183     66197.74 
22680000   -204420.21     1.645708 0.0010560848    61.832263    61.769973    61.482021    66216.782 
22685000   -204365.38    1.6069377 0.0008041226    61.567543    61.712644    61.789529    66235.795 
22690000   -204250.33    1.6093953 -0.0010803937     61.55286    62.002726    61.641139    66254.824 
22695000   -204430.02       1.5718 -0.0069615925    61.704185    61.836575    61.820006    66273.836 
22700000    -204443.1    1.6429664 -0.0026454398    61.797053    61.958977    61.542226    66292.889 
22705000   -204389.82    1.5947193 0.0034888066    62.023512     61.56172    61.447183    66311.912 
22710000   -204451.03    1.5959941 0.0048206028    61.835329    61.587041    61.487676    66330.941 
22715000   -204453.21    1.6116933 0.0020619161    61.749492    61.733366    61.490919    66350.005 
22720000   -204476.81    1.6174869 0.0013705118    61.613873    61.749767    61.613942    66369.141 
22725000   -204460.07    1.5591548 -0.0005567718    61.665725    61.555899    61.709525     66388.19 
22730000   -204420.11    1.5582941 -0.0027803474    61.754015    61.768991    61.707805    66407.218 
22735000   -204612.21    1.5860203 -0.000329101    61.504557    61.818471    61.695072    66426.286 
22740000   -204596.58    1.6164144 0.0062272943    61.587038    61.620523    61.508351    66445.398 
22745000   -204656.29    1.6410159 0.00061539377    61.505549    61.595262    61.716475    66464.461 
22750000   -204559.87    1.6191553 -0.003068043     61.82503    61.484153    61.695966    66483.504 
22755000   -204505.62    1.5708327 0.0014388195    61.945925    61.439951    61.588987    66502.465 
22760000   -204332.26    1.5645319 -0.0011191776     62.11321    61.419054    61.561961    66521.438 
22765000   -204492.03    1.6215717 0.0052940488    61.824529    61.403075    61.536356    66540.391 
22770000   -204513.51    1.6106054 0.0089396428    61.689097    61.545258    61.328791    66559.388 
22775000   -204584.25    1.5719934 -0.00017175354    61.813739    61.471623    61.640097    66578.398 
22780000   -204523.09    1.5441949 0.0061330892    61.651144    61.427667    61.505416    66597.404 
22785000   -204667.85    1.5704433 -0.0060193698     61.69361     61.50095    61.660987    66616.454 
22790000   -204817.11    1.6079508 0.00042671817    61.512632    61.584151    61.536997    66635.495 
22795000   -204626.93    1.5628715 0.00089595676    61.533738    61.440529       61.678    66654.622 
22800000   -204689.74    1.6075955 -0.0028918942    61.750886    61.581753    61.461471    66673.698 
22805000   -204854.49    1.6221065 -0.0062326112    61.515105    61.542616    61.704565    66692.725 
22810000   -204540.41    1.6135335 -0.0001279131     61.56074    61.452588     61.74429    66711.767 
22815000   -204447.84      1.61906 0.0031033152    61.621664    61.305127     61.85989     66730.82 
22820000   -204586.04    1.5997711 -0.0056310913    61.878208    61.608536    61.401266    66749.881 
22825000   -204581.48    1.5804479 0.0035844718    61.778883    61.332484    61.529377    66768.962 
22830000   -204713.29    1.5831984  0.001301291    61.775319    61.364627    61.421274    66788.008 
22835000   -204601.23    1.5923556 -0.00038605245    61.813103    61.416445    61.562545    66807.087 
22840000   -204598.28    1.6058636 -0.00045690563    61.906781    61.201936    61.774385     66826.14 
22845000   -204524.11    1.6077105 -0.0028516216    61.739893    61.611745    61.680223    66845.186 
22850000   -204446.52    1.5812825 -0.0058004037    61.758431    61.604133    61.784606    66864.207 
22855000   -204539.29     1.626583 -0.0012583777    61.485492    61.516856    61.992492    66883.166 
22860000   -204509.59    1.6518536 0.0050523878     61.54503    61.403144    61.699218    66902.218 
22865000    -204512.4    1.6070541 0.0036849341    61.673349    61.448759    61.719136    66921.296 
22870000   -204561.35    1.6041528 -0.005572952    61.825584    61.683364     61.71082    66940.317 
22875000   -204370.05    1.5940291 0.0037992814    61.653652    61.634461    61.703348     66959.34 
22880000   -204392.73    1.5964867 -0.00057182834    61.585811    61.584045    61.825796    66978.355 
22885000    -204557.4    1.6569412 -0.0028594259    61.527389      61.6639    61.672117    66997.393 
22890000   -204744.21    1.6138436 0.0033938223    61.305499    61.545716    61.772511    67016.466 
22895000   -204744.68    1.5832882 -0.0064981589    61.537643    61.647455    61.649298    67035.452 
22900000   -204861.54    1.6086158 0.0003270242    61.428024    61.552241    61.719495    67054.531 
22905000   -204723.25    1.6487445 0.0016278316    61.379928    61.636593    61.631541    67073.638 
22910000   -204660.15    1.5789332 0.0047341321    61.475571    61.729446    61.436207    67092.683 
22915000   -204554.46    1.5833853 -0.001103682    61.443533    61.680943    61.692689     67111.74 
22920000   -204606.97    1.6206848 0.00088834265    61.519362    61.507118    61.753516    67130.833 
22925000   -204512.72    1.5875567   0.00542106    61.349526    61.688143     61.52902    67149.904 
22930000   -204550.59    1.5664021 0.0055017333    61.451931    61.705398    61.351437    67168.966 
22935000   -204334.42    1.6111458 0.00063097001    61.407646    61.779544    61.559875     67188.01 
22940000    -204363.5    1.5663884 0.00043732563     61.42586    61.659634    61.826059      67207.1 
22945000   -204493.64    1.6046706 0.00032043691    61.529354    61.698414     61.70454    67226.106 
22950000   -204528.37     1.617333 0.0044747807     61.64036     61.57756    61.588956    67245.161 
22955000   -204541.24      1.61424 -0.0030931575    61.765061    61.532717     61.69721    67264.169 
22960000   -204134.61    1.5948173 -0.00089597361    61.707969    61.776942    61.690424    67283.161 
22965000   -204211.76    1.5938932 -0.0015441274    61.835298    61.682832    61.717645    67302.137 
22970000   -204247.94    1.6631612 0.00080956915    61.761456     61.64989    61.841722    67321.096 
22975000   -204334.79    1.6304551 0.0048564753    61.831472    61.479268    61.837756    67340.065 
22980000   -204450.83    1.6190414 -0.0016050433    61.960401    61.601458    61.610413    67359.132 
22985000   -204549.46     1.630192 0.0025314952    61.492634    61.742376    61.645238    67378.177 
22990000   -204389.15    1.5693494 -0.0050697668    61.666739    61.797365    61.781352    67397.238 
22995000   -204538.54    1.6112847 0.0006727644    61.603059    61.726495    61.538753    67416.274 
23000000   -204720.49    1.5999971 0.00026088784    61.817771    61.495294    61.498802     67435.31 
23005000    -204550.8    1.6382603 -0.00060099845    61.718998    61.633242    61.494034    67454.307 
23010000   -204573.16    1.6122266 -9.7895846e-05    61.793588    61.370108    61.633594    67473.377 
23015000   -204513.05     1.610715 0.0018308274    61.690897    61.534422    61.695588    67492.387 
23020000   -204538.98    1.5773096 -0.0063548226    61.795666     61.65025    61.585765    67511.386 
23025000   -204332.36    1.5805849 0.00015443127     61.74387    61.809591    61.556394    67530.383 
23030000   -204448.84    1.5786662 0.00084542748    61.603886    61.793213    61.681522    67549.414 
23035000    -204640.9    1.5984011  0.002064328     61.93433    61.667535    61.282591    67568.462 
23040000   -204439.94    1.6056779 -0.0030796596    61.816478      61.5845    61.654668    67587.499 
23045000   -204552.58    1.5920276 0.0030827492    61.653007    61.394687    61.566003    67606.529 
23050000   -204547.37    1.6169641 0.0012074878    61.542419    61.765203    61.554359    67625.528 
23055000   -204528.85    1.5771449 -0.0041224064    61.838048     61.79171    61.524956    67644.489 
23060000   -204757.29    1.5660143 0.0017388295    61.406692    61.783388    61.416662    67663.541 
23065000   -204481.45    1.6119711 0.0071072557    61.672224    61.520971    61.622492    67682.541 
23070000   -204589.39    1.5892788 0.0012335996     61.67309    61.654784    61.597853    67701.539 
23075000   -204559.53    1.6132504 -0.00071785681    61.691796    61.423978    61.684554    67720.665 
23080000   -204763.34    1.5663177 0.00018468955    61.718481    61.554911    61.367599    67739.758 
23085000   -204813.05    1.6123018 0.00035252633    61.760975    61.478771    61.375847    67758.794 
23090000   -204595.06    1.5734163 -0.0026728089    61.687147    61.611798    61.568006    67777.797 
23095000      -204657    1.5979707 -0.0013871035    61.653369    61.675167    61.502938      67796.8 
23100000   -204438.25     1.605813 -0.002478224    61.338194    61.745665    61.837511    67815.806 
23105000   -204562.31    1.5818028 -0.0001712366     61.25077    61.816457    61.710507    67834.799 
23110000   -204634.76    1.5985008 -0.00070711221    61.323995     61.66518     61.67945    67853.873 
23115000    -204969.6    1.6283788 0.00032973825    61.542604    61.509338    61.360115    67872.946 
23120000   -204696.64    1.6025344 -0.0027471685    61.654025    61.816517    61.333079    67891.974 
23125000   -204695.97    1.6070044 -0.0042181907    61.854424    61.542869    61.440164    67911.028 
23130000   -204788.48    1.6231144 0.0065569865    61.557844    61.560245    61.418328    67930.096 
23135000   -204556.91    1.5846184 -0.0088606274    61.904426    61.499741    61.684574    67949.155 
23140000   -204607.11    1.5943368 -0.0033371832    61.546189    61.572618    61.906563    67968.158 
23145000   -204609.32     1.579503 -0.0010264442     61.52197    61.543222    61.634058    67987.199 
23150000   -204471.94    1.6136905 -0.0042189044     61.83434    61.773543    61.397436    68006.227 
23155000   -204576.91    1.5967222 0.0068473167    61.774631    61.321636    61.508901    68025.244 
23160000    -204555.4    1.6041418 -0.0034961227    61.488952    61.725678    61.758969    68044.284 
23165000   -204526.45    1.6205365 0.0037962257    61.529386    61.697351    61.527126    68063.282 
23170000   -204554.98    1.6292111 0.0014492629    61.427068    61.559785    61.846177    68082.413 
23175000   -204601.32    1.6061063 -0.0036676982    61.337373    61.760977    61.873772    68101.443 
23180000   -204532.34    1.5804866 -0.0015882924    61.502186    61.859647    61.675748    68120.517 
23185000    -204639.3    1.5863095 -0.00058237015    61.554334    61.600445    61.702517    68139.599 
23190000   -204398.78     1.631998 -0.0004092529    61.446047    61.880227    61.569706     68158.69 
23195000    -204537.5    1.6305599 0.0040237838    61.565669    61.734495    61.389907    68177.686 
23200000    -204312.5     1.578074 -0.0003803418     61.82944     61.74499    61.543205    68196.695 
23205000   -204093.98    1.5768279 0.0030130972    62.036757    61.753153    61.418469    68215.701 
23210000   -204348.25     1.590938 0.00085037522    61.762909    61.793521    61.430008    68234.681 
23215000   -204541.96      1.61057 -0.0015933707    61.574814    61.918535    61.518976    68253.697 
23220000   -204375.08    1.5792644 -0.00089080208     61.60219    61.916594    61.565144    68272.691 
23225000   -204429.21    1.5832555 0.0012348174    61.616227     61.87471    61.507122    68291.704 
23230000   -204269.43    1.6418915 -0.002668146    61.723421    61.720654    61.880656    68310.704 
23235000   -204485.97    1.5761867 -0.0011245568     61.67239    61.838117    61.530458    68329.685 
23240000   -204553.41    1.5810247 -0.00059809268    61.561575    61.787442     61.53108    68348.674 
23245000   -204416.67     1.610759 0.0050232247    61.577364     61.69886    61.595034    68367.721 
23250000   -204343.27    1.6170979 0.0034659611    61.770556    61.651167    61.587599    68386.711 
23255000      -204319    1.5636543 0.00054407619    61.698099    61.833491    61.542183    68405.683 
23260000   -204260.18    1.6360026 0.0022665621    61.896601    61.817182    61.454546    68424.707 
23265000   -204316.01    1.5574916 -0.00075762681    61.678925    61.694578    61.635294    68443.687 
23270000   -204375.81    1.5828452 -0.00038189467    61.776323    61.613335    61.620849    68462.684 
23275000   -204542.12     1.559306 0.00052361167    61.694244    61.473529    61.637533    68481.675 
23280000   -204526.88    1.5854569  0.010319953    61.578702    61.524079    61.309367    68500.711 
23285000   -204520.47    1.6200325 -0.002583342     61.87433    61.557792     61.59158    68519.707 
23290000   -204506.01    1.6393159 0.00022162509    61.842093    61.795625    61.379121    68538.744 
23295000   -204515.41    1.6128759 0.00074240653    61.729604    61.869175    61.257828    68557.682 
23300000   -204533.06    1.5845062 0.00062118795    61.474955    61.831776    61.525077    68576.584 
23305000   -204608.32    1.6255973 0.0012053065     61.56465    61.824061    61.453394    68595.512 
23310000   -204453.34    1.5984337 -0.0039860178    61.780017    61.714087    61.605178    68614.522 
23315000   -204515.86    1.6078074 0.0028147862    61.809503    61.559942    61.395666    68633.586 
23320000   -204473.65    1.6032045 0.0013285455    61.682109    61.582421     61.73541    68652.654 
23325000   -204378.14    1.5881383 -0.001734173    61.684927    61.795033    61.525826     68671.78 
23330000   -204380.89    1.6092236  0.001515539    61.814759    61.657756    61.622692    68690.804 
23335000   -204413.04    1.5700705 -0.0020703227    61.806619    61.745293    61.554731    68709.824 
23340000   -204542.22    1.5899155 0.00042045348    61.746548    61.619424    61.573538    68728.859 
23345000   -204417.96    1.6000025 -0.0026220513     61.74104    61.637963    61.782205    68747.905 
23350000   -204278.65    1.5939431   0.00336976    61.939258    61.417423    61.715067    68766.917 
23355000   -204494.76    1.5808723 0.0042727024    61.627361    61.538458    61.694521     68785.91 
